./desired/Marinica/9_7/89_108/cluster.dat


8201 atoms
0 bonds
0 angles
0 dihedrals
0 impropers

2 atom types
0 bond types
0 angle types
0 dihedral types
0 improper types


0.000      50.29424 xlo xhi
0.000      50.29424 ylo yhi
0.000      50.29424 zlo zhi


Atoms

1 1 19.6821 29.2436 26.134
2 1 19.7137 32.2852 22.9359
3 1 16.5246 29.2112 26.0652
4 1 19.8296 32.3905 29.1465
5 1 19.5672 29.2718 22.7095
6 1 18.1791 33.9662 27.6585
7 1 16.5483 32.343 26.0816
8 1 18.1246 30.756 24.4165
9 1 24.4876 27.6148 18.0952
10 1 21.2127 30.59 24.4234
11 1 22.8794 32.3063 16.5533
12 1 21.3113 33.9229 18.1677
13 1 16.5086 29.2073 22.834
14 1 18.145 33.8891 30.8116
15 1 24.5679 33.8758 21.278
16 1 21.3209 33.7659 24.4501
17 1 21.3494 30.7777 30.7317
18 1 16.5049 29.1982 19.6043
19 1 17.9778 30.7961 21.3013
20 1 19.7755 32.3282 26.0631
21 1 24.5951 30.764 27.6837
22 1 16.5619 32.325 19.6837
23 1 22.7779 29.1533 19.6163
24 1 16.5385 32.4475 16.618
25 1 18.1252 30.8455 18.0494
26 1 18.1357 33.9368 18.1255
27 1 26.1186 32.3885 19.683
28 1 19.6877 29.257 29.3648
29 1 24.5088 30.7671 30.7287
30 1 16.5609 32.3237 22.8686
31 1 21.299 30.7428 18.0929
32 1 26.3366 29.3755 22.8593
33 1 23.0317 29.1612 26.0915
34 1 22.9625 29.1121 16.5206
35 1 18.1963 33.9355 24.4566
36 1 21.3799 33.9283 27.6858
37 1 21.3229 33.9919 30.7268
38 1 19.727 32.3941 19.7034
39 1 24.4936 33.9008 18.0759
40 1 22.9645 32.2967 29.2313
41 1 20.599 27.5232 24.344
42 1 26.2809 32.5126 26.2284
43 1 26.2778 32.3231 22.9174
44 1 16.4682 29.2212 16.4827
45 1 24.6743 27.744 27.7885
46 1 19.7015 32.4168 16.5576
47 1 22.8954 32.3057 26.0429
48 1 26.1604 29.2487 16.5797
49 1 21.3381 33.854 21.2556
50 1 24.9506 30.9295 24.8347
51 1 22.9735 32.3383 22.9225
52 1 18.1082 30.8156 30.8202
53 1 21.3271 30.7206 27.6025
54 1 16.6394 32.3516 29.2225
55 1 18.2568 33.861 21.3294
56 1 24.4356 30.8598 18.0604
57 1 18.0413 27.7364 27.6388
58 2 23.544 29.7402 23.3076
59 1 18.0919 30.7956 27.5462
60 1 21.2596 30.8448 21.273
61 1 26.1666 29.3367 19.5877
62 1 24.5802 30.7952 21.1627
63 1 19.6082 29.3465 19.5804
64 1 22.9572 32.4011 19.7048
65 1 24.5502 33.9132 24.48
66 1 17.8803 27.6162 21.1861
67 1 21.2055 27.6804 27.7787
68 1 24.5013 33.9221 30.8052
69 1 26.2422 29.2575 29.3262
70 1 16.5157 29.2494 29.2837
71 1 19.6692 29.2804 16.5719
72 1 24.5263 33.8528 27.6852
73 1 17.9703 27.6781 24.4465
74 1 21.2121 27.6332 18.0178
75 1 24.5151 27.563 30.7839
76 2 23.148 27.2942 24.1925
77 1 22.9562 29.2837 29.1392
78 1 18.0832 27.6365 30.8105
79 1 26.1613 32.3753 16.61
80 1 24.6876 28.0991 21.2255
81 1 21.4705 27.5972 30.6329
82 1 26.2067 32.3647 29.2731
83 1 26.319 29.1846 26.3047
84 1 18.0451 27.6733 17.9392
85 2 25.3755 27.6352 24.5138
86 2 22.053 28.4206 22.0552
87 1 20.432 27.2777 20.8276
88 1 26.8491 26.3139 22.5788
89 1 22.8252 26.2598 19.7984
90 1 30.8904 30.8354 27.6267
91 1 30.8649 27.6043 18.0225
92 1 30.9331 33.965 24.4116
93 1 30.9424 30.7456 30.8518
94 1 29.268 32.4566 22.8632
95 1 27.7317 33.957 30.8059
96 1 30.8885 33.8569 18.0729
97 1 29.3167 29.3159 16.5951
98 1 29.2743 32.398 16.5129
99 1 29.3458 29.2657 22.8612
100 1 30.8088 34.0052 21.3248
101 1 29.3786 32.3974 29.3266
102 1 30.8693 33.9703 27.6899
103 1 30.9202 33.9853 30.8524
104 1 27.754 30.803 30.8996
105 1 30.9024 30.8253 24.5044
106 1 30.8682 30.8881 21.2951
107 1 27.8767 30.8021 27.7959
108 1 29.3612 32.4674 19.7392
109 1 30.8822 27.6976 21.2557
110 1 31.0037 27.7463 24.5175
111 1 30.9079 30.797 18.0654
112 1 31.0071 27.5986 30.8908
113 1 27.7043 33.9371 24.4679
114 1 29.4221 29.3168 19.607
115 1 29.3896 29.2479 29.2792
116 1 29.3933 29.2213 26.1458
117 1 29.2831 32.4492 26.0655
118 1 30.9411 27.6202 27.7816
119 1 27.7079 33.9407 18.1857
120 1 27.723 33.9578 21.2998
121 1 27.9871 27.6338 24.5616
122 1 27.8367 30.8328 24.5607
123 1 27.8037 34.0194 27.7154
124 1 27.8021 27.6265 30.8857
125 1 27.7619 30.91 18.0749
126 1 27.931 27.687 27.7971
127 1 27.8353 30.8398 21.2334
128 1 27.8048 27.7951 21.0495
129 1 27.6807 27.6561 18.0915
130 1 21.3043 18.1701 21.3226
131 1 17.8914 24.4272 17.971
132 1 18.1282 18.1851 24.4856
133 1 19.7204 16.5607 26.1176
134 1 16.506 19.7117 26.1546
135 1 20.7176 21.1255 24.3172
136 1 18.1438 24.4993 30.7591
137 1 16.5185 19.5812 19.6397
138 1 18.127 18.022 21.2953
139 1 16.5593 16.5329 29.1644
140 1 19.6901 22.797 16.4263
141 1 17.9261 21.1416 18.0152
142 1 19.6109 19.5183 19.602
143 1 16.562 16.5505 22.8339
144 1 19.5914 19.5633 22.7731
145 1 16.4692 19.6252 16.4387
146 1 16.441 22.7258 19.6132
147 1 16.5233 19.6962 29.2726
148 1 16.488 22.7984 29.2189
149 1 24.5557 21.4024 27.5161
150 1 16.5602 16.5365 25.9667
151 1 26.1472 16.5863 22.9273
152 1 22.9225 16.7124 22.8732
153 1 26.1313 19.6931 22.8982
154 1 22.9344 16.5472 25.9844
155 1 19.8483 16.5012 19.6647
156 1 19.7473 16.4919 29.1904
157 1 21.3712 18.0342 30.7606
158 1 22.9831 16.5349 29.2133
159 1 19.6987 16.4452 16.5027
160 1 18.15 18.0888 27.6596
161 1 16.5681 19.5661 22.8251
162 1 16.5028 16.5028 16.5028
163 1 21.255 18.1305 27.6773
164 1 24.5901 18.1447 24.4953
165 1 19.7586 19.7158 29.2571
166 1 18.08 21.2557 24.4125
167 1 18.0715 21.2369 30.876
168 1 22.6466 22.4836 19.4099
169 1 21.3633 21.2542 30.8304
170 1 22.9455 19.5888 16.5141
171 1 18.0638 17.9356 18.0269
172 1 23.0279 16.5955 19.7968
173 1 26.1137 16.4593 26.1107
174 1 26.1275 16.5404 29.2237
175 1 22.9154 16.5415 16.6017
176 1 16.5851 16.4598 19.8
177 1 21.1787 21.1847 17.9558
178 1 22.7994 19.6446 19.719
179 1 21.3254 18.1404 24.4271
180 2 24.3646 22.5426 23.1711
181 1 19.7575 16.5756 22.8422
182 1 16.4937 22.8124 22.8033
183 1 19.4852 22.6882 19.4322
184 1 18.0591 21.2378 27.6811
185 1 24.537 18.1443 27.653
186 1 22.925 19.7861 29.207
187 1 18.1246 18.1398 30.8599
188 1 19.6968 19.5422 16.4828
189 2 22.6254 22.0329 25.2242
190 1 19.604 22.7873 29.3717
191 1 21.3452 24.4808 30.6975
192 1 24.5516 21.2093 30.8087
193 1 20.7676 24.2896 20.9148
194 1 19.3648 25.8727 19.3249
195 1 21.2993 21.2684 27.6634
196 1 16.432 22.764 16.5148
197 1 23.0178 22.8466 29.4214
198 2 22.6889 23.746 26.9574
199 1 18.1536 21.1586 21.1689
200 1 22.9439 19.9002 22.9256
201 1 21.2187 24.3526 18.0859
202 1 24.5649 18.1721 30.8047
203 1 26.3974 19.4603 26.254
204 1 17.8755 24.4196 24.4339
205 1 19.6501 19.6555 26.1868
206 1 20.6748 24.4706 27.8611
207 1 16.4618 22.7388 26.0515
208 1 26.1322 19.6761 29.257
209 1 19.6099 22.7915 26.2311
210 1 20.6109 24.3034 24.4965
211 1 21.2607 18.0713 18.0173
212 1 22.8304 19.5545 26.0551
213 1 22.9143 22.8271 16.5149
214 1 21.0701 21.1124 21.1296
215 2 23.5511 24.0165 21.0014
216 2 21.9795 22.7603 22.6722
217 1 24.5 21.2606 21.034
218 1 24.5111 18.2432 21.287
219 1 24.5745 18.0955 18.0282
220 1 24.3579 24.4234 18.1644
221 1 26.2784 22.7208 29.2904
222 1 24.5602 24.5044 30.848
223 1 25.0147 24.3446 28.0548
224 1 24.9559 20.7851 24.8372
225 1 24.5189 21.2222 17.9638
226 2 23.1633 24.6161 24.1286
227 1 19.3041 22.8945 22.7139
228 1 17.8768 24.4075 21.0875
229 1 26.2037 19.7799 19.6667
230 1 26.1236 16.5483 16.5543
231 1 26.2189 16.5817 19.736
232 1 17.8632 24.4102 27.649
233 2 24.7963 23.3008 25.7187
234 1 26.1708 19.6874 16.5988
235 1 26.1923 22.8733 16.5571
236 1 26.0322 22.7657 19.4325
237 2 25.7966 23.9481 21.5347
238 2 25.5844 24.9381 24.0732
239 1 16.5255 26.0247 22.8224
240 1 19.1766 25.9546 22.8312
241 1 22.9187 25.9253 29.1349
242 1 26.7162 25.8844 26.2249
243 2 24.1261 25.9334 26.2094
244 1 19.7908 26.0011 16.4729
245 1 19.1986 26.0185 26.072
246 1 16.4805 26.0419 19.5696
247 1 22.9009 26.0387 16.6142
248 2 26.9448 22.7446 26.1763
249 1 16.4501 26.1029 26.0147
250 1 16.4347 26.0572 16.4852
251 1 16.4924 26.1204 29.1968
252 1 26.104 26.008 16.4915
253 2 21.7395 25.8112 22.5827
254 1 26.7388 22.6202 23.561
255 1 19.6137 26.1699 29.2788
256 1 26.3306 26.172 29.3626
257 1 26.0514 26.0198 19.7763
258 2 21.8176 26.0137 26.0426
259 2 24.2746 26.0572 22.1892
260 1 29.365 16.5481 22.9656
261 1 30.956 18.0463 24.5205
262 1 27.9955 20.9015 24.62
263 1 29.4975 22.8244 26.1028
264 1 30.9188 21.2355 24.5036
265 1 29.3348 16.459 29.3059
266 1 27.8136 18.0995 21.3578
267 1 30.9358 18.0402 30.8804
268 1 27.7395 18.1821 30.7499
269 1 29.2703 16.5754 19.7442
270 1 30.8582 21.2665 21.2523
271 1 29.4354 22.8542 19.613
272 1 27.7448 21.2975 18.0583
273 1 29.3627 16.5525 16.6061
274 1 29.1871 19.7138 19.7422
275 1 30.8512 18.1245 18.151
276 1 30.8827 24.448 18.1133
277 1 30.9471 21.2138 30.9003
278 1 27.7637 21.1615 30.7981
279 1 30.9523 21.3294 27.7202
280 1 29.4931 19.5825 29.2698
281 1 30.9612 18.1427 21.3369
282 1 30.9514 24.4069 30.9126
283 1 29.2883 16.4867 26.17
284 1 29.3569 22.8781 16.5268
285 1 27.8939 24.4031 27.9432
286 1 30.9701 17.9174 27.7487
287 1 29.4214 22.8728 29.3775
288 1 29.3075 19.6732 16.6093
289 1 29.404 19.6002 22.8797
290 1 27.7901 18.0071 27.7441
291 1 30.9196 21.2138 18.1398
292 1 29.5483 19.532 26.2292
293 1 27.6971 24.447 30.8668
294 1 27.7558 18.0693 24.4918
295 1 27.8632 21.0764 27.7766
296 1 28.1372 24.3881 21.288
297 1 30.9213 24.399 27.6838
298 1 29.4083 22.7326 22.9194
299 1 30.9526 24.4291 24.5426
300 1 30.9239 24.4261 21.3486
301 1 27.7014 24.4665 18.2009
302 1 27.6928 18.1935 18.1323
303 1 27.5713 21.3632 21.2815
304 1 28.1587 24.5718 24.4948
305 1 29.2425 26.1108 16.5763
306 1 29.3544 26.0514 19.5977
307 1 29.4427 26.053 29.3941
308 1 29.47 26.1095 26.135
309 1 29.5177 26.092 22.8981
310 1 0.7858 0.7858 0.7858
311 1 2.3575 2.3575 2.3575
312 1 0.7858 0.7858 3.9292
313 1 2.3575 2.3575 5.5009
314 1 0.7858 0.7858 7.0726
315 1 2.3575 2.3575 8.6443
316 1 0.7858 0.7858 10.216
317 1 2.3575 2.3575 11.7877
318 1 0.7858 0.7858 13.3594
319 1 2.3575 2.3575 14.9311
320 1 0.7858 0.7858 16.5028
321 1 2.3575 2.3575 18.0745
322 1 0.7858 0.7858 19.6462
323 1 2.3575 2.3575 21.2179
324 1 0.7858 0.7858 22.7896
325 1 2.3575 2.3575 24.3613
326 1 0.7858 0.7858 25.933
327 1 2.3575 2.3575 27.5047
328 1 0.7858 0.7858 29.0764
329 1 2.3575 2.3575 30.6481
330 1 0.7858 0.7858 32.2197
331 1 2.3575 2.3575 33.7914
332 1 0.7858 0.7858 35.3631
333 1 2.3575 2.3575 36.9348
334 1 0.7858 0.7858 38.5065
335 1 2.3575 2.3575 40.0782
336 1 0.7858 0.7858 41.6499
337 1 2.3575 2.3575 43.2216
338 1 0.7858 0.7858 44.7933
339 1 2.3575 2.3575 46.365
340 1 0.7858 0.7858 47.9367
341 1 2.3575 2.3575 49.5084
342 1 0.7858 3.9292 0.7858
343 1 2.3575 5.5009 2.3575
344 1 0.7858 3.9292 3.9292
345 1 2.3575 5.5009 5.5009
346 1 0.7858 3.9292 7.0726
347 1 2.3575 5.5009 8.6443
348 1 0.7858 3.9292 10.216
349 1 2.3575 5.5009 11.7877
350 1 0.7858 3.9292 13.3594
351 1 2.3575 5.5009 14.9311
352 1 0.7858 3.9292 16.5028
353 1 2.3575 5.5009 18.0745
354 1 0.7858 3.9292 19.6462
355 1 2.3575 5.5009 21.2179
356 1 0.7858 3.9292 22.7896
357 1 2.3575 5.5009 24.3613
358 1 0.7858 3.9292 25.933
359 1 2.3575 5.5009 27.5047
360 1 0.7858 3.9292 29.0764
361 1 2.3575 5.5009 30.6481
362 1 0.7858 3.9292 32.2197
363 1 2.3575 5.5009 33.7914
364 1 0.7858 3.9292 35.3631
365 1 2.3575 5.5009 36.9348
366 1 0.7858 3.9292 38.5065
367 1 2.3575 5.5009 40.0782
368 1 0.7858 3.9292 41.6499
369 1 2.3575 5.5009 43.2216
370 1 0.7858 3.9292 44.7933
371 1 2.3575 5.5009 46.365
372 1 0.7858 3.9292 47.9367
373 1 2.3575 5.5009 49.5084
374 1 0.7858 7.0726 0.7858
375 1 2.3575 8.6443 2.3575
376 1 0.7858 7.0726 3.9292
377 1 2.3575 8.6443 5.5009
378 1 0.7858 7.0726 7.0726
379 1 2.3575 8.6443 8.6443
380 1 0.7858 7.0726 10.216
381 1 2.3575 8.6443 11.7877
382 1 0.7858 7.0726 13.3594
383 1 2.3575 8.6443 14.9311
384 1 0.7858 7.0726 16.5028
385 1 2.3575 8.6443 18.0745
386 1 0.7858 7.0726 19.6462
387 1 2.3575 8.6443 21.2179
388 1 0.7858 7.0726 22.7896
389 1 2.3575 8.6443 24.3613
390 1 0.7858 7.0726 25.933
391 1 2.3575 8.6443 27.5047
392 1 0.7858 7.0726 29.0764
393 1 2.3575 8.6443 30.6481
394 1 0.7858 7.0726 32.2197
395 1 2.3575 8.6443 33.7914
396 1 0.7858 7.0726 35.3631
397 1 2.3575 8.6443 36.9348
398 1 0.7858 7.0726 38.5065
399 1 2.3575 8.6443 40.0782
400 1 0.7858 7.0726 41.6499
401 1 2.3575 8.6443 43.2216
402 1 0.7858 7.0726 44.7933
403 1 2.3575 8.6443 46.365
404 1 0.7858 7.0726 47.9367
405 1 2.3575 8.6443 49.5084
406 1 0.7858 10.216 0.7858
407 1 2.3575 11.7877 2.3575
408 1 0.7858 10.216 3.9292
409 1 2.3575 11.7877 5.5009
410 1 0.7858 10.216 7.0726
411 1 2.3575 11.7877 8.6443
412 1 0.7858 10.216 10.216
413 1 2.3575 11.7877 11.7877
414 1 0.7858 10.216 13.3594
415 1 2.3575 11.7877 14.9311
416 1 0.7858 10.216 16.5028
417 1 2.3575 11.7877 18.0745
418 1 0.7858 10.216 19.6462
419 1 2.3575 11.7877 21.2179
420 1 0.7858 10.216 22.7896
421 1 2.3575 11.7877 24.3613
422 1 0.7858 10.216 25.933
423 1 2.3575 11.7877 27.5047
424 1 0.7858 10.216 29.0764
425 1 2.3575 11.7877 30.6481
426 1 0.7858 10.216 32.2197
427 1 2.3575 11.7877 33.7914
428 1 0.7858 10.216 35.3631
429 1 2.3575 11.7877 36.9348
430 1 0.7858 10.216 38.5065
431 1 2.3575 11.7877 40.0782
432 1 0.7858 10.216 41.6499
433 1 2.3575 11.7877 43.2216
434 1 0.7858 10.216 44.7933
435 1 2.3575 11.7877 46.365
436 1 0.7858 10.216 47.9367
437 1 2.3575 11.7877 49.5084
438 1 0.7858 13.3594 0.7858
439 1 2.3575 14.9311 2.3575
440 1 0.7858 13.3594 3.9292
441 1 2.3575 14.9311 5.5009
442 1 0.7858 13.3594 7.0726
443 1 2.3575 14.9311 8.6443
444 1 0.7858 13.3594 10.216
445 1 2.3575 14.9311 11.7877
446 1 0.7858 13.3594 13.3594
447 1 2.3575 14.9311 14.9311
448 1 0.7858 13.3594 16.5028
449 1 2.3575 14.9311 18.0745
450 1 0.7858 13.3594 19.6462
451 1 2.3575 14.9311 21.2179
452 1 0.7858 13.3594 22.7896
453 1 2.3575 14.9311 24.3613
454 1 0.7858 13.3594 25.933
455 1 2.3575 14.9311 27.5047
456 1 0.7858 13.3594 29.0764
457 1 2.3575 14.9311 30.6481
458 1 0.7858 13.3594 32.2197
459 1 2.3575 14.9311 33.7914
460 1 0.7858 13.3594 35.3631
461 1 2.3575 14.9311 36.9348
462 1 0.7858 13.3594 38.5065
463 1 2.3575 14.9311 40.0782
464 1 0.7858 13.3594 41.6499
465 1 2.3575 14.9311 43.2216
466 1 0.7858 13.3594 44.7933
467 1 2.3575 14.9311 46.365
468 1 0.7858 13.3594 47.9367
469 1 2.3575 14.9311 49.5084
470 1 0.7858 16.5028 0.7858
471 1 2.3575 18.0745 2.3575
472 1 0.7858 16.5028 3.9292
473 1 2.3575 18.0745 5.5009
474 1 0.7858 16.5028 7.0726
475 1 2.3575 18.0745 8.6443
476 1 0.7858 16.5028 10.216
477 1 2.3575 18.0745 11.7877
478 1 0.7858 16.5028 13.3594
479 1 2.3575 18.0745 14.9311
480 1 0.7858 16.5028 16.5028
481 1 2.3575 18.0745 18.0745
482 1 0.7858 16.5028 19.6462
483 1 2.3575 18.0745 21.2179
484 1 0.7858 16.5028 22.7896
485 1 2.3575 18.0745 24.3613
486 1 0.7858 16.5028 25.933
487 1 2.3575 18.0745 27.5047
488 1 0.7858 16.5028 29.0764
489 1 2.3575 18.0745 30.6481
490 1 0.7858 16.5028 32.2197
491 1 2.3575 18.0745 33.7914
492 1 0.7858 16.5028 35.3631
493 1 2.3575 18.0745 36.9348
494 1 0.7858 16.5028 38.5065
495 1 2.3575 18.0745 40.0782
496 1 0.7858 16.5028 41.6499
497 1 2.3575 18.0745 43.2216
498 1 0.7858 16.5028 44.7933
499 1 2.3575 18.0745 46.365
500 1 0.7858 16.5028 47.9367
501 1 2.3575 18.0745 49.5084
502 1 0.7858 19.6462 0.7858
503 1 2.3575 21.2179 2.3575
504 1 0.7858 19.6462 3.9292
505 1 2.3575 21.2179 5.5009
506 1 0.7858 19.6462 7.0726
507 1 2.3575 21.2179 8.6443
508 1 0.7858 19.6462 10.216
509 1 2.3575 21.2179 11.7877
510 1 0.7858 19.6462 13.3594
511 1 2.3575 21.2179 14.9311
512 1 0.7858 19.6462 16.5028
513 1 2.3575 21.2179 18.0745
514 1 0.7858 19.6462 19.6462
515 1 2.3575 21.2179 21.2179
516 1 0.7858 19.6462 22.7896
517 1 2.3575 21.2179 24.3613
518 1 0.7858 19.6462 25.933
519 1 2.3575 21.2179 27.5047
520 1 0.7858 19.6462 29.0764
521 1 2.3575 21.2179 30.6481
522 1 0.7858 19.6462 32.2197
523 1 2.3575 21.2179 33.7914
524 1 0.7858 19.6462 35.3631
525 1 2.3575 21.2179 36.9348
526 1 0.7858 19.6462 38.5065
527 1 2.3575 21.2179 40.0782
528 1 0.7858 19.6462 41.6499
529 1 2.3575 21.2179 43.2216
530 1 0.7858 19.6462 44.7933
531 1 2.3575 21.2179 46.365
532 1 0.7858 19.6462 47.9367
533 1 2.3575 21.2179 49.5084
534 1 0.7858 22.7896 0.7858
535 1 2.3575 24.3613 2.3575
536 1 0.7858 22.7896 3.9292
537 1 2.3575 24.3613 5.5009
538 1 0.7858 22.7896 7.0726
539 1 2.3575 24.3613 8.6443
540 1 0.7858 22.7896 10.216
541 1 2.3575 24.3613 11.7877
542 1 0.7858 22.7896 13.3594
543 1 2.3575 24.3613 14.9311
544 1 0.7858 22.7896 16.5028
545 1 2.3575 24.3613 18.0745
546 1 0.7858 22.7896 19.6462
547 1 2.3575 24.3613 21.2179
548 1 0.7858 22.7896 22.7896
549 1 2.3575 24.3613 24.3613
550 1 0.7858 22.7896 25.933
551 1 2.3575 24.3613 27.5047
552 1 0.7858 22.7896 29.0764
553 1 2.3575 24.3613 30.6481
554 1 0.7858 22.7896 32.2197
555 1 2.3575 24.3613 33.7914
556 1 0.7858 22.7896 35.3631
557 1 2.3575 24.3613 36.9348
558 1 0.7858 22.7896 38.5065
559 1 2.3575 24.3613 40.0782
560 1 0.7858 22.7896 41.6499
561 1 2.3575 24.3613 43.2216
562 1 0.7858 22.7896 44.7933
563 1 2.3575 24.3613 46.365
564 1 0.7858 22.7896 47.9367
565 1 2.3575 24.3613 49.5084
566 1 0.7858 25.933 0.7858
567 1 2.3575 27.5047 2.3575
568 1 0.7858 25.933 3.9292
569 1 2.3575 27.5047 5.5009
570 1 0.7858 25.933 7.0726
571 1 2.3575 27.5047 8.6443
572 1 0.7858 25.933 10.216
573 1 2.3575 27.5047 11.7877
574 1 0.7858 25.933 13.3594
575 1 2.3575 27.5047 14.9311
576 1 0.7858 25.933 16.5028
577 1 2.3575 27.5047 18.0745
578 1 0.7858 25.933 19.6462
579 1 2.3575 27.5047 21.2179
580 1 0.7858 25.933 22.7896
581 1 2.3575 27.5047 24.3613
582 1 0.7858 25.933 25.933
583 1 2.3575 27.5047 27.5047
584 1 0.7858 25.933 29.0764
585 1 2.3575 27.5047 30.6481
586 1 0.7858 25.933 32.2197
587 1 2.3575 27.5047 33.7914
588 1 0.7858 25.933 35.3631
589 1 2.3575 27.5047 36.9348
590 1 0.7858 25.933 38.5065
591 1 2.3575 27.5047 40.0782
592 1 0.7858 25.933 41.6499
593 1 2.3575 27.5047 43.2216
594 1 0.7858 25.933 44.7933
595 1 2.3575 27.5047 46.365
596 1 0.7858 25.933 47.9367
597 1 2.3575 27.5047 49.5084
598 1 0.7858 29.0764 0.7858
599 1 2.3575 30.6481 2.3575
600 1 0.7858 29.0764 3.9292
601 1 2.3575 30.6481 5.5009
602 1 0.7858 29.0764 7.0726
603 1 2.3575 30.6481 8.6443
604 1 0.7858 29.0764 10.216
605 1 2.3575 30.6481 11.7877
606 1 0.7858 29.0764 13.3594
607 1 2.3575 30.6481 14.9311
608 1 0.7858 29.0764 16.5028
609 1 2.3575 30.6481 18.0745
610 1 0.7858 29.0764 19.6462
611 1 2.3575 30.6481 21.2179
612 1 0.7858 29.0764 22.7896
613 1 2.3575 30.6481 24.3613
614 1 0.7858 29.0764 25.933
615 1 2.3575 30.6481 27.5047
616 1 0.7858 29.0764 29.0764
617 1 2.3575 30.6481 30.6481
618 1 0.7858 29.0764 32.2197
619 1 2.3575 30.6481 33.7914
620 1 0.7858 29.0764 35.3631
621 1 2.3575 30.6481 36.9348
622 1 0.7858 29.0764 38.5065
623 1 2.3575 30.6481 40.0782
624 1 0.7858 29.0764 41.6499
625 1 2.3575 30.6481 43.2216
626 1 0.7858 29.0764 44.7933
627 1 2.3575 30.6481 46.365
628 1 0.7858 29.0764 47.9367
629 1 2.3575 30.6481 49.5084
630 1 0.7858 32.2197 0.7858
631 1 2.3575 33.7914 2.3575
632 1 0.7858 32.2197 3.9292
633 1 2.3575 33.7914 5.5009
634 1 0.7858 32.2197 7.0726
635 1 2.3575 33.7914 8.6443
636 1 0.7858 32.2197 10.216
637 1 2.3575 33.7914 11.7877
638 1 0.7858 32.2197 13.3594
639 1 2.3575 33.7914 14.9311
640 1 0.7858 32.2197 16.5028
641 1 2.3575 33.7914 18.0745
642 1 0.7858 32.2197 19.6462
643 1 2.3575 33.7914 21.2179
644 1 0.7858 32.2197 22.7896
645 1 2.3575 33.7914 24.3613
646 1 0.7858 32.2197 25.933
647 1 2.3575 33.7914 27.5047
648 1 0.7858 32.2197 29.0764
649 1 2.3575 33.7914 30.6481
650 1 0.7858 32.2197 32.2197
651 1 2.3575 33.7914 33.7914
652 1 0.7858 32.2197 35.3631
653 1 2.3575 33.7914 36.9348
654 1 0.7858 32.2197 38.5065
655 1 2.3575 33.7914 40.0782
656 1 0.7858 32.2197 41.6499
657 1 2.3575 33.7914 43.2216
658 1 0.7858 32.2197 44.7933
659 1 2.3575 33.7914 46.365
660 1 0.7858 32.2197 47.9367
661 1 2.3575 33.7914 49.5084
662 1 0.7858 35.3631 0.7858
663 1 2.3575 36.9348 2.3575
664 1 0.7858 35.3631 3.9292
665 1 2.3575 36.9348 5.5009
666 1 0.7858 35.3631 7.0726
667 1 2.3575 36.9348 8.6443
668 1 0.7858 35.3631 10.216
669 1 2.3575 36.9348 11.7877
670 1 0.7858 35.3631 13.3594
671 1 2.3575 36.9348 14.9311
672 1 0.7858 35.3631 16.5028
673 1 2.3575 36.9348 18.0745
674 1 0.7858 35.3631 19.6462
675 1 2.3575 36.9348 21.2179
676 1 0.7858 35.3631 22.7896
677 1 2.3575 36.9348 24.3613
678 1 0.7858 35.3631 25.933
679 1 2.3575 36.9348 27.5047
680 1 0.7858 35.3631 29.0764
681 1 2.3575 36.9348 30.6481
682 1 0.7858 35.3631 32.2197
683 1 2.3575 36.9348 33.7914
684 1 0.7858 35.3631 35.3631
685 1 2.3575 36.9348 36.9348
686 1 0.7858 35.3631 38.5065
687 1 2.3575 36.9348 40.0782
688 1 0.7858 35.3631 41.6499
689 1 2.3575 36.9348 43.2216
690 1 0.7858 35.3631 44.7933
691 1 2.3575 36.9348 46.365
692 1 0.7858 35.3631 47.9367
693 1 2.3575 36.9348 49.5084
694 1 0.7858 38.5065 0.7858
695 1 2.3575 40.0782 2.3575
696 1 0.7858 38.5065 3.9292
697 1 2.3575 40.0782 5.5009
698 1 0.7858 38.5065 7.0726
699 1 2.3575 40.0782 8.6443
700 1 0.7858 38.5065 10.216
701 1 2.3575 40.0782 11.7877
702 1 0.7858 38.5065 13.3594
703 1 2.3575 40.0782 14.9311
704 1 0.7858 38.5065 16.5028
705 1 2.3575 40.0782 18.0745
706 1 0.7858 38.5065 19.6462
707 1 2.3575 40.0782 21.2179
708 1 0.7858 38.5065 22.7896
709 1 2.3575 40.0782 24.3613
710 1 0.7858 38.5065 25.933
711 1 2.3575 40.0782 27.5047
712 1 0.7858 38.5065 29.0764
713 1 2.3575 40.0782 30.6481
714 1 0.7858 38.5065 32.2197
715 1 2.3575 40.0782 33.7914
716 1 0.7858 38.5065 35.3631
717 1 2.3575 40.0782 36.9348
718 1 0.7858 38.5065 38.5065
719 1 2.3575 40.0782 40.0782
720 1 0.7858 38.5065 41.6499
721 1 2.3575 40.0782 43.2216
722 1 0.7858 38.5065 44.7933
723 1 2.3575 40.0782 46.365
724 1 0.7858 38.5065 47.9367
725 1 2.3575 40.0782 49.5084
726 1 0.7858 41.6499 0.7858
727 1 2.3575 43.2216 2.3575
728 1 0.7858 41.6499 3.9292
729 1 2.3575 43.2216 5.5009
730 1 0.7858 41.6499 7.0726
731 1 2.3575 43.2216 8.6443
732 1 0.7858 41.6499 10.216
733 1 2.3575 43.2216 11.7877
734 1 0.7858 41.6499 13.3594
735 1 2.3575 43.2216 14.9311
736 1 0.7858 41.6499 16.5028
737 1 2.3575 43.2216 18.0745
738 1 0.7858 41.6499 19.6462
739 1 2.3575 43.2216 21.2179
740 1 0.7858 41.6499 22.7896
741 1 2.3575 43.2216 24.3613
742 1 0.7858 41.6499 25.933
743 1 2.3575 43.2216 27.5047
744 1 0.7858 41.6499 29.0764
745 1 2.3575 43.2216 30.6481
746 1 0.7858 41.6499 32.2197
747 1 2.3575 43.2216 33.7914
748 1 0.7858 41.6499 35.3631
749 1 2.3575 43.2216 36.9348
750 1 0.7858 41.6499 38.5065
751 1 2.3575 43.2216 40.0782
752 1 0.7858 41.6499 41.6499
753 1 2.3575 43.2216 43.2216
754 1 0.7858 41.6499 44.7933
755 1 2.3575 43.2216 46.365
756 1 0.7858 41.6499 47.9367
757 1 2.3575 43.2216 49.5084
758 1 0.7858 44.7933 0.7858
759 1 2.3575 46.365 2.3575
760 1 0.7858 44.7933 3.9292
761 1 2.3575 46.365 5.5009
762 1 0.7858 44.7933 7.0726
763 1 2.3575 46.365 8.6443
764 1 0.7858 44.7933 10.216
765 1 2.3575 46.365 11.7877
766 1 0.7858 44.7933 13.3594
767 1 2.3575 46.365 14.9311
768 1 0.7858 44.7933 16.5028
769 1 2.3575 46.365 18.0745
770 1 0.7858 44.7933 19.6462
771 1 2.3575 46.365 21.2179
772 1 0.7858 44.7933 22.7896
773 1 2.3575 46.365 24.3613
774 1 0.7858 44.7933 25.933
775 1 2.3575 46.365 27.5047
776 1 0.7858 44.7933 29.0764
777 1 2.3575 46.365 30.6481
778 1 0.7858 44.7933 32.2197
779 1 2.3575 46.365 33.7914
780 1 0.7858 44.7933 35.3631
781 1 2.3575 46.365 36.9348
782 1 0.7858 44.7933 38.5065
783 1 2.3575 46.365 40.0782
784 1 0.7858 44.7933 41.6499
785 1 2.3575 46.365 43.2216
786 1 0.7858 44.7933 44.7933
787 1 2.3575 46.365 46.365
788 1 0.7858 44.7933 47.9367
789 1 2.3575 46.365 49.5084
790 1 0.7858 47.9367 0.7858
791 1 2.3575 49.5084 2.3575
792 1 0.7858 47.9367 3.9292
793 1 2.3575 49.5084 5.5009
794 1 0.7858 47.9367 7.0726
795 1 2.3575 49.5084 8.6443
796 1 0.7858 47.9367 10.216
797 1 2.3575 49.5084 11.7877
798 1 0.7858 47.9367 13.3594
799 1 2.3575 49.5084 14.9311
800 1 0.7858 47.9367 16.5028
801 1 2.3575 49.5084 18.0745
802 1 0.7858 47.9367 19.6462
803 1 2.3575 49.5084 21.2179
804 1 0.7858 47.9367 22.7896
805 1 2.3575 49.5084 24.3613
806 1 0.7858 47.9367 25.933
807 1 2.3575 49.5084 27.5047
808 1 0.7858 47.9367 29.0764
809 1 2.3575 49.5084 30.6481
810 1 0.7858 47.9367 32.2197
811 1 2.3575 49.5084 33.7914
812 1 0.7858 47.9367 35.3631
813 1 2.3575 49.5084 36.9348
814 1 0.7858 47.9367 38.5065
815 1 2.3575 49.5084 40.0782
816 1 0.7858 47.9367 41.6499
817 1 2.3575 49.5084 43.2216
818 1 0.7858 47.9367 44.7933
819 1 2.3575 49.5084 46.365
820 1 0.7858 47.9367 47.9367
821 1 2.3575 49.5084 49.5084
822 1 3.9292 0.7858 0.7858
823 1 5.5009 2.3575 2.3575
824 1 3.9292 0.7858 3.9292
825 1 5.5009 2.3575 5.5009
826 1 3.9292 0.7858 7.0726
827 1 5.5009 2.3575 8.6443
828 1 3.9292 0.7858 10.216
829 1 5.5009 2.3575 11.7877
830 1 3.9292 0.7858 13.3594
831 1 5.5009 2.3575 14.9311
832 1 3.9292 0.7858 16.5028
833 1 5.5009 2.3575 18.0745
834 1 3.9292 0.7858 19.6462
835 1 5.5009 2.3575 21.2179
836 1 3.9292 0.7858 22.7896
837 1 5.5009 2.3575 24.3613
838 1 3.9292 0.7858 25.933
839 1 5.5009 2.3575 27.5047
840 1 3.9292 0.7858 29.0764
841 1 5.5009 2.3575 30.6481
842 1 3.9292 0.7858 32.2197
843 1 5.5009 2.3575 33.7914
844 1 3.9292 0.7858 35.3631
845 1 5.5009 2.3575 36.9348
846 1 3.9292 0.7858 38.5065
847 1 5.5009 2.3575 40.0782
848 1 3.9292 0.7858 41.6499
849 1 5.5009 2.3575 43.2216
850 1 3.9292 0.7858 44.7933
851 1 5.5009 2.3575 46.365
852 1 3.9292 0.7858 47.9367
853 1 5.5009 2.3575 49.5084
854 1 3.9292 3.9292 0.7858
855 1 5.5009 5.5009 2.3575
856 1 3.9292 3.9292 3.9292
857 1 5.5009 5.5009 5.5009
858 1 3.9292 3.9292 7.0726
859 1 5.5009 5.5009 8.6443
860 1 3.9292 3.9292 10.216
861 1 5.5009 5.5009 11.7877
862 1 3.9292 3.9292 13.3594
863 1 5.5009 5.5009 14.9311
864 1 3.9292 3.9292 16.5028
865 1 5.5009 5.5009 18.0745
866 1 3.9292 3.9292 19.6462
867 1 5.5009 5.5009 21.2179
868 1 3.9292 3.9292 22.7896
869 1 5.5009 5.5009 24.3613
870 1 3.9292 3.9292 25.933
871 1 5.5009 5.5009 27.5047
872 1 3.9292 3.9292 29.0764
873 1 5.5009 5.5009 30.6481
874 1 3.9292 3.9292 32.2197
875 1 5.5009 5.5009 33.7914
876 1 3.9292 3.9292 35.3631
877 1 5.5009 5.5009 36.9348
878 1 3.9292 3.9292 38.5065
879 1 5.5009 5.5009 40.0782
880 1 3.9292 3.9292 41.6499
881 1 5.5009 5.5009 43.2216
882 1 3.9292 3.9292 44.7933
883 1 5.5009 5.5009 46.365
884 1 3.9292 3.9292 47.9367
885 1 5.5009 5.5009 49.5084
886 1 3.9292 7.0726 0.7858
887 1 5.5009 8.6443 2.3575
888 1 3.9292 7.0726 3.9292
889 1 5.5009 8.6443 5.5009
890 1 3.9292 7.0726 7.0726
891 1 5.5009 8.6443 8.6443
892 1 3.9292 7.0726 10.216
893 1 5.5009 8.6443 11.7877
894 1 3.9292 7.0726 13.3594
895 1 5.5009 8.6443 14.9311
896 1 3.9292 7.0726 16.5028
897 1 5.5009 8.6443 18.0745
898 1 3.9292 7.0726 19.6462
899 1 5.5009 8.6443 21.2179
900 1 3.9292 7.0726 22.7896
901 1 5.5009 8.6443 24.3613
902 1 3.9292 7.0726 25.933
903 1 5.5009 8.6443 27.5047
904 1 3.9292 7.0726 29.0764
905 1 5.5009 8.6443 30.6481
906 1 3.9292 7.0726 32.2197
907 1 5.5009 8.6443 33.7914
908 1 3.9292 7.0726 35.3631
909 1 5.5009 8.6443 36.9348
910 1 3.9292 7.0726 38.5065
911 1 5.5009 8.6443 40.0782
912 1 3.9292 7.0726 41.6499
913 1 5.5009 8.6443 43.2216
914 1 3.9292 7.0726 44.7933
915 1 5.5009 8.6443 46.365
916 1 3.9292 7.0726 47.9367
917 1 5.5009 8.6443 49.5084
918 1 3.9292 10.216 0.7858
919 1 5.5009 11.7877 2.3575
920 1 3.9292 10.216 3.9292
921 1 5.5009 11.7877 5.5009
922 1 3.9292 10.216 7.0726
923 1 5.5009 11.7877 8.6443
924 1 3.9292 10.216 10.216
925 1 5.5009 11.7877 11.7877
926 1 3.9292 10.216 13.3594
927 1 5.5009 11.7877 14.9311
928 1 3.9292 10.216 16.5028
929 1 5.5009 11.7877 18.0745
930 1 3.9292 10.216 19.6462
931 1 5.5009 11.7877 21.2179
932 1 3.9292 10.216 22.7896
933 1 5.5009 11.7877 24.3613
934 1 3.9292 10.216 25.933
935 1 5.5009 11.7877 27.5047
936 1 3.9292 10.216 29.0764
937 1 5.5009 11.7877 30.6481
938 1 3.9292 10.216 32.2197
939 1 5.5009 11.7877 33.7914
940 1 3.9292 10.216 35.3631
941 1 5.5009 11.7877 36.9348
942 1 3.9292 10.216 38.5065
943 1 5.5009 11.7877 40.0782
944 1 3.9292 10.216 41.6499
945 1 5.5009 11.7877 43.2216
946 1 3.9292 10.216 44.7933
947 1 5.5009 11.7877 46.365
948 1 3.9292 10.216 47.9367
949 1 5.5009 11.7877 49.5084
950 1 3.9292 13.3594 0.7858
951 1 5.5009 14.9311 2.3575
952 1 3.9292 13.3594 3.9292
953 1 5.5009 14.9311 5.5009
954 1 3.9292 13.3594 7.0726
955 1 5.5009 14.9311 8.6443
956 1 3.9292 13.3594 10.216
957 1 5.5009 14.9311 11.7877
958 1 3.9292 13.3594 13.3594
959 1 5.5009 14.9311 14.9311
960 1 3.9292 13.3594 16.5028
961 1 5.5009 14.9311 18.0745
962 1 3.9292 13.3594 19.6462
963 1 5.5009 14.9311 21.2179
964 1 3.9292 13.3594 22.7896
965 1 5.5009 14.9311 24.3613
966 1 3.9292 13.3594 25.933
967 1 5.5009 14.9311 27.5047
968 1 3.9292 13.3594 29.0764
969 1 5.5009 14.9311 30.6481
970 1 3.9292 13.3594 32.2197
971 1 5.5009 14.9311 33.7914
972 1 3.9292 13.3594 35.3631
973 1 5.5009 14.9311 36.9348
974 1 3.9292 13.3594 38.5065
975 1 5.5009 14.9311 40.0782
976 1 3.9292 13.3594 41.6499
977 1 5.5009 14.9311 43.2216
978 1 3.9292 13.3594 44.7933
979 1 5.5009 14.9311 46.365
980 1 3.9292 13.3594 47.9367
981 1 5.5009 14.9311 49.5084
982 1 3.9292 16.5028 0.7858
983 1 5.5009 18.0745 2.3575
984 1 3.9292 16.5028 3.9292
985 1 5.5009 18.0745 5.5009
986 1 3.9292 16.5028 7.0726
987 1 5.5009 18.0745 8.6443
988 1 3.9292 16.5028 10.216
989 1 5.5009 18.0745 11.7877
990 1 3.9292 16.5028 13.3594
991 1 5.5009 18.0745 14.9311
992 1 3.9292 16.5028 16.5028
993 1 5.5009 18.0745 18.0745
994 1 3.9292 16.5028 19.6462
995 1 5.5009 18.0745 21.2179
996 1 3.9292 16.5028 22.7896
997 1 5.5009 18.0745 24.3613
998 1 3.9292 16.5028 25.933
999 1 5.5009 18.0745 27.5047
1000 1 3.9292 16.5028 29.0764
1001 1 5.5009 18.0745 30.6481
1002 1 3.9292 16.5028 32.2197
1003 1 5.5009 18.0745 33.7914
1004 1 3.9292 16.5028 35.3631
1005 1 5.5009 18.0745 36.9348
1006 1 3.9292 16.5028 38.5065
1007 1 5.5009 18.0745 40.0782
1008 1 3.9292 16.5028 41.6499
1009 1 5.5009 18.0745 43.2216
1010 1 3.9292 16.5028 44.7933
1011 1 5.5009 18.0745 46.365
1012 1 3.9292 16.5028 47.9367
1013 1 5.5009 18.0745 49.5084
1014 1 3.9292 19.6462 0.7858
1015 1 5.5009 21.2179 2.3575
1016 1 3.9292 19.6462 3.9292
1017 1 5.5009 21.2179 5.5009
1018 1 3.9292 19.6462 7.0726
1019 1 5.5009 21.2179 8.6443
1020 1 3.9292 19.6462 10.216
1021 1 5.5009 21.2179 11.7877
1022 1 3.9292 19.6462 13.3594
1023 1 5.5009 21.2179 14.9311
1024 1 3.9292 19.6462 16.5028
1025 1 5.5009 21.2179 18.0745
1026 1 3.9292 19.6462 19.6462
1027 1 5.5009 21.2179 21.2179
1028 1 3.9292 19.6462 22.7896
1029 1 5.5009 21.2179 24.3613
1030 1 3.9292 19.6462 25.933
1031 1 5.5009 21.2179 27.5047
1032 1 3.9292 19.6462 29.0764
1033 1 5.5009 21.2179 30.6481
1034 1 3.9292 19.6462 32.2197
1035 1 5.5009 21.2179 33.7914
1036 1 3.9292 19.6462 35.3631
1037 1 5.5009 21.2179 36.9348
1038 1 3.9292 19.6462 38.5065
1039 1 5.5009 21.2179 40.0782
1040 1 3.9292 19.6462 41.6499
1041 1 5.5009 21.2179 43.2216
1042 1 3.9292 19.6462 44.7933
1043 1 5.5009 21.2179 46.365
1044 1 3.9292 19.6462 47.9367
1045 1 5.5009 21.2179 49.5084
1046 1 3.9292 22.7896 0.7858
1047 1 5.5009 24.3613 2.3575
1048 1 3.9292 22.7896 3.9292
1049 1 5.5009 24.3613 5.5009
1050 1 3.9292 22.7896 7.0726
1051 1 5.5009 24.3613 8.6443
1052 1 3.9292 22.7896 10.216
1053 1 5.5009 24.3613 11.7877
1054 1 3.9292 22.7896 13.3594
1055 1 5.5009 24.3613 14.9311
1056 1 3.9292 22.7896 16.5028
1057 1 5.5009 24.3613 18.0745
1058 1 3.9292 22.7896 19.6462
1059 1 5.5009 24.3613 21.2179
1060 1 3.9292 22.7896 22.7896
1061 1 5.5009 24.3613 24.3613
1062 1 3.9292 22.7896 25.933
1063 1 5.5009 24.3613 27.5047
1064 1 3.9292 22.7896 29.0764
1065 1 5.5009 24.3613 30.6481
1066 1 3.9292 22.7896 32.2197
1067 1 5.5009 24.3613 33.7914
1068 1 3.9292 22.7896 35.3631
1069 1 5.5009 24.3613 36.9348
1070 1 3.9292 22.7896 38.5065
1071 1 5.5009 24.3613 40.0782
1072 1 3.9292 22.7896 41.6499
1073 1 5.5009 24.3613 43.2216
1074 1 3.9292 22.7896 44.7933
1075 1 5.5009 24.3613 46.365
1076 1 3.9292 22.7896 47.9367
1077 1 5.5009 24.3613 49.5084
1078 1 3.9292 25.933 0.7858
1079 1 5.5009 27.5047 2.3575
1080 1 3.9292 25.933 3.9292
1081 1 5.5009 27.5047 5.5009
1082 1 3.9292 25.933 7.0726
1083 1 5.5009 27.5047 8.6443
1084 1 3.9292 25.933 10.216
1085 1 5.5009 27.5047 11.7877
1086 1 3.9292 25.933 13.3594
1087 1 5.5009 27.5047 14.9311
1088 1 3.9292 25.933 16.5028
1089 1 5.5009 27.5047 18.0745
1090 1 3.9292 25.933 19.6462
1091 1 5.5009 27.5047 21.2179
1092 1 3.9292 25.933 22.7896
1093 1 5.5009 27.5047 24.3613
1094 1 3.9292 25.933 25.933
1095 1 5.5009 27.5047 27.5047
1096 1 3.9292 25.933 29.0764
1097 1 5.5009 27.5047 30.6481
1098 1 3.9292 25.933 32.2197
1099 1 5.5009 27.5047 33.7914
1100 1 3.9292 25.933 35.3631
1101 1 5.5009 27.5047 36.9348
1102 1 3.9292 25.933 38.5065
1103 1 5.5009 27.5047 40.0782
1104 1 3.9292 25.933 41.6499
1105 1 5.5009 27.5047 43.2216
1106 1 3.9292 25.933 44.7933
1107 1 5.5009 27.5047 46.365
1108 1 3.9292 25.933 47.9367
1109 1 5.5009 27.5047 49.5084
1110 1 3.9292 29.0764 0.7858
1111 1 5.5009 30.6481 2.3575
1112 1 3.9292 29.0764 3.9292
1113 1 5.5009 30.6481 5.5009
1114 1 3.9292 29.0764 7.0726
1115 1 5.5009 30.6481 8.6443
1116 1 3.9292 29.0764 10.216
1117 1 5.5009 30.6481 11.7877
1118 1 3.9292 29.0764 13.3594
1119 1 5.5009 30.6481 14.9311
1120 1 3.9292 29.0764 16.5028
1121 1 5.5009 30.6481 18.0745
1122 1 3.9292 29.0764 19.6462
1123 1 5.5009 30.6481 21.2179
1124 1 3.9292 29.0764 22.7896
1125 1 5.5009 30.6481 24.3613
1126 1 3.9292 29.0764 25.933
1127 1 5.5009 30.6481 27.5047
1128 1 3.9292 29.0764 29.0764
1129 1 5.5009 30.6481 30.6481
1130 1 3.9292 29.0764 32.2197
1131 1 5.5009 30.6481 33.7914
1132 1 3.9292 29.0764 35.3631
1133 1 5.5009 30.6481 36.9348
1134 1 3.9292 29.0764 38.5065
1135 1 5.5009 30.6481 40.0782
1136 1 3.9292 29.0764 41.6499
1137 1 5.5009 30.6481 43.2216
1138 1 3.9292 29.0764 44.7933
1139 1 5.5009 30.6481 46.365
1140 1 3.9292 29.0764 47.9367
1141 1 5.5009 30.6481 49.5084
1142 1 3.9292 32.2197 0.7858
1143 1 5.5009 33.7914 2.3575
1144 1 3.9292 32.2197 3.9292
1145 1 5.5009 33.7914 5.5009
1146 1 3.9292 32.2197 7.0726
1147 1 5.5009 33.7914 8.6443
1148 1 3.9292 32.2197 10.216
1149 1 5.5009 33.7914 11.7877
1150 1 3.9292 32.2197 13.3594
1151 1 5.5009 33.7914 14.9311
1152 1 3.9292 32.2197 16.5028
1153 1 5.5009 33.7914 18.0745
1154 1 3.9292 32.2197 19.6462
1155 1 5.5009 33.7914 21.2179
1156 1 3.9292 32.2197 22.7896
1157 1 5.5009 33.7914 24.3613
1158 1 3.9292 32.2197 25.933
1159 1 5.5009 33.7914 27.5047
1160 1 3.9292 32.2197 29.0764
1161 1 5.5009 33.7914 30.6481
1162 1 3.9292 32.2197 32.2197
1163 1 5.5009 33.7914 33.7914
1164 1 3.9292 32.2197 35.3631
1165 1 5.5009 33.7914 36.9348
1166 1 3.9292 32.2197 38.5065
1167 1 5.5009 33.7914 40.0782
1168 1 3.9292 32.2197 41.6499
1169 1 5.5009 33.7914 43.2216
1170 1 3.9292 32.2197 44.7933
1171 1 5.5009 33.7914 46.365
1172 1 3.9292 32.2197 47.9367
1173 1 5.5009 33.7914 49.5084
1174 1 3.9292 35.3631 0.7858
1175 1 5.5009 36.9348 2.3575
1176 1 3.9292 35.3631 3.9292
1177 1 5.5009 36.9348 5.5009
1178 1 3.9292 35.3631 7.0726
1179 1 5.5009 36.9348 8.6443
1180 1 3.9292 35.3631 10.216
1181 1 5.5009 36.9348 11.7877
1182 1 3.9292 35.3631 13.3594
1183 1 5.5009 36.9348 14.9311
1184 1 3.9292 35.3631 16.5028
1185 1 5.5009 36.9348 18.0745
1186 1 3.9292 35.3631 19.6462
1187 1 5.5009 36.9348 21.2179
1188 1 3.9292 35.3631 22.7896
1189 1 5.5009 36.9348 24.3613
1190 1 3.9292 35.3631 25.933
1191 1 5.5009 36.9348 27.5047
1192 1 3.9292 35.3631 29.0764
1193 1 5.5009 36.9348 30.6481
1194 1 3.9292 35.3631 32.2197
1195 1 5.5009 36.9348 33.7914
1196 1 3.9292 35.3631 35.3631
1197 1 5.5009 36.9348 36.9348
1198 1 3.9292 35.3631 38.5065
1199 1 5.5009 36.9348 40.0782
1200 1 3.9292 35.3631 41.6499
1201 1 5.5009 36.9348 43.2216
1202 1 3.9292 35.3631 44.7933
1203 1 5.5009 36.9348 46.365
1204 1 3.9292 35.3631 47.9367
1205 1 5.5009 36.9348 49.5084
1206 1 3.9292 38.5065 0.7858
1207 1 5.5009 40.0782 2.3575
1208 1 3.9292 38.5065 3.9292
1209 1 5.5009 40.0782 5.5009
1210 1 3.9292 38.5065 7.0726
1211 1 5.5009 40.0782 8.6443
1212 1 3.9292 38.5065 10.216
1213 1 5.5009 40.0782 11.7877
1214 1 3.9292 38.5065 13.3594
1215 1 5.5009 40.0782 14.9311
1216 1 3.9292 38.5065 16.5028
1217 1 5.5009 40.0782 18.0745
1218 1 3.9292 38.5065 19.6462
1219 1 5.5009 40.0782 21.2179
1220 1 3.9292 38.5065 22.7896
1221 1 5.5009 40.0782 24.3613
1222 1 3.9292 38.5065 25.933
1223 1 5.5009 40.0782 27.5047
1224 1 3.9292 38.5065 29.0764
1225 1 5.5009 40.0782 30.6481
1226 1 3.9292 38.5065 32.2197
1227 1 5.5009 40.0782 33.7914
1228 1 3.9292 38.5065 35.3631
1229 1 5.5009 40.0782 36.9348
1230 1 3.9292 38.5065 38.5065
1231 1 5.5009 40.0782 40.0782
1232 1 3.9292 38.5065 41.6499
1233 1 5.5009 40.0782 43.2216
1234 1 3.9292 38.5065 44.7933
1235 1 5.5009 40.0782 46.365
1236 1 3.9292 38.5065 47.9367
1237 1 5.5009 40.0782 49.5084
1238 1 3.9292 41.6499 0.7858
1239 1 5.5009 43.2216 2.3575
1240 1 3.9292 41.6499 3.9292
1241 1 5.5009 43.2216 5.5009
1242 1 3.9292 41.6499 7.0726
1243 1 5.5009 43.2216 8.6443
1244 1 3.9292 41.6499 10.216
1245 1 5.5009 43.2216 11.7877
1246 1 3.9292 41.6499 13.3594
1247 1 5.5009 43.2216 14.9311
1248 1 3.9292 41.6499 16.5028
1249 1 5.5009 43.2216 18.0745
1250 1 3.9292 41.6499 19.6462
1251 1 5.5009 43.2216 21.2179
1252 1 3.9292 41.6499 22.7896
1253 1 5.5009 43.2216 24.3613
1254 1 3.9292 41.6499 25.933
1255 1 5.5009 43.2216 27.5047
1256 1 3.9292 41.6499 29.0764
1257 1 5.5009 43.2216 30.6481
1258 1 3.9292 41.6499 32.2197
1259 1 5.5009 43.2216 33.7914
1260 1 3.9292 41.6499 35.3631
1261 1 5.5009 43.2216 36.9348
1262 1 3.9292 41.6499 38.5065
1263 1 5.5009 43.2216 40.0782
1264 1 3.9292 41.6499 41.6499
1265 1 5.5009 43.2216 43.2216
1266 1 3.9292 41.6499 44.7933
1267 1 5.5009 43.2216 46.365
1268 1 3.9292 41.6499 47.9367
1269 1 5.5009 43.2216 49.5084
1270 1 3.9292 44.7933 0.7858
1271 1 5.5009 46.365 2.3575
1272 1 3.9292 44.7933 3.9292
1273 1 5.5009 46.365 5.5009
1274 1 3.9292 44.7933 7.0726
1275 1 5.5009 46.365 8.6443
1276 1 3.9292 44.7933 10.216
1277 1 5.5009 46.365 11.7877
1278 1 3.9292 44.7933 13.3594
1279 1 5.5009 46.365 14.9311
1280 1 3.9292 44.7933 16.5028
1281 1 5.5009 46.365 18.0745
1282 1 3.9292 44.7933 19.6462
1283 1 5.5009 46.365 21.2179
1284 1 3.9292 44.7933 22.7896
1285 1 5.5009 46.365 24.3613
1286 1 3.9292 44.7933 25.933
1287 1 5.5009 46.365 27.5047
1288 1 3.9292 44.7933 29.0764
1289 1 5.5009 46.365 30.6481
1290 1 3.9292 44.7933 32.2197
1291 1 5.5009 46.365 33.7914
1292 1 3.9292 44.7933 35.3631
1293 1 5.5009 46.365 36.9348
1294 1 3.9292 44.7933 38.5065
1295 1 5.5009 46.365 40.0782
1296 1 3.9292 44.7933 41.6499
1297 1 5.5009 46.365 43.2216
1298 1 3.9292 44.7933 44.7933
1299 1 5.5009 46.365 46.365
1300 1 3.9292 44.7933 47.9367
1301 1 5.5009 46.365 49.5084
1302 1 3.9292 47.9367 0.7858
1303 1 5.5009 49.5084 2.3575
1304 1 3.9292 47.9367 3.9292
1305 1 5.5009 49.5084 5.5009
1306 1 3.9292 47.9367 7.0726
1307 1 5.5009 49.5084 8.6443
1308 1 3.9292 47.9367 10.216
1309 1 5.5009 49.5084 11.7877
1310 1 3.9292 47.9367 13.3594
1311 1 5.5009 49.5084 14.9311
1312 1 3.9292 47.9367 16.5028
1313 1 5.5009 49.5084 18.0745
1314 1 3.9292 47.9367 19.6462
1315 1 5.5009 49.5084 21.2179
1316 1 3.9292 47.9367 22.7896
1317 1 5.5009 49.5084 24.3613
1318 1 3.9292 47.9367 25.933
1319 1 5.5009 49.5084 27.5047
1320 1 3.9292 47.9367 29.0764
1321 1 5.5009 49.5084 30.6481
1322 1 3.9292 47.9367 32.2197
1323 1 5.5009 49.5084 33.7914
1324 1 3.9292 47.9367 35.3631
1325 1 5.5009 49.5084 36.9348
1326 1 3.9292 47.9367 38.5065
1327 1 5.5009 49.5084 40.0782
1328 1 3.9292 47.9367 41.6499
1329 1 5.5009 49.5084 43.2216
1330 1 3.9292 47.9367 44.7933
1331 1 5.5009 49.5084 46.365
1332 1 3.9292 47.9367 47.9367
1333 1 5.5009 49.5084 49.5084
1334 1 7.0726 0.7858 0.7858
1335 1 8.6443 2.3575 2.3575
1336 1 7.0726 0.7858 3.9292
1337 1 8.6443 2.3575 5.5009
1338 1 7.0726 0.7858 7.0726
1339 1 8.6443 2.3575 8.6443
1340 1 7.0726 0.7858 10.216
1341 1 8.6443 2.3575 11.7877
1342 1 7.0726 0.7858 13.3594
1343 1 8.6443 2.3575 14.9311
1344 1 7.0726 0.7858 16.5028
1345 1 8.6443 2.3575 18.0745
1346 1 7.0726 0.7858 19.6462
1347 1 8.6443 2.3575 21.2179
1348 1 7.0726 0.7858 22.7896
1349 1 8.6443 2.3575 24.3613
1350 1 7.0726 0.7858 25.933
1351 1 8.6443 2.3575 27.5047
1352 1 7.0726 0.7858 29.0764
1353 1 8.6443 2.3575 30.6481
1354 1 7.0726 0.7858 32.2197
1355 1 8.6443 2.3575 33.7914
1356 1 7.0726 0.7858 35.3631
1357 1 8.6443 2.3575 36.9348
1358 1 7.0726 0.7858 38.5065
1359 1 8.6443 2.3575 40.0782
1360 1 7.0726 0.7858 41.6499
1361 1 8.6443 2.3575 43.2216
1362 1 7.0726 0.7858 44.7933
1363 1 8.6443 2.3575 46.365
1364 1 7.0726 0.7858 47.9367
1365 1 8.6443 2.3575 49.5084
1366 1 7.0726 3.9292 0.7858
1367 1 8.6443 5.5009 2.3575
1368 1 7.0726 3.9292 3.9292
1369 1 8.6443 5.5009 5.5009
1370 1 7.0726 3.9292 7.0726
1371 1 8.6443 5.5009 8.6443
1372 1 7.0726 3.9292 10.216
1373 1 8.6443 5.5009 11.7877
1374 1 7.0726 3.9292 13.3594
1375 1 8.6443 5.5009 14.9311
1376 1 7.0726 3.9292 16.5028
1377 1 8.6443 5.5009 18.0745
1378 1 7.0726 3.9292 19.6462
1379 1 8.6443 5.5009 21.2179
1380 1 7.0726 3.9292 22.7896
1381 1 8.6443 5.5009 24.3613
1382 1 7.0726 3.9292 25.933
1383 1 8.6443 5.5009 27.5047
1384 1 7.0726 3.9292 29.0764
1385 1 8.6443 5.5009 30.6481
1386 1 7.0726 3.9292 32.2197
1387 1 8.6443 5.5009 33.7914
1388 1 7.0726 3.9292 35.3631
1389 1 8.6443 5.5009 36.9348
1390 1 7.0726 3.9292 38.5065
1391 1 8.6443 5.5009 40.0782
1392 1 7.0726 3.9292 41.6499
1393 1 8.6443 5.5009 43.2216
1394 1 7.0726 3.9292 44.7933
1395 1 8.6443 5.5009 46.365
1396 1 7.0726 3.9292 47.9367
1397 1 8.6443 5.5009 49.5084
1398 1 7.0726 7.0726 0.7858
1399 1 8.6443 8.6443 2.3575
1400 1 7.0726 7.0726 3.9292
1401 1 8.6443 8.6443 5.5009
1402 1 7.0726 7.0726 7.0726
1403 1 8.6443 8.6443 8.6443
1404 1 7.0726 7.0726 10.216
1405 1 8.6443 8.6443 11.7877
1406 1 7.0726 7.0726 13.3594
1407 1 8.6443 8.6443 14.9311
1408 1 7.0726 7.0726 16.5028
1409 1 8.6443 8.6443 18.0745
1410 1 7.0726 7.0726 19.6462
1411 1 8.6443 8.6443 21.2179
1412 1 7.0726 7.0726 22.7896
1413 1 8.6443 8.6443 24.3613
1414 1 7.0726 7.0726 25.933
1415 1 8.6443 8.6443 27.5047
1416 1 7.0726 7.0726 29.0764
1417 1 8.6443 8.6443 30.6481
1418 1 7.0726 7.0726 32.2197
1419 1 8.6443 8.6443 33.7914
1420 1 7.0726 7.0726 35.3631
1421 1 8.6443 8.6443 36.9348
1422 1 7.0726 7.0726 38.5065
1423 1 8.6443 8.6443 40.0782
1424 1 7.0726 7.0726 41.6499
1425 1 8.6443 8.6443 43.2216
1426 1 7.0726 7.0726 44.7933
1427 1 8.6443 8.6443 46.365
1428 1 7.0726 7.0726 47.9367
1429 1 8.6443 8.6443 49.5084
1430 1 7.0726 10.216 0.7858
1431 1 8.6443 11.7877 2.3575
1432 1 7.0726 10.216 3.9292
1433 1 8.6443 11.7877 5.5009
1434 1 7.0726 10.216 7.0726
1435 1 8.6443 11.7877 8.6443
1436 1 7.0726 10.216 10.216
1437 1 8.6443 11.7877 11.7877
1438 1 7.0726 10.216 13.3594
1439 1 8.6443 11.7877 14.9311
1440 1 7.0726 10.216 16.5028
1441 1 8.6443 11.7877 18.0745
1442 1 7.0726 10.216 19.6462
1443 1 8.6443 11.7877 21.2179
1444 1 7.0726 10.216 22.7896
1445 1 8.6443 11.7877 24.3613
1446 1 7.0726 10.216 25.933
1447 1 8.6443 11.7877 27.5047
1448 1 7.0726 10.216 29.0764
1449 1 8.6443 11.7877 30.6481
1450 1 7.0726 10.216 32.2197
1451 1 8.6443 11.7877 33.7914
1452 1 7.0726 10.216 35.3631
1453 1 8.6443 11.7877 36.9348
1454 1 7.0726 10.216 38.5065
1455 1 8.6443 11.7877 40.0782
1456 1 7.0726 10.216 41.6499
1457 1 8.6443 11.7877 43.2216
1458 1 7.0726 10.216 44.7933
1459 1 8.6443 11.7877 46.365
1460 1 7.0726 10.216 47.9367
1461 1 8.6443 11.7877 49.5084
1462 1 7.0726 13.3594 0.7858
1463 1 8.6443 14.9311 2.3575
1464 1 7.0726 13.3594 3.9292
1465 1 8.6443 14.9311 5.5009
1466 1 7.0726 13.3594 7.0726
1467 1 8.6443 14.9311 8.6443
1468 1 7.0726 13.3594 10.216
1469 1 8.6443 14.9311 11.7877
1470 1 7.0726 13.3594 13.3594
1471 1 8.6443 14.9311 14.9311
1472 1 7.0726 13.3594 16.5028
1473 1 8.6443 14.9311 18.0745
1474 1 7.0726 13.3594 19.6462
1475 1 8.6443 14.9311 21.2179
1476 1 7.0726 13.3594 22.7896
1477 1 8.6443 14.9311 24.3613
1478 1 7.0726 13.3594 25.933
1479 1 8.6443 14.9311 27.5047
1480 1 7.0726 13.3594 29.0764
1481 1 8.6443 14.9311 30.6481
1482 1 7.0726 13.3594 32.2197
1483 1 8.6443 14.9311 33.7914
1484 1 7.0726 13.3594 35.3631
1485 1 8.6443 14.9311 36.9348
1486 1 7.0726 13.3594 38.5065
1487 1 8.6443 14.9311 40.0782
1488 1 7.0726 13.3594 41.6499
1489 1 8.6443 14.9311 43.2216
1490 1 7.0726 13.3594 44.7933
1491 1 8.6443 14.9311 46.365
1492 1 7.0726 13.3594 47.9367
1493 1 8.6443 14.9311 49.5084
1494 1 7.0726 16.5028 0.7858
1495 1 8.6443 18.0745 2.3575
1496 1 7.0726 16.5028 3.9292
1497 1 8.6443 18.0745 5.5009
1498 1 7.0726 16.5028 7.0726
1499 1 8.6443 18.0745 8.6443
1500 1 7.0726 16.5028 10.216
1501 1 8.6443 18.0745 11.7877
1502 1 7.0726 16.5028 13.3594
1503 1 8.6443 18.0745 14.9311
1504 1 7.0726 16.5028 16.5028
1505 1 8.6443 18.0745 18.0745
1506 1 7.0726 16.5028 19.6462
1507 1 8.6443 18.0745 21.2179
1508 1 7.0726 16.5028 22.7896
1509 1 8.6443 18.0745 24.3613
1510 1 7.0726 16.5028 25.933
1511 1 8.6443 18.0745 27.5047
1512 1 7.0726 16.5028 29.0764
1513 1 8.6443 18.0745 30.6481
1514 1 7.0726 16.5028 32.2197
1515 1 8.6443 18.0745 33.7914
1516 1 7.0726 16.5028 35.3631
1517 1 8.6443 18.0745 36.9348
1518 1 7.0726 16.5028 38.5065
1519 1 8.6443 18.0745 40.0782
1520 1 7.0726 16.5028 41.6499
1521 1 8.6443 18.0745 43.2216
1522 1 7.0726 16.5028 44.7933
1523 1 8.6443 18.0745 46.365
1524 1 7.0726 16.5028 47.9367
1525 1 8.6443 18.0745 49.5084
1526 1 7.0726 19.6462 0.7858
1527 1 8.6443 21.2179 2.3575
1528 1 7.0726 19.6462 3.9292
1529 1 8.6443 21.2179 5.5009
1530 1 7.0726 19.6462 7.0726
1531 1 8.6443 21.2179 8.6443
1532 1 7.0726 19.6462 10.216
1533 1 8.6443 21.2179 11.7877
1534 1 7.0726 19.6462 13.3594
1535 1 8.6443 21.2179 14.9311
1536 1 7.0726 19.6462 16.5028
1537 1 8.6443 21.2179 18.0745
1538 1 7.0726 19.6462 19.6462
1539 1 8.6443 21.2179 21.2179
1540 1 7.0726 19.6462 22.7896
1541 1 8.6443 21.2179 24.3613
1542 1 7.0726 19.6462 25.933
1543 1 8.6443 21.2179 27.5047
1544 1 7.0726 19.6462 29.0764
1545 1 8.6443 21.2179 30.6481
1546 1 7.0726 19.6462 32.2197
1547 1 8.6443 21.2179 33.7914
1548 1 7.0726 19.6462 35.3631
1549 1 8.6443 21.2179 36.9348
1550 1 7.0726 19.6462 38.5065
1551 1 8.6443 21.2179 40.0782
1552 1 7.0726 19.6462 41.6499
1553 1 8.6443 21.2179 43.2216
1554 1 7.0726 19.6462 44.7933
1555 1 8.6443 21.2179 46.365
1556 1 7.0726 19.6462 47.9367
1557 1 8.6443 21.2179 49.5084
1558 1 7.0726 22.7896 0.7858
1559 1 8.6443 24.3613 2.3575
1560 1 7.0726 22.7896 3.9292
1561 1 8.6443 24.3613 5.5009
1562 1 7.0726 22.7896 7.0726
1563 1 8.6443 24.3613 8.6443
1564 1 7.0726 22.7896 10.216
1565 1 8.6443 24.3613 11.7877
1566 1 7.0726 22.7896 13.3594
1567 1 8.6443 24.3613 14.9311
1568 1 7.0726 22.7896 16.5028
1569 1 8.6443 24.3613 18.0745
1570 1 7.0726 22.7896 19.6462
1571 1 8.6443 24.3613 21.2179
1572 1 7.0726 22.7896 22.7896
1573 1 8.6443 24.3613 24.3613
1574 1 7.0726 22.7896 25.933
1575 1 8.6443 24.3613 27.5047
1576 1 7.0726 22.7896 29.0764
1577 1 8.6443 24.3613 30.6481
1578 1 7.0726 22.7896 32.2197
1579 1 8.6443 24.3613 33.7914
1580 1 7.0726 22.7896 35.3631
1581 1 8.6443 24.3613 36.9348
1582 1 7.0726 22.7896 38.5065
1583 1 8.6443 24.3613 40.0782
1584 1 7.0726 22.7896 41.6499
1585 1 8.6443 24.3613 43.2216
1586 1 7.0726 22.7896 44.7933
1587 1 8.6443 24.3613 46.365
1588 1 7.0726 22.7896 47.9367
1589 1 8.6443 24.3613 49.5084
1590 1 7.0726 25.933 0.7858
1591 1 8.6443 27.5047 2.3575
1592 1 7.0726 25.933 3.9292
1593 1 8.6443 27.5047 5.5009
1594 1 7.0726 25.933 7.0726
1595 1 8.6443 27.5047 8.6443
1596 1 7.0726 25.933 10.216
1597 1 8.6443 27.5047 11.7877
1598 1 7.0726 25.933 13.3594
1599 1 8.6443 27.5047 14.9311
1600 1 7.0726 25.933 16.5028
1601 1 8.6443 27.5047 18.0745
1602 1 7.0726 25.933 19.6462
1603 1 8.6443 27.5047 21.2179
1604 1 7.0726 25.933 22.7896
1605 1 8.6443 27.5047 24.3613
1606 1 7.0726 25.933 25.933
1607 1 8.6443 27.5047 27.5047
1608 1 7.0726 25.933 29.0764
1609 1 8.6443 27.5047 30.6481
1610 1 7.0726 25.933 32.2197
1611 1 8.6443 27.5047 33.7914
1612 1 7.0726 25.933 35.3631
1613 1 8.6443 27.5047 36.9348
1614 1 7.0726 25.933 38.5065
1615 1 8.6443 27.5047 40.0782
1616 1 7.0726 25.933 41.6499
1617 1 8.6443 27.5047 43.2216
1618 1 7.0726 25.933 44.7933
1619 1 8.6443 27.5047 46.365
1620 1 7.0726 25.933 47.9367
1621 1 8.6443 27.5047 49.5084
1622 1 7.0726 29.0764 0.7858
1623 1 8.6443 30.6481 2.3575
1624 1 7.0726 29.0764 3.9292
1625 1 8.6443 30.6481 5.5009
1626 1 7.0726 29.0764 7.0726
1627 1 8.6443 30.6481 8.6443
1628 1 7.0726 29.0764 10.216
1629 1 8.6443 30.6481 11.7877
1630 1 7.0726 29.0764 13.3594
1631 1 8.6443 30.6481 14.9311
1632 1 7.0726 29.0764 16.5028
1633 1 8.6443 30.6481 18.0745
1634 1 7.0726 29.0764 19.6462
1635 1 8.6443 30.6481 21.2179
1636 1 7.0726 29.0764 22.7896
1637 1 8.6443 30.6481 24.3613
1638 1 7.0726 29.0764 25.933
1639 1 8.6443 30.6481 27.5047
1640 1 7.0726 29.0764 29.0764
1641 1 8.6443 30.6481 30.6481
1642 1 7.0726 29.0764 32.2197
1643 1 8.6443 30.6481 33.7914
1644 1 7.0726 29.0764 35.3631
1645 1 8.6443 30.6481 36.9348
1646 1 7.0726 29.0764 38.5065
1647 1 8.6443 30.6481 40.0782
1648 1 7.0726 29.0764 41.6499
1649 1 8.6443 30.6481 43.2216
1650 1 7.0726 29.0764 44.7933
1651 1 8.6443 30.6481 46.365
1652 1 7.0726 29.0764 47.9367
1653 1 8.6443 30.6481 49.5084
1654 1 7.0726 32.2197 0.7858
1655 1 8.6443 33.7914 2.3575
1656 1 7.0726 32.2197 3.9292
1657 1 8.6443 33.7914 5.5009
1658 1 7.0726 32.2197 7.0726
1659 1 8.6443 33.7914 8.6443
1660 1 7.0726 32.2197 10.216
1661 1 8.6443 33.7914 11.7877
1662 1 7.0726 32.2197 13.3594
1663 1 8.6443 33.7914 14.9311
1664 1 7.0726 32.2197 16.5028
1665 1 8.6443 33.7914 18.0745
1666 1 7.0726 32.2197 19.6462
1667 1 8.6443 33.7914 21.2179
1668 1 7.0726 32.2197 22.7896
1669 1 8.6443 33.7914 24.3613
1670 1 7.0726 32.2197 25.933
1671 1 8.6443 33.7914 27.5047
1672 1 7.0726 32.2197 29.0764
1673 1 8.6443 33.7914 30.6481
1674 1 7.0726 32.2197 32.2197
1675 1 8.6443 33.7914 33.7914
1676 1 7.0726 32.2197 35.3631
1677 1 8.6443 33.7914 36.9348
1678 1 7.0726 32.2197 38.5065
1679 1 8.6443 33.7914 40.0782
1680 1 7.0726 32.2197 41.6499
1681 1 8.6443 33.7914 43.2216
1682 1 7.0726 32.2197 44.7933
1683 1 8.6443 33.7914 46.365
1684 1 7.0726 32.2197 47.9367
1685 1 8.6443 33.7914 49.5084
1686 1 7.0726 35.3631 0.7858
1687 1 8.6443 36.9348 2.3575
1688 1 7.0726 35.3631 3.9292
1689 1 8.6443 36.9348 5.5009
1690 1 7.0726 35.3631 7.0726
1691 1 8.6443 36.9348 8.6443
1692 1 7.0726 35.3631 10.216
1693 1 8.6443 36.9348 11.7877
1694 1 7.0726 35.3631 13.3594
1695 1 8.6443 36.9348 14.9311
1696 1 7.0726 35.3631 16.5028
1697 1 8.6443 36.9348 18.0745
1698 1 7.0726 35.3631 19.6462
1699 1 8.6443 36.9348 21.2179
1700 1 7.0726 35.3631 22.7896
1701 1 8.6443 36.9348 24.3613
1702 1 7.0726 35.3631 25.933
1703 1 8.6443 36.9348 27.5047
1704 1 7.0726 35.3631 29.0764
1705 1 8.6443 36.9348 30.6481
1706 1 7.0726 35.3631 32.2197
1707 1 8.6443 36.9348 33.7914
1708 1 7.0726 35.3631 35.3631
1709 1 8.6443 36.9348 36.9348
1710 1 7.0726 35.3631 38.5065
1711 1 8.6443 36.9348 40.0782
1712 1 7.0726 35.3631 41.6499
1713 1 8.6443 36.9348 43.2216
1714 1 7.0726 35.3631 44.7933
1715 1 8.6443 36.9348 46.365
1716 1 7.0726 35.3631 47.9367
1717 1 8.6443 36.9348 49.5084
1718 1 7.0726 38.5065 0.7858
1719 1 8.6443 40.0782 2.3575
1720 1 7.0726 38.5065 3.9292
1721 1 8.6443 40.0782 5.5009
1722 1 7.0726 38.5065 7.0726
1723 1 8.6443 40.0782 8.6443
1724 1 7.0726 38.5065 10.216
1725 1 8.6443 40.0782 11.7877
1726 1 7.0726 38.5065 13.3594
1727 1 8.6443 40.0782 14.9311
1728 1 7.0726 38.5065 16.5028
1729 1 8.6443 40.0782 18.0745
1730 1 7.0726 38.5065 19.6462
1731 1 8.6443 40.0782 21.2179
1732 1 7.0726 38.5065 22.7896
1733 1 8.6443 40.0782 24.3613
1734 1 7.0726 38.5065 25.933
1735 1 8.6443 40.0782 27.5047
1736 1 7.0726 38.5065 29.0764
1737 1 8.6443 40.0782 30.6481
1738 1 7.0726 38.5065 32.2197
1739 1 8.6443 40.0782 33.7914
1740 1 7.0726 38.5065 35.3631
1741 1 8.6443 40.0782 36.9348
1742 1 7.0726 38.5065 38.5065
1743 1 8.6443 40.0782 40.0782
1744 1 7.0726 38.5065 41.6499
1745 1 8.6443 40.0782 43.2216
1746 1 7.0726 38.5065 44.7933
1747 1 8.6443 40.0782 46.365
1748 1 7.0726 38.5065 47.9367
1749 1 8.6443 40.0782 49.5084
1750 1 7.0726 41.6499 0.7858
1751 1 8.6443 43.2216 2.3575
1752 1 7.0726 41.6499 3.9292
1753 1 8.6443 43.2216 5.5009
1754 1 7.0726 41.6499 7.0726
1755 1 8.6443 43.2216 8.6443
1756 1 7.0726 41.6499 10.216
1757 1 8.6443 43.2216 11.7877
1758 1 7.0726 41.6499 13.3594
1759 1 8.6443 43.2216 14.9311
1760 1 7.0726 41.6499 16.5028
1761 1 8.6443 43.2216 18.0745
1762 1 7.0726 41.6499 19.6462
1763 1 8.6443 43.2216 21.2179
1764 1 7.0726 41.6499 22.7896
1765 1 8.6443 43.2216 24.3613
1766 1 7.0726 41.6499 25.933
1767 1 8.6443 43.2216 27.5047
1768 1 7.0726 41.6499 29.0764
1769 1 8.6443 43.2216 30.6481
1770 1 7.0726 41.6499 32.2197
1771 1 8.6443 43.2216 33.7914
1772 1 7.0726 41.6499 35.3631
1773 1 8.6443 43.2216 36.9348
1774 1 7.0726 41.6499 38.5065
1775 1 8.6443 43.2216 40.0782
1776 1 7.0726 41.6499 41.6499
1777 1 8.6443 43.2216 43.2216
1778 1 7.0726 41.6499 44.7933
1779 1 8.6443 43.2216 46.365
1780 1 7.0726 41.6499 47.9367
1781 1 8.6443 43.2216 49.5084
1782 1 7.0726 44.7933 0.7858
1783 1 8.6443 46.365 2.3575
1784 1 7.0726 44.7933 3.9292
1785 1 8.6443 46.365 5.5009
1786 1 7.0726 44.7933 7.0726
1787 1 8.6443 46.365 8.6443
1788 1 7.0726 44.7933 10.216
1789 1 8.6443 46.365 11.7877
1790 1 7.0726 44.7933 13.3594
1791 1 8.6443 46.365 14.9311
1792 1 7.0726 44.7933 16.5028
1793 1 8.6443 46.365 18.0745
1794 1 7.0726 44.7933 19.6462
1795 1 8.6443 46.365 21.2179
1796 1 7.0726 44.7933 22.7896
1797 1 8.6443 46.365 24.3613
1798 1 7.0726 44.7933 25.933
1799 1 8.6443 46.365 27.5047
1800 1 7.0726 44.7933 29.0764
1801 1 8.6443 46.365 30.6481
1802 1 7.0726 44.7933 32.2197
1803 1 8.6443 46.365 33.7914
1804 1 7.0726 44.7933 35.3631
1805 1 8.6443 46.365 36.9348
1806 1 7.0726 44.7933 38.5065
1807 1 8.6443 46.365 40.0782
1808 1 7.0726 44.7933 41.6499
1809 1 8.6443 46.365 43.2216
1810 1 7.0726 44.7933 44.7933
1811 1 8.6443 46.365 46.365
1812 1 7.0726 44.7933 47.9367
1813 1 8.6443 46.365 49.5084
1814 1 7.0726 47.9367 0.7858
1815 1 8.6443 49.5084 2.3575
1816 1 7.0726 47.9367 3.9292
1817 1 8.6443 49.5084 5.5009
1818 1 7.0726 47.9367 7.0726
1819 1 8.6443 49.5084 8.6443
1820 1 7.0726 47.9367 10.216
1821 1 8.6443 49.5084 11.7877
1822 1 7.0726 47.9367 13.3594
1823 1 8.6443 49.5084 14.9311
1824 1 7.0726 47.9367 16.5028
1825 1 8.6443 49.5084 18.0745
1826 1 7.0726 47.9367 19.6462
1827 1 8.6443 49.5084 21.2179
1828 1 7.0726 47.9367 22.7896
1829 1 8.6443 49.5084 24.3613
1830 1 7.0726 47.9367 25.933
1831 1 8.6443 49.5084 27.5047
1832 1 7.0726 47.9367 29.0764
1833 1 8.6443 49.5084 30.6481
1834 1 7.0726 47.9367 32.2197
1835 1 8.6443 49.5084 33.7914
1836 1 7.0726 47.9367 35.3631
1837 1 8.6443 49.5084 36.9348
1838 1 7.0726 47.9367 38.5065
1839 1 8.6443 49.5084 40.0782
1840 1 7.0726 47.9367 41.6499
1841 1 8.6443 49.5084 43.2216
1842 1 7.0726 47.9367 44.7933
1843 1 8.6443 49.5084 46.365
1844 1 7.0726 47.9367 47.9367
1845 1 8.6443 49.5084 49.5084
1846 1 10.216 0.7858 0.7858
1847 1 11.7877 2.3575 2.3575
1848 1 10.216 0.7858 3.9292
1849 1 11.7877 2.3575 5.5009
1850 1 10.216 0.7858 7.0726
1851 1 11.7877 2.3575 8.6443
1852 1 10.216 0.7858 10.216
1853 1 11.7877 2.3575 11.7877
1854 1 10.216 0.7858 13.3594
1855 1 11.7877 2.3575 14.9311
1856 1 10.216 0.7858 16.5028
1857 1 11.7877 2.3575 18.0745
1858 1 10.216 0.7858 19.6462
1859 1 11.7877 2.3575 21.2179
1860 1 10.216 0.7858 22.7896
1861 1 11.7877 2.3575 24.3613
1862 1 10.216 0.7858 25.933
1863 1 11.7877 2.3575 27.5047
1864 1 10.216 0.7858 29.0764
1865 1 11.7877 2.3575 30.6481
1866 1 10.216 0.7858 32.2197
1867 1 11.7877 2.3575 33.7914
1868 1 10.216 0.7858 35.3631
1869 1 11.7877 2.3575 36.9348
1870 1 10.216 0.7858 38.5065
1871 1 11.7877 2.3575 40.0782
1872 1 10.216 0.7858 41.6499
1873 1 11.7877 2.3575 43.2216
1874 1 10.216 0.7858 44.7933
1875 1 11.7877 2.3575 46.365
1876 1 10.216 0.7858 47.9367
1877 1 11.7877 2.3575 49.5084
1878 1 10.216 3.9292 0.7858
1879 1 11.7877 5.5009 2.3575
1880 1 10.216 3.9292 3.9292
1881 1 11.7877 5.5009 5.5009
1882 1 10.216 3.9292 7.0726
1883 1 11.7877 5.5009 8.6443
1884 1 10.216 3.9292 10.216
1885 1 11.7877 5.5009 11.7877
1886 1 10.216 3.9292 13.3594
1887 1 11.7877 5.5009 14.9311
1888 1 10.216 3.9292 16.5028
1889 1 11.7877 5.5009 18.0745
1890 1 10.216 3.9292 19.6462
1891 1 11.7877 5.5009 21.2179
1892 1 10.216 3.9292 22.7896
1893 1 11.7877 5.5009 24.3613
1894 1 10.216 3.9292 25.933
1895 1 11.7877 5.5009 27.5047
1896 1 10.216 3.9292 29.0764
1897 1 11.7877 5.5009 30.6481
1898 1 10.216 3.9292 32.2197
1899 1 11.7877 5.5009 33.7914
1900 1 10.216 3.9292 35.3631
1901 1 11.7877 5.5009 36.9348
1902 1 10.216 3.9292 38.5065
1903 1 11.7877 5.5009 40.0782
1904 1 10.216 3.9292 41.6499
1905 1 11.7877 5.5009 43.2216
1906 1 10.216 3.9292 44.7933
1907 1 11.7877 5.5009 46.365
1908 1 10.216 3.9292 47.9367
1909 1 11.7877 5.5009 49.5084
1910 1 10.216 7.0726 0.7858
1911 1 11.7877 8.6443 2.3575
1912 1 10.216 7.0726 3.9292
1913 1 11.7877 8.6443 5.5009
1914 1 10.216 7.0726 7.0726
1915 1 11.7877 8.6443 8.6443
1916 1 10.216 7.0726 10.216
1917 1 11.7877 8.6443 11.7877
1918 1 10.216 7.0726 13.3594
1919 1 11.7877 8.6443 14.9311
1920 1 10.216 7.0726 16.5028
1921 1 11.7877 8.6443 18.0745
1922 1 10.216 7.0726 19.6462
1923 1 11.7877 8.6443 21.2179
1924 1 10.216 7.0726 22.7896
1925 1 11.7877 8.6443 24.3613
1926 1 10.216 7.0726 25.933
1927 1 11.7877 8.6443 27.5047
1928 1 10.216 7.0726 29.0764
1929 1 11.7877 8.6443 30.6481
1930 1 10.216 7.0726 32.2197
1931 1 11.7877 8.6443 33.7914
1932 1 10.216 7.0726 35.3631
1933 1 11.7877 8.6443 36.9348
1934 1 10.216 7.0726 38.5065
1935 1 11.7877 8.6443 40.0782
1936 1 10.216 7.0726 41.6499
1937 1 11.7877 8.6443 43.2216
1938 1 10.216 7.0726 44.7933
1939 1 11.7877 8.6443 46.365
1940 1 10.216 7.0726 47.9367
1941 1 11.7877 8.6443 49.5084
1942 1 10.216 10.216 0.7858
1943 1 11.7877 11.7877 2.3575
1944 1 10.216 10.216 3.9292
1945 1 11.7877 11.7877 5.5009
1946 1 10.216 10.216 7.0726
1947 1 11.7877 11.7877 8.6443
1948 1 10.216 10.216 10.216
1949 1 11.7877 11.7877 11.7877
1950 1 10.216 10.216 13.3594
1951 1 11.7877 11.7877 14.9311
1952 1 10.216 10.216 16.5028
1953 1 11.7877 11.7877 18.0745
1954 1 10.216 10.216 19.6462
1955 1 11.7877 11.7877 21.2179
1956 1 10.216 10.216 22.7896
1957 1 11.7877 11.7877 24.3613
1958 1 10.216 10.216 25.933
1959 1 11.7877 11.7877 27.5047
1960 1 10.216 10.216 29.0764
1961 1 11.7877 11.7877 30.6481
1962 1 10.216 10.216 32.2197
1963 1 11.7877 11.7877 33.7914
1964 1 10.216 10.216 35.3631
1965 1 11.7877 11.7877 36.9348
1966 1 10.216 10.216 38.5065
1967 1 11.7877 11.7877 40.0782
1968 1 10.216 10.216 41.6499
1969 1 11.7877 11.7877 43.2216
1970 1 10.216 10.216 44.7933
1971 1 11.7877 11.7877 46.365
1972 1 10.216 10.216 47.9367
1973 1 11.7877 11.7877 49.5084
1974 1 10.216 13.3594 0.7858
1975 1 11.7877 14.9311 2.3575
1976 1 10.216 13.3594 3.9292
1977 1 11.7877 14.9311 5.5009
1978 1 10.216 13.3594 7.0726
1979 1 11.7877 14.9311 8.6443
1980 1 10.216 13.3594 10.216
1981 1 11.7877 14.9311 11.7877
1982 1 10.216 13.3594 13.3594
1983 1 11.7877 14.9311 14.9311
1984 1 10.216 13.3594 16.5028
1985 1 11.7877 14.9311 18.0745
1986 1 10.216 13.3594 19.6462
1987 1 11.7877 14.9311 21.2179
1988 1 10.216 13.3594 22.7896
1989 1 11.7877 14.9311 24.3613
1990 1 10.216 13.3594 25.933
1991 1 11.7877 14.9311 27.5047
1992 1 10.216 13.3594 29.0764
1993 1 11.7877 14.9311 30.6481
1994 1 10.216 13.3594 32.2197
1995 1 11.7877 14.9311 33.7914
1996 1 10.216 13.3594 35.3631
1997 1 11.7877 14.9311 36.9348
1998 1 10.216 13.3594 38.5065
1999 1 11.7877 14.9311 40.0782
2000 1 10.216 13.3594 41.6499
2001 1 11.7877 14.9311 43.2216
2002 1 10.216 13.3594 44.7933
2003 1 11.7877 14.9311 46.365
2004 1 10.216 13.3594 47.9367
2005 1 11.7877 14.9311 49.5084
2006 1 10.216 16.5028 0.7858
2007 1 11.7877 18.0745 2.3575
2008 1 10.216 16.5028 3.9292
2009 1 11.7877 18.0745 5.5009
2010 1 10.216 16.5028 7.0726
2011 1 11.7877 18.0745 8.6443
2012 1 10.216 16.5028 10.216
2013 1 11.7877 18.0745 11.7877
2014 1 10.216 16.5028 13.3594
2015 1 11.7877 18.0745 14.9311
2016 1 10.216 16.5028 16.5028
2017 1 11.7877 18.0745 18.0745
2018 1 10.216 16.5028 19.6462
2019 1 11.7877 18.0745 21.2179
2020 1 10.216 16.5028 22.7896
2021 1 11.7877 18.0745 24.3613
2022 1 10.216 16.5028 25.933
2023 1 11.7877 18.0745 27.5047
2024 1 10.216 16.5028 29.0764
2025 1 11.7877 18.0745 30.6481
2026 1 10.216 16.5028 32.2197
2027 1 11.7877 18.0745 33.7914
2028 1 10.216 16.5028 35.3631
2029 1 11.7877 18.0745 36.9348
2030 1 10.216 16.5028 38.5065
2031 1 11.7877 18.0745 40.0782
2032 1 10.216 16.5028 41.6499
2033 1 11.7877 18.0745 43.2216
2034 1 10.216 16.5028 44.7933
2035 1 11.7877 18.0745 46.365
2036 1 10.216 16.5028 47.9367
2037 1 11.7877 18.0745 49.5084
2038 1 10.216 19.6462 0.7858
2039 1 11.7877 21.2179 2.3575
2040 1 10.216 19.6462 3.9292
2041 1 11.7877 21.2179 5.5009
2042 1 10.216 19.6462 7.0726
2043 1 11.7877 21.2179 8.6443
2044 1 10.216 19.6462 10.216
2045 1 11.7877 21.2179 11.7877
2046 1 10.216 19.6462 13.3594
2047 1 11.7877 21.2179 14.9311
2048 1 10.216 19.6462 16.5028
2049 1 11.7877 21.2179 18.0745
2050 1 10.216 19.6462 19.6462
2051 1 11.7877 21.2179 21.2179
2052 1 10.216 19.6462 22.7896
2053 1 11.7877 21.2179 24.3613
2054 1 10.216 19.6462 25.933
2055 1 11.7877 21.2179 27.5047
2056 1 10.216 19.6462 29.0764
2057 1 11.7877 21.2179 30.6481
2058 1 10.216 19.6462 32.2197
2059 1 11.7877 21.2179 33.7914
2060 1 10.216 19.6462 35.3631
2061 1 11.7877 21.2179 36.9348
2062 1 10.216 19.6462 38.5065
2063 1 11.7877 21.2179 40.0782
2064 1 10.216 19.6462 41.6499
2065 1 11.7877 21.2179 43.2216
2066 1 10.216 19.6462 44.7933
2067 1 11.7877 21.2179 46.365
2068 1 10.216 19.6462 47.9367
2069 1 11.7877 21.2179 49.5084
2070 1 10.216 22.7896 0.7858
2071 1 11.7877 24.3613 2.3575
2072 1 10.216 22.7896 3.9292
2073 1 11.7877 24.3613 5.5009
2074 1 10.216 22.7896 7.0726
2075 1 11.7877 24.3613 8.6443
2076 1 10.216 22.7896 10.216
2077 1 11.7877 24.3613 11.7877
2078 1 10.216 22.7896 13.3594
2079 1 11.7877 24.3613 14.9311
2080 1 10.216 22.7896 16.5028
2081 1 11.7877 24.3613 18.0745
2082 1 10.216 22.7896 19.6462
2083 1 11.7877 24.3613 21.2179
2084 1 10.216 22.7896 22.7896
2085 1 11.7877 24.3613 24.3613
2086 1 10.216 22.7896 25.933
2087 1 11.7877 24.3613 27.5047
2088 1 10.216 22.7896 29.0764
2089 1 11.7877 24.3613 30.6481
2090 1 10.216 22.7896 32.2197
2091 1 11.7877 24.3613 33.7914
2092 1 10.216 22.7896 35.3631
2093 1 11.7877 24.3613 36.9348
2094 1 10.216 22.7896 38.5065
2095 1 11.7877 24.3613 40.0782
2096 1 10.216 22.7896 41.6499
2097 1 11.7877 24.3613 43.2216
2098 1 10.216 22.7896 44.7933
2099 1 11.7877 24.3613 46.365
2100 1 10.216 22.7896 47.9367
2101 1 11.7877 24.3613 49.5084
2102 1 10.216 25.933 0.7858
2103 1 11.7877 27.5047 2.3575
2104 1 10.216 25.933 3.9292
2105 1 11.7877 27.5047 5.5009
2106 1 10.216 25.933 7.0726
2107 1 11.7877 27.5047 8.6443
2108 1 10.216 25.933 10.216
2109 1 11.7877 27.5047 11.7877
2110 1 10.216 25.933 13.3594
2111 1 11.7877 27.5047 14.9311
2112 1 10.216 25.933 16.5028
2113 1 11.7877 27.5047 18.0745
2114 1 10.216 25.933 19.6462
2115 1 11.7877 27.5047 21.2179
2116 1 10.216 25.933 22.7896
2117 1 11.7877 27.5047 24.3613
2118 1 10.216 25.933 25.933
2119 1 11.7877 27.5047 27.5047
2120 1 10.216 25.933 29.0764
2121 1 11.7877 27.5047 30.6481
2122 1 10.216 25.933 32.2197
2123 1 11.7877 27.5047 33.7914
2124 1 10.216 25.933 35.3631
2125 1 11.7877 27.5047 36.9348
2126 1 10.216 25.933 38.5065
2127 1 11.7877 27.5047 40.0782
2128 1 10.216 25.933 41.6499
2129 1 11.7877 27.5047 43.2216
2130 1 10.216 25.933 44.7933
2131 1 11.7877 27.5047 46.365
2132 1 10.216 25.933 47.9367
2133 1 11.7877 27.5047 49.5084
2134 1 10.216 29.0764 0.7858
2135 1 11.7877 30.6481 2.3575
2136 1 10.216 29.0764 3.9292
2137 1 11.7877 30.6481 5.5009
2138 1 10.216 29.0764 7.0726
2139 1 11.7877 30.6481 8.6443
2140 1 10.216 29.0764 10.216
2141 1 11.7877 30.6481 11.7877
2142 1 10.216 29.0764 13.3594
2143 1 11.7877 30.6481 14.9311
2144 1 10.216 29.0764 16.5028
2145 1 11.7877 30.6481 18.0745
2146 1 10.216 29.0764 19.6462
2147 1 11.7877 30.6481 21.2179
2148 1 10.216 29.0764 22.7896
2149 1 11.7877 30.6481 24.3613
2150 1 10.216 29.0764 25.933
2151 1 11.7877 30.6481 27.5047
2152 1 10.216 29.0764 29.0764
2153 1 11.7877 30.6481 30.6481
2154 1 10.216 29.0764 32.2197
2155 1 11.7877 30.6481 33.7914
2156 1 10.216 29.0764 35.3631
2157 1 11.7877 30.6481 36.9348
2158 1 10.216 29.0764 38.5065
2159 1 11.7877 30.6481 40.0782
2160 1 10.216 29.0764 41.6499
2161 1 11.7877 30.6481 43.2216
2162 1 10.216 29.0764 44.7933
2163 1 11.7877 30.6481 46.365
2164 1 10.216 29.0764 47.9367
2165 1 11.7877 30.6481 49.5084
2166 1 10.216 32.2197 0.7858
2167 1 11.7877 33.7914 2.3575
2168 1 10.216 32.2197 3.9292
2169 1 11.7877 33.7914 5.5009
2170 1 10.216 32.2197 7.0726
2171 1 11.7877 33.7914 8.6443
2172 1 10.216 32.2197 10.216
2173 1 11.7877 33.7914 11.7877
2174 1 10.216 32.2197 13.3594
2175 1 11.7877 33.7914 14.9311
2176 1 10.216 32.2197 16.5028
2177 1 11.7877 33.7914 18.0745
2178 1 10.216 32.2197 19.6462
2179 1 11.7877 33.7914 21.2179
2180 1 10.216 32.2197 22.7896
2181 1 11.7877 33.7914 24.3613
2182 1 10.216 32.2197 25.933
2183 1 11.7877 33.7914 27.5047
2184 1 10.216 32.2197 29.0764
2185 1 11.7877 33.7914 30.6481
2186 1 10.216 32.2197 32.2197
2187 1 11.7877 33.7914 33.7914
2188 1 10.216 32.2197 35.3631
2189 1 11.7877 33.7914 36.9348
2190 1 10.216 32.2197 38.5065
2191 1 11.7877 33.7914 40.0782
2192 1 10.216 32.2197 41.6499
2193 1 11.7877 33.7914 43.2216
2194 1 10.216 32.2197 44.7933
2195 1 11.7877 33.7914 46.365
2196 1 10.216 32.2197 47.9367
2197 1 11.7877 33.7914 49.5084
2198 1 10.216 35.3631 0.7858
2199 1 11.7877 36.9348 2.3575
2200 1 10.216 35.3631 3.9292
2201 1 11.7877 36.9348 5.5009
2202 1 10.216 35.3631 7.0726
2203 1 11.7877 36.9348 8.6443
2204 1 10.216 35.3631 10.216
2205 1 11.7877 36.9348 11.7877
2206 1 10.216 35.3631 13.3594
2207 1 11.7877 36.9348 14.9311
2208 1 10.216 35.3631 16.5028
2209 1 11.7877 36.9348 18.0745
2210 1 10.216 35.3631 19.6462
2211 1 11.7877 36.9348 21.2179
2212 1 10.216 35.3631 22.7896
2213 1 11.7877 36.9348 24.3613
2214 1 10.216 35.3631 25.933
2215 1 11.7877 36.9348 27.5047
2216 1 10.216 35.3631 29.0764
2217 1 11.7877 36.9348 30.6481
2218 1 10.216 35.3631 32.2197
2219 1 11.7877 36.9348 33.7914
2220 1 10.216 35.3631 35.3631
2221 1 11.7877 36.9348 36.9348
2222 1 10.216 35.3631 38.5065
2223 1 11.7877 36.9348 40.0782
2224 1 10.216 35.3631 41.6499
2225 1 11.7877 36.9348 43.2216
2226 1 10.216 35.3631 44.7933
2227 1 11.7877 36.9348 46.365
2228 1 10.216 35.3631 47.9367
2229 1 11.7877 36.9348 49.5084
2230 1 10.216 38.5065 0.7858
2231 1 11.7877 40.0782 2.3575
2232 1 10.216 38.5065 3.9292
2233 1 11.7877 40.0782 5.5009
2234 1 10.216 38.5065 7.0726
2235 1 11.7877 40.0782 8.6443
2236 1 10.216 38.5065 10.216
2237 1 11.7877 40.0782 11.7877
2238 1 10.216 38.5065 13.3594
2239 1 11.7877 40.0782 14.9311
2240 1 10.216 38.5065 16.5028
2241 1 11.7877 40.0782 18.0745
2242 1 10.216 38.5065 19.6462
2243 1 11.7877 40.0782 21.2179
2244 1 10.216 38.5065 22.7896
2245 1 11.7877 40.0782 24.3613
2246 1 10.216 38.5065 25.933
2247 1 11.7877 40.0782 27.5047
2248 1 10.216 38.5065 29.0764
2249 1 11.7877 40.0782 30.6481
2250 1 10.216 38.5065 32.2197
2251 1 11.7877 40.0782 33.7914
2252 1 10.216 38.5065 35.3631
2253 1 11.7877 40.0782 36.9348
2254 1 10.216 38.5065 38.5065
2255 1 11.7877 40.0782 40.0782
2256 1 10.216 38.5065 41.6499
2257 1 11.7877 40.0782 43.2216
2258 1 10.216 38.5065 44.7933
2259 1 11.7877 40.0782 46.365
2260 1 10.216 38.5065 47.9367
2261 1 11.7877 40.0782 49.5084
2262 1 10.216 41.6499 0.7858
2263 1 11.7877 43.2216 2.3575
2264 1 10.216 41.6499 3.9292
2265 1 11.7877 43.2216 5.5009
2266 1 10.216 41.6499 7.0726
2267 1 11.7877 43.2216 8.6443
2268 1 10.216 41.6499 10.216
2269 1 11.7877 43.2216 11.7877
2270 1 10.216 41.6499 13.3594
2271 1 11.7877 43.2216 14.9311
2272 1 10.216 41.6499 16.5028
2273 1 11.7877 43.2216 18.0745
2274 1 10.216 41.6499 19.6462
2275 1 11.7877 43.2216 21.2179
2276 1 10.216 41.6499 22.7896
2277 1 11.7877 43.2216 24.3613
2278 1 10.216 41.6499 25.933
2279 1 11.7877 43.2216 27.5047
2280 1 10.216 41.6499 29.0764
2281 1 11.7877 43.2216 30.6481
2282 1 10.216 41.6499 32.2197
2283 1 11.7877 43.2216 33.7914
2284 1 10.216 41.6499 35.3631
2285 1 11.7877 43.2216 36.9348
2286 1 10.216 41.6499 38.5065
2287 1 11.7877 43.2216 40.0782
2288 1 10.216 41.6499 41.6499
2289 1 11.7877 43.2216 43.2216
2290 1 10.216 41.6499 44.7933
2291 1 11.7877 43.2216 46.365
2292 1 10.216 41.6499 47.9367
2293 1 11.7877 43.2216 49.5084
2294 1 10.216 44.7933 0.7858
2295 1 11.7877 46.365 2.3575
2296 1 10.216 44.7933 3.9292
2297 1 11.7877 46.365 5.5009
2298 1 10.216 44.7933 7.0726
2299 1 11.7877 46.365 8.6443
2300 1 10.216 44.7933 10.216
2301 1 11.7877 46.365 11.7877
2302 1 10.216 44.7933 13.3594
2303 1 11.7877 46.365 14.9311
2304 1 10.216 44.7933 16.5028
2305 1 11.7877 46.365 18.0745
2306 1 10.216 44.7933 19.6462
2307 1 11.7877 46.365 21.2179
2308 1 10.216 44.7933 22.7896
2309 1 11.7877 46.365 24.3613
2310 1 10.216 44.7933 25.933
2311 1 11.7877 46.365 27.5047
2312 1 10.216 44.7933 29.0764
2313 1 11.7877 46.365 30.6481
2314 1 10.216 44.7933 32.2197
2315 1 11.7877 46.365 33.7914
2316 1 10.216 44.7933 35.3631
2317 1 11.7877 46.365 36.9348
2318 1 10.216 44.7933 38.5065
2319 1 11.7877 46.365 40.0782
2320 1 10.216 44.7933 41.6499
2321 1 11.7877 46.365 43.2216
2322 1 10.216 44.7933 44.7933
2323 1 11.7877 46.365 46.365
2324 1 10.216 44.7933 47.9367
2325 1 11.7877 46.365 49.5084
2326 1 10.216 47.9367 0.7858
2327 1 11.7877 49.5084 2.3575
2328 1 10.216 47.9367 3.9292
2329 1 11.7877 49.5084 5.5009
2330 1 10.216 47.9367 7.0726
2331 1 11.7877 49.5084 8.6443
2332 1 10.216 47.9367 10.216
2333 1 11.7877 49.5084 11.7877
2334 1 10.216 47.9367 13.3594
2335 1 11.7877 49.5084 14.9311
2336 1 10.216 47.9367 16.5028
2337 1 11.7877 49.5084 18.0745
2338 1 10.216 47.9367 19.6462
2339 1 11.7877 49.5084 21.2179
2340 1 10.216 47.9367 22.7896
2341 1 11.7877 49.5084 24.3613
2342 1 10.216 47.9367 25.933
2343 1 11.7877 49.5084 27.5047
2344 1 10.216 47.9367 29.0764
2345 1 11.7877 49.5084 30.6481
2346 1 10.216 47.9367 32.2197
2347 1 11.7877 49.5084 33.7914
2348 1 10.216 47.9367 35.3631
2349 1 11.7877 49.5084 36.9348
2350 1 10.216 47.9367 38.5065
2351 1 11.7877 49.5084 40.0782
2352 1 10.216 47.9367 41.6499
2353 1 11.7877 49.5084 43.2216
2354 1 10.216 47.9367 44.7933
2355 1 11.7877 49.5084 46.365
2356 1 10.216 47.9367 47.9367
2357 1 11.7877 49.5084 49.5084
2358 1 13.3594 0.7858 0.7858
2359 1 14.9311 2.3575 2.3575
2360 1 13.3594 0.7858 3.9292
2361 1 14.9311 2.3575 5.5009
2362 1 13.3594 0.7858 7.0726
2363 1 14.9311 2.3575 8.6443
2364 1 13.3594 0.7858 10.216
2365 1 14.9311 2.3575 11.7877
2366 1 13.3594 0.7858 13.3594
2367 1 14.9311 2.3575 14.9311
2368 1 13.3594 0.7858 16.5028
2369 1 14.9311 2.3575 18.0745
2370 1 13.3594 0.7858 19.6462
2371 1 14.9311 2.3575 21.2179
2372 1 13.3594 0.7858 22.7896
2373 1 14.9311 2.3575 24.3613
2374 1 13.3594 0.7858 25.933
2375 1 14.9311 2.3575 27.5047
2376 1 13.3594 0.7858 29.0764
2377 1 14.9311 2.3575 30.6481
2378 1 13.3594 0.7858 32.2197
2379 1 14.9311 2.3575 33.7914
2380 1 13.3594 0.7858 35.3631
2381 1 14.9311 2.3575 36.9348
2382 1 13.3594 0.7858 38.5065
2383 1 14.9311 2.3575 40.0782
2384 1 13.3594 0.7858 41.6499
2385 1 14.9311 2.3575 43.2216
2386 1 13.3594 0.7858 44.7933
2387 1 14.9311 2.3575 46.365
2388 1 13.3594 0.7858 47.9367
2389 1 14.9311 2.3575 49.5084
2390 1 13.3594 3.9292 0.7858
2391 1 14.9311 5.5009 2.3575
2392 1 13.3594 3.9292 3.9292
2393 1 14.9311 5.5009 5.5009
2394 1 13.3594 3.9292 7.0726
2395 1 14.9311 5.5009 8.6443
2396 1 13.3594 3.9292 10.216
2397 1 14.9311 5.5009 11.7877
2398 1 13.3594 3.9292 13.3594
2399 1 14.9311 5.5009 14.9311
2400 1 13.3594 3.9292 16.5028
2401 1 14.9311 5.5009 18.0745
2402 1 13.3594 3.9292 19.6462
2403 1 14.9311 5.5009 21.2179
2404 1 13.3594 3.9292 22.7896
2405 1 14.9311 5.5009 24.3613
2406 1 13.3594 3.9292 25.933
2407 1 14.9311 5.5009 27.5047
2408 1 13.3594 3.9292 29.0764
2409 1 14.9311 5.5009 30.6481
2410 1 13.3594 3.9292 32.2197
2411 1 14.9311 5.5009 33.7914
2412 1 13.3594 3.9292 35.3631
2413 1 14.9311 5.5009 36.9348
2414 1 13.3594 3.9292 38.5065
2415 1 14.9311 5.5009 40.0782
2416 1 13.3594 3.9292 41.6499
2417 1 14.9311 5.5009 43.2216
2418 1 13.3594 3.9292 44.7933
2419 1 14.9311 5.5009 46.365
2420 1 13.3594 3.9292 47.9367
2421 1 14.9311 5.5009 49.5084
2422 1 13.3594 7.0726 0.7858
2423 1 14.9311 8.6443 2.3575
2424 1 13.3594 7.0726 3.9292
2425 1 14.9311 8.6443 5.5009
2426 1 13.3594 7.0726 7.0726
2427 1 14.9311 8.6443 8.6443
2428 1 13.3594 7.0726 10.216
2429 1 14.9311 8.6443 11.7877
2430 1 13.3594 7.0726 13.3594
2431 1 14.9311 8.6443 14.9311
2432 1 13.3594 7.0726 16.5028
2433 1 14.9311 8.6443 18.0745
2434 1 13.3594 7.0726 19.6462
2435 1 14.9311 8.6443 21.2179
2436 1 13.3594 7.0726 22.7896
2437 1 14.9311 8.6443 24.3613
2438 1 13.3594 7.0726 25.933
2439 1 14.9311 8.6443 27.5047
2440 1 13.3594 7.0726 29.0764
2441 1 14.9311 8.6443 30.6481
2442 1 13.3594 7.0726 32.2197
2443 1 14.9311 8.6443 33.7914
2444 1 13.3594 7.0726 35.3631
2445 1 14.9311 8.6443 36.9348
2446 1 13.3594 7.0726 38.5065
2447 1 14.9311 8.6443 40.0782
2448 1 13.3594 7.0726 41.6499
2449 1 14.9311 8.6443 43.2216
2450 1 13.3594 7.0726 44.7933
2451 1 14.9311 8.6443 46.365
2452 1 13.3594 7.0726 47.9367
2453 1 14.9311 8.6443 49.5084
2454 1 13.3594 10.216 0.7858
2455 1 14.9311 11.7877 2.3575
2456 1 13.3594 10.216 3.9292
2457 1 14.9311 11.7877 5.5009
2458 1 13.3594 10.216 7.0726
2459 1 14.9311 11.7877 8.6443
2460 1 13.3594 10.216 10.216
2461 1 14.9311 11.7877 11.7877
2462 1 13.3594 10.216 13.3594
2463 1 14.9311 11.7877 14.9311
2464 1 13.3594 10.216 16.5028
2465 1 14.9311 11.7877 18.0745
2466 1 13.3594 10.216 19.6462
2467 1 14.9311 11.7877 21.2179
2468 1 13.3594 10.216 22.7896
2469 1 14.9311 11.7877 24.3613
2470 1 13.3594 10.216 25.933
2471 1 14.9311 11.7877 27.5047
2472 1 13.3594 10.216 29.0764
2473 1 14.9311 11.7877 30.6481
2474 1 13.3594 10.216 32.2197
2475 1 14.9311 11.7877 33.7914
2476 1 13.3594 10.216 35.3631
2477 1 14.9311 11.7877 36.9348
2478 1 13.3594 10.216 38.5065
2479 1 14.9311 11.7877 40.0782
2480 1 13.3594 10.216 41.6499
2481 1 14.9311 11.7877 43.2216
2482 1 13.3594 10.216 44.7933
2483 1 14.9311 11.7877 46.365
2484 1 13.3594 10.216 47.9367
2485 1 14.9311 11.7877 49.5084
2486 1 13.3594 13.3594 0.7858
2487 1 14.9311 14.9311 2.3575
2488 1 13.3594 13.3594 3.9292
2489 1 14.9311 14.9311 5.5009
2490 1 13.3594 13.3594 7.0726
2491 1 14.9311 14.9311 8.6443
2492 1 13.3594 13.3594 10.216
2493 1 14.9311 14.9311 11.7877
2494 1 13.3594 13.3594 13.3594
2495 1 14.9311 14.9311 14.9311
2496 1 13.3594 13.3594 16.5028
2497 1 14.9311 14.9311 18.0745
2498 1 13.3594 13.3594 19.6462
2499 1 14.9311 14.9311 21.2179
2500 1 13.3594 13.3594 22.7896
2501 1 14.9311 14.9311 24.3613
2502 1 13.3594 13.3594 25.933
2503 1 14.9311 14.9311 27.5047
2504 1 13.3594 13.3594 29.0764
2505 1 14.9311 14.9311 30.6481
2506 1 13.3594 13.3594 32.2197
2507 1 14.9311 14.9311 33.7914
2508 1 13.3594 13.3594 35.3631
2509 1 14.9311 14.9311 36.9348
2510 1 13.3594 13.3594 38.5065
2511 1 14.9311 14.9311 40.0782
2512 1 13.3594 13.3594 41.6499
2513 1 14.9311 14.9311 43.2216
2514 1 13.3594 13.3594 44.7933
2515 1 14.9311 14.9311 46.365
2516 1 13.3594 13.3594 47.9367
2517 1 14.9311 14.9311 49.5084
2518 1 13.3594 16.5028 0.7858
2519 1 14.9311 18.0745 2.3575
2520 1 13.3594 16.5028 3.9292
2521 1 14.9311 18.0745 5.5009
2522 1 13.3594 16.5028 7.0726
2523 1 14.9311 18.0745 8.6443
2524 1 13.3594 16.5028 10.216
2525 1 14.9311 18.0745 11.7877
2526 1 13.3594 16.5028 13.3594
2527 1 14.9311 18.0745 14.9311
2528 1 13.3594 16.5028 16.5028
2529 1 14.9311 18.0745 18.0745
2530 1 13.3594 16.5028 19.6462
2531 1 14.9311 18.0745 21.2179
2532 1 13.3594 16.5028 22.7896
2533 1 14.9311 18.0745 24.3613
2534 1 13.3594 16.5028 25.933
2535 1 14.9311 18.0745 27.5047
2536 1 13.3594 16.5028 29.0764
2537 1 14.9311 18.0745 30.6481
2538 1 13.3594 16.5028 32.2197
2539 1 14.9311 18.0745 33.7914
2540 1 13.3594 16.5028 35.3631
2541 1 14.9311 18.0745 36.9348
2542 1 13.3594 16.5028 38.5065
2543 1 14.9311 18.0745 40.0782
2544 1 13.3594 16.5028 41.6499
2545 1 14.9311 18.0745 43.2216
2546 1 13.3594 16.5028 44.7933
2547 1 14.9311 18.0745 46.365
2548 1 13.3594 16.5028 47.9367
2549 1 14.9311 18.0745 49.5084
2550 1 13.3594 19.6462 0.7858
2551 1 14.9311 21.2179 2.3575
2552 1 13.3594 19.6462 3.9292
2553 1 14.9311 21.2179 5.5009
2554 1 13.3594 19.6462 7.0726
2555 1 14.9311 21.2179 8.6443
2556 1 13.3594 19.6462 10.216
2557 1 14.9311 21.2179 11.7877
2558 1 13.3594 19.6462 13.3594
2559 1 14.9311 21.2179 14.9311
2560 1 13.3594 19.6462 16.5028
2561 1 14.9311 21.2179 18.0745
2562 1 13.3594 19.6462 19.6462
2563 1 14.9311 21.2179 21.2179
2564 1 13.3594 19.6462 22.7896
2565 1 14.9311 21.2179 24.3613
2566 1 13.3594 19.6462 25.933
2567 1 14.9311 21.2179 27.5047
2568 1 13.3594 19.6462 29.0764
2569 1 14.9311 21.2179 30.6481
2570 1 13.3594 19.6462 32.2197
2571 1 14.9311 21.2179 33.7914
2572 1 13.3594 19.6462 35.3631
2573 1 14.9311 21.2179 36.9348
2574 1 13.3594 19.6462 38.5065
2575 1 14.9311 21.2179 40.0782
2576 1 13.3594 19.6462 41.6499
2577 1 14.9311 21.2179 43.2216
2578 1 13.3594 19.6462 44.7933
2579 1 14.9311 21.2179 46.365
2580 1 13.3594 19.6462 47.9367
2581 1 14.9311 21.2179 49.5084
2582 1 13.3594 22.7896 0.7858
2583 1 14.9311 24.3613 2.3575
2584 1 13.3594 22.7896 3.9292
2585 1 14.9311 24.3613 5.5009
2586 1 13.3594 22.7896 7.0726
2587 1 14.9311 24.3613 8.6443
2588 1 13.3594 22.7896 10.216
2589 1 14.9311 24.3613 11.7877
2590 1 13.3594 22.7896 13.3594
2591 1 14.9311 24.3613 14.9311
2592 1 13.3594 22.7896 16.5028
2593 1 14.9311 24.3613 18.0745
2594 1 13.3594 22.7896 19.6462
2595 1 14.9311 24.3613 21.2179
2596 1 13.3594 22.7896 22.7896
2597 1 14.9311 24.3613 24.3613
2598 1 13.3594 22.7896 25.933
2599 1 14.9311 24.3613 27.5047
2600 1 13.3594 22.7896 29.0764
2601 1 14.9311 24.3613 30.6481
2602 1 13.3594 22.7896 32.2197
2603 1 14.9311 24.3613 33.7914
2604 1 13.3594 22.7896 35.3631
2605 1 14.9311 24.3613 36.9348
2606 1 13.3594 22.7896 38.5065
2607 1 14.9311 24.3613 40.0782
2608 1 13.3594 22.7896 41.6499
2609 1 14.9311 24.3613 43.2216
2610 1 13.3594 22.7896 44.7933
2611 1 14.9311 24.3613 46.365
2612 1 13.3594 22.7896 47.9367
2613 1 14.9311 24.3613 49.5084
2614 1 13.3594 25.933 0.7858
2615 1 14.9311 27.5047 2.3575
2616 1 13.3594 25.933 3.9292
2617 1 14.9311 27.5047 5.5009
2618 1 13.3594 25.933 7.0726
2619 1 14.9311 27.5047 8.6443
2620 1 13.3594 25.933 10.216
2621 1 14.9311 27.5047 11.7877
2622 1 13.3594 25.933 13.3594
2623 1 14.9311 27.5047 14.9311
2624 1 13.3594 25.933 16.5028
2625 1 14.9311 27.5047 18.0745
2626 1 13.3594 25.933 19.6462
2627 1 14.9311 27.5047 21.2179
2628 1 13.3594 25.933 22.7896
2629 1 14.9311 27.5047 24.3613
2630 1 13.3594 25.933 25.933
2631 1 14.9311 27.5047 27.5047
2632 1 13.3594 25.933 29.0764
2633 1 14.9311 27.5047 30.6481
2634 1 13.3594 25.933 32.2197
2635 1 14.9311 27.5047 33.7914
2636 1 13.3594 25.933 35.3631
2637 1 14.9311 27.5047 36.9348
2638 1 13.3594 25.933 38.5065
2639 1 14.9311 27.5047 40.0782
2640 1 13.3594 25.933 41.6499
2641 1 14.9311 27.5047 43.2216
2642 1 13.3594 25.933 44.7933
2643 1 14.9311 27.5047 46.365
2644 1 13.3594 25.933 47.9367
2645 1 14.9311 27.5047 49.5084
2646 1 13.3594 29.0764 0.7858
2647 1 14.9311 30.6481 2.3575
2648 1 13.3594 29.0764 3.9292
2649 1 14.9311 30.6481 5.5009
2650 1 13.3594 29.0764 7.0726
2651 1 14.9311 30.6481 8.6443
2652 1 13.3594 29.0764 10.216
2653 1 14.9311 30.6481 11.7877
2654 1 13.3594 29.0764 13.3594
2655 1 14.9311 30.6481 14.9311
2656 1 13.3594 29.0764 16.5028
2657 1 14.9311 30.6481 18.0745
2658 1 13.3594 29.0764 19.6462
2659 1 14.9311 30.6481 21.2179
2660 1 13.3594 29.0764 22.7896
2661 1 14.9311 30.6481 24.3613
2662 1 13.3594 29.0764 25.933
2663 1 14.9311 30.6481 27.5047
2664 1 13.3594 29.0764 29.0764
2665 1 14.9311 30.6481 30.6481
2666 1 13.3594 29.0764 32.2197
2667 1 14.9311 30.6481 33.7914
2668 1 13.3594 29.0764 35.3631
2669 1 14.9311 30.6481 36.9348
2670 1 13.3594 29.0764 38.5065
2671 1 14.9311 30.6481 40.0782
2672 1 13.3594 29.0764 41.6499
2673 1 14.9311 30.6481 43.2216
2674 1 13.3594 29.0764 44.7933
2675 1 14.9311 30.6481 46.365
2676 1 13.3594 29.0764 47.9367
2677 1 14.9311 30.6481 49.5084
2678 1 13.3594 32.2197 0.7858
2679 1 14.9311 33.7914 2.3575
2680 1 13.3594 32.2197 3.9292
2681 1 14.9311 33.7914 5.5009
2682 1 13.3594 32.2197 7.0726
2683 1 14.9311 33.7914 8.6443
2684 1 13.3594 32.2197 10.216
2685 1 14.9311 33.7914 11.7877
2686 1 13.3594 32.2197 13.3594
2687 1 14.9311 33.7914 14.9311
2688 1 13.3594 32.2197 16.5028
2689 1 14.9311 33.7914 18.0745
2690 1 13.3594 32.2197 19.6462
2691 1 14.9311 33.7914 21.2179
2692 1 13.3594 32.2197 22.7896
2693 1 14.9311 33.7914 24.3613
2694 1 13.3594 32.2197 25.933
2695 1 14.9311 33.7914 27.5047
2696 1 13.3594 32.2197 29.0764
2697 1 14.9311 33.7914 30.6481
2698 1 13.3594 32.2197 32.2197
2699 1 14.9311 33.7914 33.7914
2700 1 13.3594 32.2197 35.3631
2701 1 14.9311 33.7914 36.9348
2702 1 13.3594 32.2197 38.5065
2703 1 14.9311 33.7914 40.0782
2704 1 13.3594 32.2197 41.6499
2705 1 14.9311 33.7914 43.2216
2706 1 13.3594 32.2197 44.7933
2707 1 14.9311 33.7914 46.365
2708 1 13.3594 32.2197 47.9367
2709 1 14.9311 33.7914 49.5084
2710 1 13.3594 35.3631 0.7858
2711 1 14.9311 36.9348 2.3575
2712 1 13.3594 35.3631 3.9292
2713 1 14.9311 36.9348 5.5009
2714 1 13.3594 35.3631 7.0726
2715 1 14.9311 36.9348 8.6443
2716 1 13.3594 35.3631 10.216
2717 1 14.9311 36.9348 11.7877
2718 1 13.3594 35.3631 13.3594
2719 1 14.9311 36.9348 14.9311
2720 1 13.3594 35.3631 16.5028
2721 1 14.9311 36.9348 18.0745
2722 1 13.3594 35.3631 19.6462
2723 1 14.9311 36.9348 21.2179
2724 1 13.3594 35.3631 22.7896
2725 1 14.9311 36.9348 24.3613
2726 1 13.3594 35.3631 25.933
2727 1 14.9311 36.9348 27.5047
2728 1 13.3594 35.3631 29.0764
2729 1 14.9311 36.9348 30.6481
2730 1 13.3594 35.3631 32.2197
2731 1 14.9311 36.9348 33.7914
2732 1 13.3594 35.3631 35.3631
2733 1 14.9311 36.9348 36.9348
2734 1 13.3594 35.3631 38.5065
2735 1 14.9311 36.9348 40.0782
2736 1 13.3594 35.3631 41.6499
2737 1 14.9311 36.9348 43.2216
2738 1 13.3594 35.3631 44.7933
2739 1 14.9311 36.9348 46.365
2740 1 13.3594 35.3631 47.9367
2741 1 14.9311 36.9348 49.5084
2742 1 13.3594 38.5065 0.7858
2743 1 14.9311 40.0782 2.3575
2744 1 13.3594 38.5065 3.9292
2745 1 14.9311 40.0782 5.5009
2746 1 13.3594 38.5065 7.0726
2747 1 14.9311 40.0782 8.6443
2748 1 13.3594 38.5065 10.216
2749 1 14.9311 40.0782 11.7877
2750 1 13.3594 38.5065 13.3594
2751 1 14.9311 40.0782 14.9311
2752 1 13.3594 38.5065 16.5028
2753 1 14.9311 40.0782 18.0745
2754 1 13.3594 38.5065 19.6462
2755 1 14.9311 40.0782 21.2179
2756 1 13.3594 38.5065 22.7896
2757 1 14.9311 40.0782 24.3613
2758 1 13.3594 38.5065 25.933
2759 1 14.9311 40.0782 27.5047
2760 1 13.3594 38.5065 29.0764
2761 1 14.9311 40.0782 30.6481
2762 1 13.3594 38.5065 32.2197
2763 1 14.9311 40.0782 33.7914
2764 1 13.3594 38.5065 35.3631
2765 1 14.9311 40.0782 36.9348
2766 1 13.3594 38.5065 38.5065
2767 1 14.9311 40.0782 40.0782
2768 1 13.3594 38.5065 41.6499
2769 1 14.9311 40.0782 43.2216
2770 1 13.3594 38.5065 44.7933
2771 1 14.9311 40.0782 46.365
2772 1 13.3594 38.5065 47.9367
2773 1 14.9311 40.0782 49.5084
2774 1 13.3594 41.6499 0.7858
2775 1 14.9311 43.2216 2.3575
2776 1 13.3594 41.6499 3.9292
2777 1 14.9311 43.2216 5.5009
2778 1 13.3594 41.6499 7.0726
2779 1 14.9311 43.2216 8.6443
2780 1 13.3594 41.6499 10.216
2781 1 14.9311 43.2216 11.7877
2782 1 13.3594 41.6499 13.3594
2783 1 14.9311 43.2216 14.9311
2784 1 13.3594 41.6499 16.5028
2785 1 14.9311 43.2216 18.0745
2786 1 13.3594 41.6499 19.6462
2787 1 14.9311 43.2216 21.2179
2788 1 13.3594 41.6499 22.7896
2789 1 14.9311 43.2216 24.3613
2790 1 13.3594 41.6499 25.933
2791 1 14.9311 43.2216 27.5047
2792 1 13.3594 41.6499 29.0764
2793 1 14.9311 43.2216 30.6481
2794 1 13.3594 41.6499 32.2197
2795 1 14.9311 43.2216 33.7914
2796 1 13.3594 41.6499 35.3631
2797 1 14.9311 43.2216 36.9348
2798 1 13.3594 41.6499 38.5065
2799 1 14.9311 43.2216 40.0782
2800 1 13.3594 41.6499 41.6499
2801 1 14.9311 43.2216 43.2216
2802 1 13.3594 41.6499 44.7933
2803 1 14.9311 43.2216 46.365
2804 1 13.3594 41.6499 47.9367
2805 1 14.9311 43.2216 49.5084
2806 1 13.3594 44.7933 0.7858
2807 1 14.9311 46.365 2.3575
2808 1 13.3594 44.7933 3.9292
2809 1 14.9311 46.365 5.5009
2810 1 13.3594 44.7933 7.0726
2811 1 14.9311 46.365 8.6443
2812 1 13.3594 44.7933 10.216
2813 1 14.9311 46.365 11.7877
2814 1 13.3594 44.7933 13.3594
2815 1 14.9311 46.365 14.9311
2816 1 13.3594 44.7933 16.5028
2817 1 14.9311 46.365 18.0745
2818 1 13.3594 44.7933 19.6462
2819 1 14.9311 46.365 21.2179
2820 1 13.3594 44.7933 22.7896
2821 1 14.9311 46.365 24.3613
2822 1 13.3594 44.7933 25.933
2823 1 14.9311 46.365 27.5047
2824 1 13.3594 44.7933 29.0764
2825 1 14.9311 46.365 30.6481
2826 1 13.3594 44.7933 32.2197
2827 1 14.9311 46.365 33.7914
2828 1 13.3594 44.7933 35.3631
2829 1 14.9311 46.365 36.9348
2830 1 13.3594 44.7933 38.5065
2831 1 14.9311 46.365 40.0782
2832 1 13.3594 44.7933 41.6499
2833 1 14.9311 46.365 43.2216
2834 1 13.3594 44.7933 44.7933
2835 1 14.9311 46.365 46.365
2836 1 13.3594 44.7933 47.9367
2837 1 14.9311 46.365 49.5084
2838 1 13.3594 47.9367 0.7858
2839 1 14.9311 49.5084 2.3575
2840 1 13.3594 47.9367 3.9292
2841 1 14.9311 49.5084 5.5009
2842 1 13.3594 47.9367 7.0726
2843 1 14.9311 49.5084 8.6443
2844 1 13.3594 47.9367 10.216
2845 1 14.9311 49.5084 11.7877
2846 1 13.3594 47.9367 13.3594
2847 1 14.9311 49.5084 14.9311
2848 1 13.3594 47.9367 16.5028
2849 1 14.9311 49.5084 18.0745
2850 1 13.3594 47.9367 19.6462
2851 1 14.9311 49.5084 21.2179
2852 1 13.3594 47.9367 22.7896
2853 1 14.9311 49.5084 24.3613
2854 1 13.3594 47.9367 25.933
2855 1 14.9311 49.5084 27.5047
2856 1 13.3594 47.9367 29.0764
2857 1 14.9311 49.5084 30.6481
2858 1 13.3594 47.9367 32.2197
2859 1 14.9311 49.5084 33.7914
2860 1 13.3594 47.9367 35.3631
2861 1 14.9311 49.5084 36.9348
2862 1 13.3594 47.9367 38.5065
2863 1 14.9311 49.5084 40.0782
2864 1 13.3594 47.9367 41.6499
2865 1 14.9311 49.5084 43.2216
2866 1 13.3594 47.9367 44.7933
2867 1 14.9311 49.5084 46.365
2868 1 13.3594 47.9367 47.9367
2869 1 14.9311 49.5084 49.5084
2870 1 32.2197 0.7858 0.7858
2871 1 33.7914 2.3575 2.3575
2872 1 32.2197 0.7858 3.9292
2873 1 33.7914 2.3575 5.5009
2874 1 32.2197 0.7858 7.0726
2875 1 33.7914 2.3575 8.6443
2876 1 32.2197 0.7858 10.216
2877 1 33.7914 2.3575 11.7877
2878 1 32.2197 0.7858 13.3594
2879 1 33.7914 2.3575 14.9311
2880 1 32.2197 0.7858 16.5028
2881 1 33.7914 2.3575 18.0745
2882 1 32.2197 0.7858 19.6462
2883 1 33.7914 2.3575 21.2179
2884 1 32.2197 0.7858 22.7896
2885 1 33.7914 2.3575 24.3613
2886 1 32.2197 0.7858 25.933
2887 1 33.7914 2.3575 27.5047
2888 1 32.2197 0.7858 29.0764
2889 1 33.7914 2.3575 30.6481
2890 1 32.2197 0.7858 32.2197
2891 1 33.7914 2.3575 33.7914
2892 1 32.2197 0.7858 35.3631
2893 1 33.7914 2.3575 36.9348
2894 1 32.2197 0.7858 38.5065
2895 1 33.7914 2.3575 40.0782
2896 1 32.2197 0.7858 41.6499
2897 1 33.7914 2.3575 43.2216
2898 1 32.2197 0.7858 44.7933
2899 1 33.7914 2.3575 46.365
2900 1 32.2197 0.7858 47.9367
2901 1 33.7914 2.3575 49.5084
2902 1 32.2197 3.9292 0.7858
2903 1 33.7914 5.5009 2.3575
2904 1 32.2197 3.9292 3.9292
2905 1 33.7914 5.5009 5.5009
2906 1 32.2197 3.9292 7.0726
2907 1 33.7914 5.5009 8.6443
2908 1 32.2197 3.9292 10.216
2909 1 33.7914 5.5009 11.7877
2910 1 32.2197 3.9292 13.3594
2911 1 33.7914 5.5009 14.9311
2912 1 32.2197 3.9292 16.5028
2913 1 33.7914 5.5009 18.0745
2914 1 32.2197 3.9292 19.6462
2915 1 33.7914 5.5009 21.2179
2916 1 32.2197 3.9292 22.7896
2917 1 33.7914 5.5009 24.3613
2918 1 32.2197 3.9292 25.933
2919 1 33.7914 5.5009 27.5047
2920 1 32.2197 3.9292 29.0764
2921 1 33.7914 5.5009 30.6481
2922 1 32.2197 3.9292 32.2197
2923 1 33.7914 5.5009 33.7914
2924 1 32.2197 3.9292 35.3631
2925 1 33.7914 5.5009 36.9348
2926 1 32.2197 3.9292 38.5065
2927 1 33.7914 5.5009 40.0782
2928 1 32.2197 3.9292 41.6499
2929 1 33.7914 5.5009 43.2216
2930 1 32.2197 3.9292 44.7933
2931 1 33.7914 5.5009 46.365
2932 1 32.2197 3.9292 47.9367
2933 1 33.7914 5.5009 49.5084
2934 1 32.2197 7.0726 0.7858
2935 1 33.7914 8.6443 2.3575
2936 1 32.2197 7.0726 3.9292
2937 1 33.7914 8.6443 5.5009
2938 1 32.2197 7.0726 7.0726
2939 1 33.7914 8.6443 8.6443
2940 1 32.2197 7.0726 10.216
2941 1 33.7914 8.6443 11.7877
2942 1 32.2197 7.0726 13.3594
2943 1 33.7914 8.6443 14.9311
2944 1 32.2197 7.0726 16.5028
2945 1 33.7914 8.6443 18.0745
2946 1 32.2197 7.0726 19.6462
2947 1 33.7914 8.6443 21.2179
2948 1 32.2197 7.0726 22.7896
2949 1 33.7914 8.6443 24.3613
2950 1 32.2197 7.0726 25.933
2951 1 33.7914 8.6443 27.5047
2952 1 32.2197 7.0726 29.0764
2953 1 33.7914 8.6443 30.6481
2954 1 32.2197 7.0726 32.2197
2955 1 33.7914 8.6443 33.7914
2956 1 32.2197 7.0726 35.3631
2957 1 33.7914 8.6443 36.9348
2958 1 32.2197 7.0726 38.5065
2959 1 33.7914 8.6443 40.0782
2960 1 32.2197 7.0726 41.6499
2961 1 33.7914 8.6443 43.2216
2962 1 32.2197 7.0726 44.7933
2963 1 33.7914 8.6443 46.365
2964 1 32.2197 7.0726 47.9367
2965 1 33.7914 8.6443 49.5084
2966 1 32.2197 10.216 0.7858
2967 1 33.7914 11.7877 2.3575
2968 1 32.2197 10.216 3.9292
2969 1 33.7914 11.7877 5.5009
2970 1 32.2197 10.216 7.0726
2971 1 33.7914 11.7877 8.6443
2972 1 32.2197 10.216 10.216
2973 1 33.7914 11.7877 11.7877
2974 1 32.2197 10.216 13.3594
2975 1 33.7914 11.7877 14.9311
2976 1 32.2197 10.216 16.5028
2977 1 33.7914 11.7877 18.0745
2978 1 32.2197 10.216 19.6462
2979 1 33.7914 11.7877 21.2179
2980 1 32.2197 10.216 22.7896
2981 1 33.7914 11.7877 24.3613
2982 1 32.2197 10.216 25.933
2983 1 33.7914 11.7877 27.5047
2984 1 32.2197 10.216 29.0764
2985 1 33.7914 11.7877 30.6481
2986 1 32.2197 10.216 32.2197
2987 1 33.7914 11.7877 33.7914
2988 1 32.2197 10.216 35.3631
2989 1 33.7914 11.7877 36.9348
2990 1 32.2197 10.216 38.5065
2991 1 33.7914 11.7877 40.0782
2992 1 32.2197 10.216 41.6499
2993 1 33.7914 11.7877 43.2216
2994 1 32.2197 10.216 44.7933
2995 1 33.7914 11.7877 46.365
2996 1 32.2197 10.216 47.9367
2997 1 33.7914 11.7877 49.5084
2998 1 32.2197 13.3594 0.7858
2999 1 33.7914 14.9311 2.3575
3000 1 32.2197 13.3594 3.9292
3001 1 33.7914 14.9311 5.5009
3002 1 32.2197 13.3594 7.0726
3003 1 33.7914 14.9311 8.6443
3004 1 32.2197 13.3594 10.216
3005 1 33.7914 14.9311 11.7877
3006 1 32.2197 13.3594 13.3594
3007 1 33.7914 14.9311 14.9311
3008 1 32.2197 13.3594 16.5028
3009 1 33.7914 14.9311 18.0745
3010 1 32.2197 13.3594 19.6462
3011 1 33.7914 14.9311 21.2179
3012 1 32.2197 13.3594 22.7896
3013 1 33.7914 14.9311 24.3613
3014 1 32.2197 13.3594 25.933
3015 1 33.7914 14.9311 27.5047
3016 1 32.2197 13.3594 29.0764
3017 1 33.7914 14.9311 30.6481
3018 1 32.2197 13.3594 32.2197
3019 1 33.7914 14.9311 33.7914
3020 1 32.2197 13.3594 35.3631
3021 1 33.7914 14.9311 36.9348
3022 1 32.2197 13.3594 38.5065
3023 1 33.7914 14.9311 40.0782
3024 1 32.2197 13.3594 41.6499
3025 1 33.7914 14.9311 43.2216
3026 1 32.2197 13.3594 44.7933
3027 1 33.7914 14.9311 46.365
3028 1 32.2197 13.3594 47.9367
3029 1 33.7914 14.9311 49.5084
3030 1 32.2197 16.5028 0.7858
3031 1 33.7914 18.0745 2.3575
3032 1 32.2197 16.5028 3.9292
3033 1 33.7914 18.0745 5.5009
3034 1 32.2197 16.5028 7.0726
3035 1 33.7914 18.0745 8.6443
3036 1 32.2197 16.5028 10.216
3037 1 33.7914 18.0745 11.7877
3038 1 32.2197 16.5028 13.3594
3039 1 33.7914 18.0745 14.9311
3040 1 32.2197 16.5028 16.5028
3041 1 33.7914 18.0745 18.0745
3042 1 32.2197 16.5028 19.6462
3043 1 33.7914 18.0745 21.2179
3044 1 32.2197 16.5028 22.7896
3045 1 33.7914 18.0745 24.3613
3046 1 32.2197 16.5028 25.933
3047 1 33.7914 18.0745 27.5047
3048 1 32.2197 16.5028 29.0764
3049 1 33.7914 18.0745 30.6481
3050 1 32.2197 16.5028 32.2197
3051 1 33.7914 18.0745 33.7914
3052 1 32.2197 16.5028 35.3631
3053 1 33.7914 18.0745 36.9348
3054 1 32.2197 16.5028 38.5065
3055 1 33.7914 18.0745 40.0782
3056 1 32.2197 16.5028 41.6499
3057 1 33.7914 18.0745 43.2216
3058 1 32.2197 16.5028 44.7933
3059 1 33.7914 18.0745 46.365
3060 1 32.2197 16.5028 47.9367
3061 1 33.7914 18.0745 49.5084
3062 1 32.2197 19.6462 0.7858
3063 1 33.7914 21.2179 2.3575
3064 1 32.2197 19.6462 3.9292
3065 1 33.7914 21.2179 5.5009
3066 1 32.2197 19.6462 7.0726
3067 1 33.7914 21.2179 8.6443
3068 1 32.2197 19.6462 10.216
3069 1 33.7914 21.2179 11.7877
3070 1 32.2197 19.6462 13.3594
3071 1 33.7914 21.2179 14.9311
3072 1 32.2197 19.6462 16.5028
3073 1 33.7914 21.2179 18.0745
3074 1 32.2197 19.6462 19.6462
3075 1 33.7914 21.2179 21.2179
3076 1 32.2197 19.6462 22.7896
3077 1 33.7914 21.2179 24.3613
3078 1 32.2197 19.6462 25.933
3079 1 33.7914 21.2179 27.5047
3080 1 32.2197 19.6462 29.0764
3081 1 33.7914 21.2179 30.6481
3082 1 32.2197 19.6462 32.2197
3083 1 33.7914 21.2179 33.7914
3084 1 32.2197 19.6462 35.3631
3085 1 33.7914 21.2179 36.9348
3086 1 32.2197 19.6462 38.5065
3087 1 33.7914 21.2179 40.0782
3088 1 32.2197 19.6462 41.6499
3089 1 33.7914 21.2179 43.2216
3090 1 32.2197 19.6462 44.7933
3091 1 33.7914 21.2179 46.365
3092 1 32.2197 19.6462 47.9367
3093 1 33.7914 21.2179 49.5084
3094 1 32.2197 22.7896 0.7858
3095 1 33.7914 24.3613 2.3575
3096 1 32.2197 22.7896 3.9292
3097 1 33.7914 24.3613 5.5009
3098 1 32.2197 22.7896 7.0726
3099 1 33.7914 24.3613 8.6443
3100 1 32.2197 22.7896 10.216
3101 1 33.7914 24.3613 11.7877
3102 1 32.2197 22.7896 13.3594
3103 1 33.7914 24.3613 14.9311
3104 1 32.2197 22.7896 16.5028
3105 1 33.7914 24.3613 18.0745
3106 1 32.2197 22.7896 19.6462
3107 1 33.7914 24.3613 21.2179
3108 1 32.2197 22.7896 22.7896
3109 1 33.7914 24.3613 24.3613
3110 1 32.2197 22.7896 25.933
3111 1 33.7914 24.3613 27.5047
3112 1 32.2197 22.7896 29.0764
3113 1 33.7914 24.3613 30.6481
3114 1 32.2197 22.7896 32.2197
3115 1 33.7914 24.3613 33.7914
3116 1 32.2197 22.7896 35.3631
3117 1 33.7914 24.3613 36.9348
3118 1 32.2197 22.7896 38.5065
3119 1 33.7914 24.3613 40.0782
3120 1 32.2197 22.7896 41.6499
3121 1 33.7914 24.3613 43.2216
3122 1 32.2197 22.7896 44.7933
3123 1 33.7914 24.3613 46.365
3124 1 32.2197 22.7896 47.9367
3125 1 33.7914 24.3613 49.5084
3126 1 32.2197 25.933 0.7858
3127 1 33.7914 27.5047 2.3575
3128 1 32.2197 25.933 3.9292
3129 1 33.7914 27.5047 5.5009
3130 1 32.2197 25.933 7.0726
3131 1 33.7914 27.5047 8.6443
3132 1 32.2197 25.933 10.216
3133 1 33.7914 27.5047 11.7877
3134 1 32.2197 25.933 13.3594
3135 1 33.7914 27.5047 14.9311
3136 1 32.2197 25.933 16.5028
3137 1 33.7914 27.5047 18.0745
3138 1 32.2197 25.933 19.6462
3139 1 33.7914 27.5047 21.2179
3140 1 32.2197 25.933 22.7896
3141 1 33.7914 27.5047 24.3613
3142 1 32.2197 25.933 25.933
3143 1 33.7914 27.5047 27.5047
3144 1 32.2197 25.933 29.0764
3145 1 33.7914 27.5047 30.6481
3146 1 32.2197 25.933 32.2197
3147 1 33.7914 27.5047 33.7914
3148 1 32.2197 25.933 35.3631
3149 1 33.7914 27.5047 36.9348
3150 1 32.2197 25.933 38.5065
3151 1 33.7914 27.5047 40.0782
3152 1 32.2197 25.933 41.6499
3153 1 33.7914 27.5047 43.2216
3154 1 32.2197 25.933 44.7933
3155 1 33.7914 27.5047 46.365
3156 1 32.2197 25.933 47.9367
3157 1 33.7914 27.5047 49.5084
3158 1 32.2197 29.0764 0.7858
3159 1 33.7914 30.6481 2.3575
3160 1 32.2197 29.0764 3.9292
3161 1 33.7914 30.6481 5.5009
3162 1 32.2197 29.0764 7.0726
3163 1 33.7914 30.6481 8.6443
3164 1 32.2197 29.0764 10.216
3165 1 33.7914 30.6481 11.7877
3166 1 32.2197 29.0764 13.3594
3167 1 33.7914 30.6481 14.9311
3168 1 32.2197 29.0764 16.5028
3169 1 33.7914 30.6481 18.0745
3170 1 32.2197 29.0764 19.6462
3171 1 33.7914 30.6481 21.2179
3172 1 32.2197 29.0764 22.7896
3173 1 33.7914 30.6481 24.3613
3174 1 32.2197 29.0764 25.933
3175 1 33.7914 30.6481 27.5047
3176 1 32.2197 29.0764 29.0764
3177 1 33.7914 30.6481 30.6481
3178 1 32.2197 29.0764 32.2197
3179 1 33.7914 30.6481 33.7914
3180 1 32.2197 29.0764 35.3631
3181 1 33.7914 30.6481 36.9348
3182 1 32.2197 29.0764 38.5065
3183 1 33.7914 30.6481 40.0782
3184 1 32.2197 29.0764 41.6499
3185 1 33.7914 30.6481 43.2216
3186 1 32.2197 29.0764 44.7933
3187 1 33.7914 30.6481 46.365
3188 1 32.2197 29.0764 47.9367
3189 1 33.7914 30.6481 49.5084
3190 1 32.2197 32.2197 0.7858
3191 1 33.7914 33.7914 2.3575
3192 1 32.2197 32.2197 3.9292
3193 1 33.7914 33.7914 5.5009
3194 1 32.2197 32.2197 7.0726
3195 1 33.7914 33.7914 8.6443
3196 1 32.2197 32.2197 10.216
3197 1 33.7914 33.7914 11.7877
3198 1 32.2197 32.2197 13.3594
3199 1 33.7914 33.7914 14.9311
3200 1 32.2197 32.2197 16.5028
3201 1 33.7914 33.7914 18.0745
3202 1 32.2197 32.2197 19.6462
3203 1 33.7914 33.7914 21.2179
3204 1 32.2197 32.2197 22.7896
3205 1 33.7914 33.7914 24.3613
3206 1 32.2197 32.2197 25.933
3207 1 33.7914 33.7914 27.5047
3208 1 32.2197 32.2197 29.0764
3209 1 33.7914 33.7914 30.6481
3210 1 32.2197 32.2197 32.2197
3211 1 33.7914 33.7914 33.7914
3212 1 32.2197 32.2197 35.3631
3213 1 33.7914 33.7914 36.9348
3214 1 32.2197 32.2197 38.5065
3215 1 33.7914 33.7914 40.0782
3216 1 32.2197 32.2197 41.6499
3217 1 33.7914 33.7914 43.2216
3218 1 32.2197 32.2197 44.7933
3219 1 33.7914 33.7914 46.365
3220 1 32.2197 32.2197 47.9367
3221 1 33.7914 33.7914 49.5084
3222 1 32.2197 35.3631 0.7858
3223 1 33.7914 36.9348 2.3575
3224 1 32.2197 35.3631 3.9292
3225 1 33.7914 36.9348 5.5009
3226 1 32.2197 35.3631 7.0726
3227 1 33.7914 36.9348 8.6443
3228 1 32.2197 35.3631 10.216
3229 1 33.7914 36.9348 11.7877
3230 1 32.2197 35.3631 13.3594
3231 1 33.7914 36.9348 14.9311
3232 1 32.2197 35.3631 16.5028
3233 1 33.7914 36.9348 18.0745
3234 1 32.2197 35.3631 19.6462
3235 1 33.7914 36.9348 21.2179
3236 1 32.2197 35.3631 22.7896
3237 1 33.7914 36.9348 24.3613
3238 1 32.2197 35.3631 25.933
3239 1 33.7914 36.9348 27.5047
3240 1 32.2197 35.3631 29.0764
3241 1 33.7914 36.9348 30.6481
3242 1 32.2197 35.3631 32.2197
3243 1 33.7914 36.9348 33.7914
3244 1 32.2197 35.3631 35.3631
3245 1 33.7914 36.9348 36.9348
3246 1 32.2197 35.3631 38.5065
3247 1 33.7914 36.9348 40.0782
3248 1 32.2197 35.3631 41.6499
3249 1 33.7914 36.9348 43.2216
3250 1 32.2197 35.3631 44.7933
3251 1 33.7914 36.9348 46.365
3252 1 32.2197 35.3631 47.9367
3253 1 33.7914 36.9348 49.5084
3254 1 32.2197 38.5065 0.7858
3255 1 33.7914 40.0782 2.3575
3256 1 32.2197 38.5065 3.9292
3257 1 33.7914 40.0782 5.5009
3258 1 32.2197 38.5065 7.0726
3259 1 33.7914 40.0782 8.6443
3260 1 32.2197 38.5065 10.216
3261 1 33.7914 40.0782 11.7877
3262 1 32.2197 38.5065 13.3594
3263 1 33.7914 40.0782 14.9311
3264 1 32.2197 38.5065 16.5028
3265 1 33.7914 40.0782 18.0745
3266 1 32.2197 38.5065 19.6462
3267 1 33.7914 40.0782 21.2179
3268 1 32.2197 38.5065 22.7896
3269 1 33.7914 40.0782 24.3613
3270 1 32.2197 38.5065 25.933
3271 1 33.7914 40.0782 27.5047
3272 1 32.2197 38.5065 29.0764
3273 1 33.7914 40.0782 30.6481
3274 1 32.2197 38.5065 32.2197
3275 1 33.7914 40.0782 33.7914
3276 1 32.2197 38.5065 35.3631
3277 1 33.7914 40.0782 36.9348
3278 1 32.2197 38.5065 38.5065
3279 1 33.7914 40.0782 40.0782
3280 1 32.2197 38.5065 41.6499
3281 1 33.7914 40.0782 43.2216
3282 1 32.2197 38.5065 44.7933
3283 1 33.7914 40.0782 46.365
3284 1 32.2197 38.5065 47.9367
3285 1 33.7914 40.0782 49.5084
3286 1 32.2197 41.6499 0.7858
3287 1 33.7914 43.2216 2.3575
3288 1 32.2197 41.6499 3.9292
3289 1 33.7914 43.2216 5.5009
3290 1 32.2197 41.6499 7.0726
3291 1 33.7914 43.2216 8.6443
3292 1 32.2197 41.6499 10.216
3293 1 33.7914 43.2216 11.7877
3294 1 32.2197 41.6499 13.3594
3295 1 33.7914 43.2216 14.9311
3296 1 32.2197 41.6499 16.5028
3297 1 33.7914 43.2216 18.0745
3298 1 32.2197 41.6499 19.6462
3299 1 33.7914 43.2216 21.2179
3300 1 32.2197 41.6499 22.7896
3301 1 33.7914 43.2216 24.3613
3302 1 32.2197 41.6499 25.933
3303 1 33.7914 43.2216 27.5047
3304 1 32.2197 41.6499 29.0764
3305 1 33.7914 43.2216 30.6481
3306 1 32.2197 41.6499 32.2197
3307 1 33.7914 43.2216 33.7914
3308 1 32.2197 41.6499 35.3631
3309 1 33.7914 43.2216 36.9348
3310 1 32.2197 41.6499 38.5065
3311 1 33.7914 43.2216 40.0782
3312 1 32.2197 41.6499 41.6499
3313 1 33.7914 43.2216 43.2216
3314 1 32.2197 41.6499 44.7933
3315 1 33.7914 43.2216 46.365
3316 1 32.2197 41.6499 47.9367
3317 1 33.7914 43.2216 49.5084
3318 1 32.2197 44.7933 0.7858
3319 1 33.7914 46.365 2.3575
3320 1 32.2197 44.7933 3.9292
3321 1 33.7914 46.365 5.5009
3322 1 32.2197 44.7933 7.0726
3323 1 33.7914 46.365 8.6443
3324 1 32.2197 44.7933 10.216
3325 1 33.7914 46.365 11.7877
3326 1 32.2197 44.7933 13.3594
3327 1 33.7914 46.365 14.9311
3328 1 32.2197 44.7933 16.5028
3329 1 33.7914 46.365 18.0745
3330 1 32.2197 44.7933 19.6462
3331 1 33.7914 46.365 21.2179
3332 1 32.2197 44.7933 22.7896
3333 1 33.7914 46.365 24.3613
3334 1 32.2197 44.7933 25.933
3335 1 33.7914 46.365 27.5047
3336 1 32.2197 44.7933 29.0764
3337 1 33.7914 46.365 30.6481
3338 1 32.2197 44.7933 32.2197
3339 1 33.7914 46.365 33.7914
3340 1 32.2197 44.7933 35.3631
3341 1 33.7914 46.365 36.9348
3342 1 32.2197 44.7933 38.5065
3343 1 33.7914 46.365 40.0782
3344 1 32.2197 44.7933 41.6499
3345 1 33.7914 46.365 43.2216
3346 1 32.2197 44.7933 44.7933
3347 1 33.7914 46.365 46.365
3348 1 32.2197 44.7933 47.9367
3349 1 33.7914 46.365 49.5084
3350 1 32.2197 47.9367 0.7858
3351 1 33.7914 49.5084 2.3575
3352 1 32.2197 47.9367 3.9292
3353 1 33.7914 49.5084 5.5009
3354 1 32.2197 47.9367 7.0726
3355 1 33.7914 49.5084 8.6443
3356 1 32.2197 47.9367 10.216
3357 1 33.7914 49.5084 11.7877
3358 1 32.2197 47.9367 13.3594
3359 1 33.7914 49.5084 14.9311
3360 1 32.2197 47.9367 16.5028
3361 1 33.7914 49.5084 18.0745
3362 1 32.2197 47.9367 19.6462
3363 1 33.7914 49.5084 21.2179
3364 1 32.2197 47.9367 22.7896
3365 1 33.7914 49.5084 24.3613
3366 1 32.2197 47.9367 25.933
3367 1 33.7914 49.5084 27.5047
3368 1 32.2197 47.9367 29.0764
3369 1 33.7914 49.5084 30.6481
3370 1 32.2197 47.9367 32.2197
3371 1 33.7914 49.5084 33.7914
3372 1 32.2197 47.9367 35.3631
3373 1 33.7914 49.5084 36.9348
3374 1 32.2197 47.9367 38.5065
3375 1 33.7914 49.5084 40.0782
3376 1 32.2197 47.9367 41.6499
3377 1 33.7914 49.5084 43.2216
3378 1 32.2197 47.9367 44.7933
3379 1 33.7914 49.5084 46.365
3380 1 32.2197 47.9367 47.9367
3381 1 33.7914 49.5084 49.5084
3382 1 35.3631 0.7858 0.7858
3383 1 36.9348 2.3575 2.3575
3384 1 35.3631 0.7858 3.9292
3385 1 36.9348 2.3575 5.5009
3386 1 35.3631 0.7858 7.0726
3387 1 36.9348 2.3575 8.6443
3388 1 35.3631 0.7858 10.216
3389 1 36.9348 2.3575 11.7877
3390 1 35.3631 0.7858 13.3594
3391 1 36.9348 2.3575 14.9311
3392 1 35.3631 0.7858 16.5028
3393 1 36.9348 2.3575 18.0745
3394 1 35.3631 0.7858 19.6462
3395 1 36.9348 2.3575 21.2179
3396 1 35.3631 0.7858 22.7896
3397 1 36.9348 2.3575 24.3613
3398 1 35.3631 0.7858 25.933
3399 1 36.9348 2.3575 27.5047
3400 1 35.3631 0.7858 29.0764
3401 1 36.9348 2.3575 30.6481
3402 1 35.3631 0.7858 32.2197
3403 1 36.9348 2.3575 33.7914
3404 1 35.3631 0.7858 35.3631
3405 1 36.9348 2.3575 36.9348
3406 1 35.3631 0.7858 38.5065
3407 1 36.9348 2.3575 40.0782
3408 1 35.3631 0.7858 41.6499
3409 1 36.9348 2.3575 43.2216
3410 1 35.3631 0.7858 44.7933
3411 1 36.9348 2.3575 46.365
3412 1 35.3631 0.7858 47.9367
3413 1 36.9348 2.3575 49.5084
3414 1 35.3631 3.9292 0.7858
3415 1 36.9348 5.5009 2.3575
3416 1 35.3631 3.9292 3.9292
3417 1 36.9348 5.5009 5.5009
3418 1 35.3631 3.9292 7.0726
3419 1 36.9348 5.5009 8.6443
3420 1 35.3631 3.9292 10.216
3421 1 36.9348 5.5009 11.7877
3422 1 35.3631 3.9292 13.3594
3423 1 36.9348 5.5009 14.9311
3424 1 35.3631 3.9292 16.5028
3425 1 36.9348 5.5009 18.0745
3426 1 35.3631 3.9292 19.6462
3427 1 36.9348 5.5009 21.2179
3428 1 35.3631 3.9292 22.7896
3429 1 36.9348 5.5009 24.3613
3430 1 35.3631 3.9292 25.933
3431 1 36.9348 5.5009 27.5047
3432 1 35.3631 3.9292 29.0764
3433 1 36.9348 5.5009 30.6481
3434 1 35.3631 3.9292 32.2197
3435 1 36.9348 5.5009 33.7914
3436 1 35.3631 3.9292 35.3631
3437 1 36.9348 5.5009 36.9348
3438 1 35.3631 3.9292 38.5065
3439 1 36.9348 5.5009 40.0782
3440 1 35.3631 3.9292 41.6499
3441 1 36.9348 5.5009 43.2216
3442 1 35.3631 3.9292 44.7933
3443 1 36.9348 5.5009 46.365
3444 1 35.3631 3.9292 47.9367
3445 1 36.9348 5.5009 49.5084
3446 1 35.3631 7.0726 0.7858
3447 1 36.9348 8.6443 2.3575
3448 1 35.3631 7.0726 3.9292
3449 1 36.9348 8.6443 5.5009
3450 1 35.3631 7.0726 7.0726
3451 1 36.9348 8.6443 8.6443
3452 1 35.3631 7.0726 10.216
3453 1 36.9348 8.6443 11.7877
3454 1 35.3631 7.0726 13.3594
3455 1 36.9348 8.6443 14.9311
3456 1 35.3631 7.0726 16.5028
3457 1 36.9348 8.6443 18.0745
3458 1 35.3631 7.0726 19.6462
3459 1 36.9348 8.6443 21.2179
3460 1 35.3631 7.0726 22.7896
3461 1 36.9348 8.6443 24.3613
3462 1 35.3631 7.0726 25.933
3463 1 36.9348 8.6443 27.5047
3464 1 35.3631 7.0726 29.0764
3465 1 36.9348 8.6443 30.6481
3466 1 35.3631 7.0726 32.2197
3467 1 36.9348 8.6443 33.7914
3468 1 35.3631 7.0726 35.3631
3469 1 36.9348 8.6443 36.9348
3470 1 35.3631 7.0726 38.5065
3471 1 36.9348 8.6443 40.0782
3472 1 35.3631 7.0726 41.6499
3473 1 36.9348 8.6443 43.2216
3474 1 35.3631 7.0726 44.7933
3475 1 36.9348 8.6443 46.365
3476 1 35.3631 7.0726 47.9367
3477 1 36.9348 8.6443 49.5084
3478 1 35.3631 10.216 0.7858
3479 1 36.9348 11.7877 2.3575
3480 1 35.3631 10.216 3.9292
3481 1 36.9348 11.7877 5.5009
3482 1 35.3631 10.216 7.0726
3483 1 36.9348 11.7877 8.6443
3484 1 35.3631 10.216 10.216
3485 1 36.9348 11.7877 11.7877
3486 1 35.3631 10.216 13.3594
3487 1 36.9348 11.7877 14.9311
3488 1 35.3631 10.216 16.5028
3489 1 36.9348 11.7877 18.0745
3490 1 35.3631 10.216 19.6462
3491 1 36.9348 11.7877 21.2179
3492 1 35.3631 10.216 22.7896
3493 1 36.9348 11.7877 24.3613
3494 1 35.3631 10.216 25.933
3495 1 36.9348 11.7877 27.5047
3496 1 35.3631 10.216 29.0764
3497 1 36.9348 11.7877 30.6481
3498 1 35.3631 10.216 32.2197
3499 1 36.9348 11.7877 33.7914
3500 1 35.3631 10.216 35.3631
3501 1 36.9348 11.7877 36.9348
3502 1 35.3631 10.216 38.5065
3503 1 36.9348 11.7877 40.0782
3504 1 35.3631 10.216 41.6499
3505 1 36.9348 11.7877 43.2216
3506 1 35.3631 10.216 44.7933
3507 1 36.9348 11.7877 46.365
3508 1 35.3631 10.216 47.9367
3509 1 36.9348 11.7877 49.5084
3510 1 35.3631 13.3594 0.7858
3511 1 36.9348 14.9311 2.3575
3512 1 35.3631 13.3594 3.9292
3513 1 36.9348 14.9311 5.5009
3514 1 35.3631 13.3594 7.0726
3515 1 36.9348 14.9311 8.6443
3516 1 35.3631 13.3594 10.216
3517 1 36.9348 14.9311 11.7877
3518 1 35.3631 13.3594 13.3594
3519 1 36.9348 14.9311 14.9311
3520 1 35.3631 13.3594 16.5028
3521 1 36.9348 14.9311 18.0745
3522 1 35.3631 13.3594 19.6462
3523 1 36.9348 14.9311 21.2179
3524 1 35.3631 13.3594 22.7896
3525 1 36.9348 14.9311 24.3613
3526 1 35.3631 13.3594 25.933
3527 1 36.9348 14.9311 27.5047
3528 1 35.3631 13.3594 29.0764
3529 1 36.9348 14.9311 30.6481
3530 1 35.3631 13.3594 32.2197
3531 1 36.9348 14.9311 33.7914
3532 1 35.3631 13.3594 35.3631
3533 1 36.9348 14.9311 36.9348
3534 1 35.3631 13.3594 38.5065
3535 1 36.9348 14.9311 40.0782
3536 1 35.3631 13.3594 41.6499
3537 1 36.9348 14.9311 43.2216
3538 1 35.3631 13.3594 44.7933
3539 1 36.9348 14.9311 46.365
3540 1 35.3631 13.3594 47.9367
3541 1 36.9348 14.9311 49.5084
3542 1 35.3631 16.5028 0.7858
3543 1 36.9348 18.0745 2.3575
3544 1 35.3631 16.5028 3.9292
3545 1 36.9348 18.0745 5.5009
3546 1 35.3631 16.5028 7.0726
3547 1 36.9348 18.0745 8.6443
3548 1 35.3631 16.5028 10.216
3549 1 36.9348 18.0745 11.7877
3550 1 35.3631 16.5028 13.3594
3551 1 36.9348 18.0745 14.9311
3552 1 35.3631 16.5028 16.5028
3553 1 36.9348 18.0745 18.0745
3554 1 35.3631 16.5028 19.6462
3555 1 36.9348 18.0745 21.2179
3556 1 35.3631 16.5028 22.7896
3557 1 36.9348 18.0745 24.3613
3558 1 35.3631 16.5028 25.933
3559 1 36.9348 18.0745 27.5047
3560 1 35.3631 16.5028 29.0764
3561 1 36.9348 18.0745 30.6481
3562 1 35.3631 16.5028 32.2197
3563 1 36.9348 18.0745 33.7914
3564 1 35.3631 16.5028 35.3631
3565 1 36.9348 18.0745 36.9348
3566 1 35.3631 16.5028 38.5065
3567 1 36.9348 18.0745 40.0782
3568 1 35.3631 16.5028 41.6499
3569 1 36.9348 18.0745 43.2216
3570 1 35.3631 16.5028 44.7933
3571 1 36.9348 18.0745 46.365
3572 1 35.3631 16.5028 47.9367
3573 1 36.9348 18.0745 49.5084
3574 1 35.3631 19.6462 0.7858
3575 1 36.9348 21.2179 2.3575
3576 1 35.3631 19.6462 3.9292
3577 1 36.9348 21.2179 5.5009
3578 1 35.3631 19.6462 7.0726
3579 1 36.9348 21.2179 8.6443
3580 1 35.3631 19.6462 10.216
3581 1 36.9348 21.2179 11.7877
3582 1 35.3631 19.6462 13.3594
3583 1 36.9348 21.2179 14.9311
3584 1 35.3631 19.6462 16.5028
3585 1 36.9348 21.2179 18.0745
3586 1 35.3631 19.6462 19.6462
3587 1 36.9348 21.2179 21.2179
3588 1 35.3631 19.6462 22.7896
3589 1 36.9348 21.2179 24.3613
3590 1 35.3631 19.6462 25.933
3591 1 36.9348 21.2179 27.5047
3592 1 35.3631 19.6462 29.0764
3593 1 36.9348 21.2179 30.6481
3594 1 35.3631 19.6462 32.2197
3595 1 36.9348 21.2179 33.7914
3596 1 35.3631 19.6462 35.3631
3597 1 36.9348 21.2179 36.9348
3598 1 35.3631 19.6462 38.5065
3599 1 36.9348 21.2179 40.0782
3600 1 35.3631 19.6462 41.6499
3601 1 36.9348 21.2179 43.2216
3602 1 35.3631 19.6462 44.7933
3603 1 36.9348 21.2179 46.365
3604 1 35.3631 19.6462 47.9367
3605 1 36.9348 21.2179 49.5084
3606 1 35.3631 22.7896 0.7858
3607 1 36.9348 24.3613 2.3575
3608 1 35.3631 22.7896 3.9292
3609 1 36.9348 24.3613 5.5009
3610 1 35.3631 22.7896 7.0726
3611 1 36.9348 24.3613 8.6443
3612 1 35.3631 22.7896 10.216
3613 1 36.9348 24.3613 11.7877
3614 1 35.3631 22.7896 13.3594
3615 1 36.9348 24.3613 14.9311
3616 1 35.3631 22.7896 16.5028
3617 1 36.9348 24.3613 18.0745
3618 1 35.3631 22.7896 19.6462
3619 1 36.9348 24.3613 21.2179
3620 1 35.3631 22.7896 22.7896
3621 1 36.9348 24.3613 24.3613
3622 1 35.3631 22.7896 25.933
3623 1 36.9348 24.3613 27.5047
3624 1 35.3631 22.7896 29.0764
3625 1 36.9348 24.3613 30.6481
3626 1 35.3631 22.7896 32.2197
3627 1 36.9348 24.3613 33.7914
3628 1 35.3631 22.7896 35.3631
3629 1 36.9348 24.3613 36.9348
3630 1 35.3631 22.7896 38.5065
3631 1 36.9348 24.3613 40.0782
3632 1 35.3631 22.7896 41.6499
3633 1 36.9348 24.3613 43.2216
3634 1 35.3631 22.7896 44.7933
3635 1 36.9348 24.3613 46.365
3636 1 35.3631 22.7896 47.9367
3637 1 36.9348 24.3613 49.5084
3638 1 35.3631 25.933 0.7858
3639 1 36.9348 27.5047 2.3575
3640 1 35.3631 25.933 3.9292
3641 1 36.9348 27.5047 5.5009
3642 1 35.3631 25.933 7.0726
3643 1 36.9348 27.5047 8.6443
3644 1 35.3631 25.933 10.216
3645 1 36.9348 27.5047 11.7877
3646 1 35.3631 25.933 13.3594
3647 1 36.9348 27.5047 14.9311
3648 1 35.3631 25.933 16.5028
3649 1 36.9348 27.5047 18.0745
3650 1 35.3631 25.933 19.6462
3651 1 36.9348 27.5047 21.2179
3652 1 35.3631 25.933 22.7896
3653 1 36.9348 27.5047 24.3613
3654 1 35.3631 25.933 25.933
3655 1 36.9348 27.5047 27.5047
3656 1 35.3631 25.933 29.0764
3657 1 36.9348 27.5047 30.6481
3658 1 35.3631 25.933 32.2197
3659 1 36.9348 27.5047 33.7914
3660 1 35.3631 25.933 35.3631
3661 1 36.9348 27.5047 36.9348
3662 1 35.3631 25.933 38.5065
3663 1 36.9348 27.5047 40.0782
3664 1 35.3631 25.933 41.6499
3665 1 36.9348 27.5047 43.2216
3666 1 35.3631 25.933 44.7933
3667 1 36.9348 27.5047 46.365
3668 1 35.3631 25.933 47.9367
3669 1 36.9348 27.5047 49.5084
3670 1 35.3631 29.0764 0.7858
3671 1 36.9348 30.6481 2.3575
3672 1 35.3631 29.0764 3.9292
3673 1 36.9348 30.6481 5.5009
3674 1 35.3631 29.0764 7.0726
3675 1 36.9348 30.6481 8.6443
3676 1 35.3631 29.0764 10.216
3677 1 36.9348 30.6481 11.7877
3678 1 35.3631 29.0764 13.3594
3679 1 36.9348 30.6481 14.9311
3680 1 35.3631 29.0764 16.5028
3681 1 36.9348 30.6481 18.0745
3682 1 35.3631 29.0764 19.6462
3683 1 36.9348 30.6481 21.2179
3684 1 35.3631 29.0764 22.7896
3685 1 36.9348 30.6481 24.3613
3686 1 35.3631 29.0764 25.933
3687 1 36.9348 30.6481 27.5047
3688 1 35.3631 29.0764 29.0764
3689 1 36.9348 30.6481 30.6481
3690 1 35.3631 29.0764 32.2197
3691 1 36.9348 30.6481 33.7914
3692 1 35.3631 29.0764 35.3631
3693 1 36.9348 30.6481 36.9348
3694 1 35.3631 29.0764 38.5065
3695 1 36.9348 30.6481 40.0782
3696 1 35.3631 29.0764 41.6499
3697 1 36.9348 30.6481 43.2216
3698 1 35.3631 29.0764 44.7933
3699 1 36.9348 30.6481 46.365
3700 1 35.3631 29.0764 47.9367
3701 1 36.9348 30.6481 49.5084
3702 1 35.3631 32.2197 0.7858
3703 1 36.9348 33.7914 2.3575
3704 1 35.3631 32.2197 3.9292
3705 1 36.9348 33.7914 5.5009
3706 1 35.3631 32.2197 7.0726
3707 1 36.9348 33.7914 8.6443
3708 1 35.3631 32.2197 10.216
3709 1 36.9348 33.7914 11.7877
3710 1 35.3631 32.2197 13.3594
3711 1 36.9348 33.7914 14.9311
3712 1 35.3631 32.2197 16.5028
3713 1 36.9348 33.7914 18.0745
3714 1 35.3631 32.2197 19.6462
3715 1 36.9348 33.7914 21.2179
3716 1 35.3631 32.2197 22.7896
3717 1 36.9348 33.7914 24.3613
3718 1 35.3631 32.2197 25.933
3719 1 36.9348 33.7914 27.5047
3720 1 35.3631 32.2197 29.0764
3721 1 36.9348 33.7914 30.6481
3722 1 35.3631 32.2197 32.2197
3723 1 36.9348 33.7914 33.7914
3724 1 35.3631 32.2197 35.3631
3725 1 36.9348 33.7914 36.9348
3726 1 35.3631 32.2197 38.5065
3727 1 36.9348 33.7914 40.0782
3728 1 35.3631 32.2197 41.6499
3729 1 36.9348 33.7914 43.2216
3730 1 35.3631 32.2197 44.7933
3731 1 36.9348 33.7914 46.365
3732 1 35.3631 32.2197 47.9367
3733 1 36.9348 33.7914 49.5084
3734 1 35.3631 35.3631 0.7858
3735 1 36.9348 36.9348 2.3575
3736 1 35.3631 35.3631 3.9292
3737 1 36.9348 36.9348 5.5009
3738 1 35.3631 35.3631 7.0726
3739 1 36.9348 36.9348 8.6443
3740 1 35.3631 35.3631 10.216
3741 1 36.9348 36.9348 11.7877
3742 1 35.3631 35.3631 13.3594
3743 1 36.9348 36.9348 14.9311
3744 1 35.3631 35.3631 16.5028
3745 1 36.9348 36.9348 18.0745
3746 1 35.3631 35.3631 19.6462
3747 1 36.9348 36.9348 21.2179
3748 1 35.3631 35.3631 22.7896
3749 1 36.9348 36.9348 24.3613
3750 1 35.3631 35.3631 25.933
3751 1 36.9348 36.9348 27.5047
3752 1 35.3631 35.3631 29.0764
3753 1 36.9348 36.9348 30.6481
3754 1 35.3631 35.3631 32.2197
3755 1 36.9348 36.9348 33.7914
3756 1 35.3631 35.3631 35.3631
3757 1 36.9348 36.9348 36.9348
3758 1 35.3631 35.3631 38.5065
3759 1 36.9348 36.9348 40.0782
3760 1 35.3631 35.3631 41.6499
3761 1 36.9348 36.9348 43.2216
3762 1 35.3631 35.3631 44.7933
3763 1 36.9348 36.9348 46.365
3764 1 35.3631 35.3631 47.9367
3765 1 36.9348 36.9348 49.5084
3766 1 35.3631 38.5065 0.7858
3767 1 36.9348 40.0782 2.3575
3768 1 35.3631 38.5065 3.9292
3769 1 36.9348 40.0782 5.5009
3770 1 35.3631 38.5065 7.0726
3771 1 36.9348 40.0782 8.6443
3772 1 35.3631 38.5065 10.216
3773 1 36.9348 40.0782 11.7877
3774 1 35.3631 38.5065 13.3594
3775 1 36.9348 40.0782 14.9311
3776 1 35.3631 38.5065 16.5028
3777 1 36.9348 40.0782 18.0745
3778 1 35.3631 38.5065 19.6462
3779 1 36.9348 40.0782 21.2179
3780 1 35.3631 38.5065 22.7896
3781 1 36.9348 40.0782 24.3613
3782 1 35.3631 38.5065 25.933
3783 1 36.9348 40.0782 27.5047
3784 1 35.3631 38.5065 29.0764
3785 1 36.9348 40.0782 30.6481
3786 1 35.3631 38.5065 32.2197
3787 1 36.9348 40.0782 33.7914
3788 1 35.3631 38.5065 35.3631
3789 1 36.9348 40.0782 36.9348
3790 1 35.3631 38.5065 38.5065
3791 1 36.9348 40.0782 40.0782
3792 1 35.3631 38.5065 41.6499
3793 1 36.9348 40.0782 43.2216
3794 1 35.3631 38.5065 44.7933
3795 1 36.9348 40.0782 46.365
3796 1 35.3631 38.5065 47.9367
3797 1 36.9348 40.0782 49.5084
3798 1 35.3631 41.6499 0.7858
3799 1 36.9348 43.2216 2.3575
3800 1 35.3631 41.6499 3.9292
3801 1 36.9348 43.2216 5.5009
3802 1 35.3631 41.6499 7.0726
3803 1 36.9348 43.2216 8.6443
3804 1 35.3631 41.6499 10.216
3805 1 36.9348 43.2216 11.7877
3806 1 35.3631 41.6499 13.3594
3807 1 36.9348 43.2216 14.9311
3808 1 35.3631 41.6499 16.5028
3809 1 36.9348 43.2216 18.0745
3810 1 35.3631 41.6499 19.6462
3811 1 36.9348 43.2216 21.2179
3812 1 35.3631 41.6499 22.7896
3813 1 36.9348 43.2216 24.3613
3814 1 35.3631 41.6499 25.933
3815 1 36.9348 43.2216 27.5047
3816 1 35.3631 41.6499 29.0764
3817 1 36.9348 43.2216 30.6481
3818 1 35.3631 41.6499 32.2197
3819 1 36.9348 43.2216 33.7914
3820 1 35.3631 41.6499 35.3631
3821 1 36.9348 43.2216 36.9348
3822 1 35.3631 41.6499 38.5065
3823 1 36.9348 43.2216 40.0782
3824 1 35.3631 41.6499 41.6499
3825 1 36.9348 43.2216 43.2216
3826 1 35.3631 41.6499 44.7933
3827 1 36.9348 43.2216 46.365
3828 1 35.3631 41.6499 47.9367
3829 1 36.9348 43.2216 49.5084
3830 1 35.3631 44.7933 0.7858
3831 1 36.9348 46.365 2.3575
3832 1 35.3631 44.7933 3.9292
3833 1 36.9348 46.365 5.5009
3834 1 35.3631 44.7933 7.0726
3835 1 36.9348 46.365 8.6443
3836 1 35.3631 44.7933 10.216
3837 1 36.9348 46.365 11.7877
3838 1 35.3631 44.7933 13.3594
3839 1 36.9348 46.365 14.9311
3840 1 35.3631 44.7933 16.5028
3841 1 36.9348 46.365 18.0745
3842 1 35.3631 44.7933 19.6462
3843 1 36.9348 46.365 21.2179
3844 1 35.3631 44.7933 22.7896
3845 1 36.9348 46.365 24.3613
3846 1 35.3631 44.7933 25.933
3847 1 36.9348 46.365 27.5047
3848 1 35.3631 44.7933 29.0764
3849 1 36.9348 46.365 30.6481
3850 1 35.3631 44.7933 32.2197
3851 1 36.9348 46.365 33.7914
3852 1 35.3631 44.7933 35.3631
3853 1 36.9348 46.365 36.9348
3854 1 35.3631 44.7933 38.5065
3855 1 36.9348 46.365 40.0782
3856 1 35.3631 44.7933 41.6499
3857 1 36.9348 46.365 43.2216
3858 1 35.3631 44.7933 44.7933
3859 1 36.9348 46.365 46.365
3860 1 35.3631 44.7933 47.9367
3861 1 36.9348 46.365 49.5084
3862 1 35.3631 47.9367 0.7858
3863 1 36.9348 49.5084 2.3575
3864 1 35.3631 47.9367 3.9292
3865 1 36.9348 49.5084 5.5009
3866 1 35.3631 47.9367 7.0726
3867 1 36.9348 49.5084 8.6443
3868 1 35.3631 47.9367 10.216
3869 1 36.9348 49.5084 11.7877
3870 1 35.3631 47.9367 13.3594
3871 1 36.9348 49.5084 14.9311
3872 1 35.3631 47.9367 16.5028
3873 1 36.9348 49.5084 18.0745
3874 1 35.3631 47.9367 19.6462
3875 1 36.9348 49.5084 21.2179
3876 1 35.3631 47.9367 22.7896
3877 1 36.9348 49.5084 24.3613
3878 1 35.3631 47.9367 25.933
3879 1 36.9348 49.5084 27.5047
3880 1 35.3631 47.9367 29.0764
3881 1 36.9348 49.5084 30.6481
3882 1 35.3631 47.9367 32.2197
3883 1 36.9348 49.5084 33.7914
3884 1 35.3631 47.9367 35.3631
3885 1 36.9348 49.5084 36.9348
3886 1 35.3631 47.9367 38.5065
3887 1 36.9348 49.5084 40.0782
3888 1 35.3631 47.9367 41.6499
3889 1 36.9348 49.5084 43.2216
3890 1 35.3631 47.9367 44.7933
3891 1 36.9348 49.5084 46.365
3892 1 35.3631 47.9367 47.9367
3893 1 36.9348 49.5084 49.5084
3894 1 38.5065 0.7858 0.7858
3895 1 40.0782 2.3575 2.3575
3896 1 38.5065 0.7858 3.9292
3897 1 40.0782 2.3575 5.5009
3898 1 38.5065 0.7858 7.0726
3899 1 40.0782 2.3575 8.6443
3900 1 38.5065 0.7858 10.216
3901 1 40.0782 2.3575 11.7877
3902 1 38.5065 0.7858 13.3594
3903 1 40.0782 2.3575 14.9311
3904 1 38.5065 0.7858 16.5028
3905 1 40.0782 2.3575 18.0745
3906 1 38.5065 0.7858 19.6462
3907 1 40.0782 2.3575 21.2179
3908 1 38.5065 0.7858 22.7896
3909 1 40.0782 2.3575 24.3613
3910 1 38.5065 0.7858 25.933
3911 1 40.0782 2.3575 27.5047
3912 1 38.5065 0.7858 29.0764
3913 1 40.0782 2.3575 30.6481
3914 1 38.5065 0.7858 32.2197
3915 1 40.0782 2.3575 33.7914
3916 1 38.5065 0.7858 35.3631
3917 1 40.0782 2.3575 36.9348
3918 1 38.5065 0.7858 38.5065
3919 1 40.0782 2.3575 40.0782
3920 1 38.5065 0.7858 41.6499
3921 1 40.0782 2.3575 43.2216
3922 1 38.5065 0.7858 44.7933
3923 1 40.0782 2.3575 46.365
3924 1 38.5065 0.7858 47.9367
3925 1 40.0782 2.3575 49.5084
3926 1 38.5065 3.9292 0.7858
3927 1 40.0782 5.5009 2.3575
3928 1 38.5065 3.9292 3.9292
3929 1 40.0782 5.5009 5.5009
3930 1 38.5065 3.9292 7.0726
3931 1 40.0782 5.5009 8.6443
3932 1 38.5065 3.9292 10.216
3933 1 40.0782 5.5009 11.7877
3934 1 38.5065 3.9292 13.3594
3935 1 40.0782 5.5009 14.9311
3936 1 38.5065 3.9292 16.5028
3937 1 40.0782 5.5009 18.0745
3938 1 38.5065 3.9292 19.6462
3939 1 40.0782 5.5009 21.2179
3940 1 38.5065 3.9292 22.7896
3941 1 40.0782 5.5009 24.3613
3942 1 38.5065 3.9292 25.933
3943 1 40.0782 5.5009 27.5047
3944 1 38.5065 3.9292 29.0764
3945 1 40.0782 5.5009 30.6481
3946 1 38.5065 3.9292 32.2197
3947 1 40.0782 5.5009 33.7914
3948 1 38.5065 3.9292 35.3631
3949 1 40.0782 5.5009 36.9348
3950 1 38.5065 3.9292 38.5065
3951 1 40.0782 5.5009 40.0782
3952 1 38.5065 3.9292 41.6499
3953 1 40.0782 5.5009 43.2216
3954 1 38.5065 3.9292 44.7933
3955 1 40.0782 5.5009 46.365
3956 1 38.5065 3.9292 47.9367
3957 1 40.0782 5.5009 49.5084
3958 1 38.5065 7.0726 0.7858
3959 1 40.0782 8.6443 2.3575
3960 1 38.5065 7.0726 3.9292
3961 1 40.0782 8.6443 5.5009
3962 1 38.5065 7.0726 7.0726
3963 1 40.0782 8.6443 8.6443
3964 1 38.5065 7.0726 10.216
3965 1 40.0782 8.6443 11.7877
3966 1 38.5065 7.0726 13.3594
3967 1 40.0782 8.6443 14.9311
3968 1 38.5065 7.0726 16.5028
3969 1 40.0782 8.6443 18.0745
3970 1 38.5065 7.0726 19.6462
3971 1 40.0782 8.6443 21.2179
3972 1 38.5065 7.0726 22.7896
3973 1 40.0782 8.6443 24.3613
3974 1 38.5065 7.0726 25.933
3975 1 40.0782 8.6443 27.5047
3976 1 38.5065 7.0726 29.0764
3977 1 40.0782 8.6443 30.6481
3978 1 38.5065 7.0726 32.2197
3979 1 40.0782 8.6443 33.7914
3980 1 38.5065 7.0726 35.3631
3981 1 40.0782 8.6443 36.9348
3982 1 38.5065 7.0726 38.5065
3983 1 40.0782 8.6443 40.0782
3984 1 38.5065 7.0726 41.6499
3985 1 40.0782 8.6443 43.2216
3986 1 38.5065 7.0726 44.7933
3987 1 40.0782 8.6443 46.365
3988 1 38.5065 7.0726 47.9367
3989 1 40.0782 8.6443 49.5084
3990 1 38.5065 10.216 0.7858
3991 1 40.0782 11.7877 2.3575
3992 1 38.5065 10.216 3.9292
3993 1 40.0782 11.7877 5.5009
3994 1 38.5065 10.216 7.0726
3995 1 40.0782 11.7877 8.6443
3996 1 38.5065 10.216 10.216
3997 1 40.0782 11.7877 11.7877
3998 1 38.5065 10.216 13.3594
3999 1 40.0782 11.7877 14.9311
4000 1 38.5065 10.216 16.5028
4001 1 40.0782 11.7877 18.0745
4002 1 38.5065 10.216 19.6462
4003 1 40.0782 11.7877 21.2179
4004 1 38.5065 10.216 22.7896
4005 1 40.0782 11.7877 24.3613
4006 1 38.5065 10.216 25.933
4007 1 40.0782 11.7877 27.5047
4008 1 38.5065 10.216 29.0764
4009 1 40.0782 11.7877 30.6481
4010 1 38.5065 10.216 32.2197
4011 1 40.0782 11.7877 33.7914
4012 1 38.5065 10.216 35.3631
4013 1 40.0782 11.7877 36.9348
4014 1 38.5065 10.216 38.5065
4015 1 40.0782 11.7877 40.0782
4016 1 38.5065 10.216 41.6499
4017 1 40.0782 11.7877 43.2216
4018 1 38.5065 10.216 44.7933
4019 1 40.0782 11.7877 46.365
4020 1 38.5065 10.216 47.9367
4021 1 40.0782 11.7877 49.5084
4022 1 38.5065 13.3594 0.7858
4023 1 40.0782 14.9311 2.3575
4024 1 38.5065 13.3594 3.9292
4025 1 40.0782 14.9311 5.5009
4026 1 38.5065 13.3594 7.0726
4027 1 40.0782 14.9311 8.6443
4028 1 38.5065 13.3594 10.216
4029 1 40.0782 14.9311 11.7877
4030 1 38.5065 13.3594 13.3594
4031 1 40.0782 14.9311 14.9311
4032 1 38.5065 13.3594 16.5028
4033 1 40.0782 14.9311 18.0745
4034 1 38.5065 13.3594 19.6462
4035 1 40.0782 14.9311 21.2179
4036 1 38.5065 13.3594 22.7896
4037 1 40.0782 14.9311 24.3613
4038 1 38.5065 13.3594 25.933
4039 1 40.0782 14.9311 27.5047
4040 1 38.5065 13.3594 29.0764
4041 1 40.0782 14.9311 30.6481
4042 1 38.5065 13.3594 32.2197
4043 1 40.0782 14.9311 33.7914
4044 1 38.5065 13.3594 35.3631
4045 1 40.0782 14.9311 36.9348
4046 1 38.5065 13.3594 38.5065
4047 1 40.0782 14.9311 40.0782
4048 1 38.5065 13.3594 41.6499
4049 1 40.0782 14.9311 43.2216
4050 1 38.5065 13.3594 44.7933
4051 1 40.0782 14.9311 46.365
4052 1 38.5065 13.3594 47.9367
4053 1 40.0782 14.9311 49.5084
4054 1 38.5065 16.5028 0.7858
4055 1 40.0782 18.0745 2.3575
4056 1 38.5065 16.5028 3.9292
4057 1 40.0782 18.0745 5.5009
4058 1 38.5065 16.5028 7.0726
4059 1 40.0782 18.0745 8.6443
4060 1 38.5065 16.5028 10.216
4061 1 40.0782 18.0745 11.7877
4062 1 38.5065 16.5028 13.3594
4063 1 40.0782 18.0745 14.9311
4064 1 38.5065 16.5028 16.5028
4065 1 40.0782 18.0745 18.0745
4066 1 38.5065 16.5028 19.6462
4067 1 40.0782 18.0745 21.2179
4068 1 38.5065 16.5028 22.7896
4069 1 40.0782 18.0745 24.3613
4070 1 38.5065 16.5028 25.933
4071 1 40.0782 18.0745 27.5047
4072 1 38.5065 16.5028 29.0764
4073 1 40.0782 18.0745 30.6481
4074 1 38.5065 16.5028 32.2197
4075 1 40.0782 18.0745 33.7914
4076 1 38.5065 16.5028 35.3631
4077 1 40.0782 18.0745 36.9348
4078 1 38.5065 16.5028 38.5065
4079 1 40.0782 18.0745 40.0782
4080 1 38.5065 16.5028 41.6499
4081 1 40.0782 18.0745 43.2216
4082 1 38.5065 16.5028 44.7933
4083 1 40.0782 18.0745 46.365
4084 1 38.5065 16.5028 47.9367
4085 1 40.0782 18.0745 49.5084
4086 1 38.5065 19.6462 0.7858
4087 1 40.0782 21.2179 2.3575
4088 1 38.5065 19.6462 3.9292
4089 1 40.0782 21.2179 5.5009
4090 1 38.5065 19.6462 7.0726
4091 1 40.0782 21.2179 8.6443
4092 1 38.5065 19.6462 10.216
4093 1 40.0782 21.2179 11.7877
4094 1 38.5065 19.6462 13.3594
4095 1 40.0782 21.2179 14.9311
4096 1 38.5065 19.6462 16.5028
4097 1 40.0782 21.2179 18.0745
4098 1 38.5065 19.6462 19.6462
4099 1 40.0782 21.2179 21.2179
4100 1 38.5065 19.6462 22.7896
4101 1 40.0782 21.2179 24.3613
4102 1 38.5065 19.6462 25.933
4103 1 40.0782 21.2179 27.5047
4104 1 38.5065 19.6462 29.0764
4105 1 40.0782 21.2179 30.6481
4106 1 38.5065 19.6462 32.2197
4107 1 40.0782 21.2179 33.7914
4108 1 38.5065 19.6462 35.3631
4109 1 40.0782 21.2179 36.9348
4110 1 38.5065 19.6462 38.5065
4111 1 40.0782 21.2179 40.0782
4112 1 38.5065 19.6462 41.6499
4113 1 40.0782 21.2179 43.2216
4114 1 38.5065 19.6462 44.7933
4115 1 40.0782 21.2179 46.365
4116 1 38.5065 19.6462 47.9367
4117 1 40.0782 21.2179 49.5084
4118 1 38.5065 22.7896 0.7858
4119 1 40.0782 24.3613 2.3575
4120 1 38.5065 22.7896 3.9292
4121 1 40.0782 24.3613 5.5009
4122 1 38.5065 22.7896 7.0726
4123 1 40.0782 24.3613 8.6443
4124 1 38.5065 22.7896 10.216
4125 1 40.0782 24.3613 11.7877
4126 1 38.5065 22.7896 13.3594
4127 1 40.0782 24.3613 14.9311
4128 1 38.5065 22.7896 16.5028
4129 1 40.0782 24.3613 18.0745
4130 1 38.5065 22.7896 19.6462
4131 1 40.0782 24.3613 21.2179
4132 1 38.5065 22.7896 22.7896
4133 1 40.0782 24.3613 24.3613
4134 1 38.5065 22.7896 25.933
4135 1 40.0782 24.3613 27.5047
4136 1 38.5065 22.7896 29.0764
4137 1 40.0782 24.3613 30.6481
4138 1 38.5065 22.7896 32.2197
4139 1 40.0782 24.3613 33.7914
4140 1 38.5065 22.7896 35.3631
4141 1 40.0782 24.3613 36.9348
4142 1 38.5065 22.7896 38.5065
4143 1 40.0782 24.3613 40.0782
4144 1 38.5065 22.7896 41.6499
4145 1 40.0782 24.3613 43.2216
4146 1 38.5065 22.7896 44.7933
4147 1 40.0782 24.3613 46.365
4148 1 38.5065 22.7896 47.9367
4149 1 40.0782 24.3613 49.5084
4150 1 38.5065 25.933 0.7858
4151 1 40.0782 27.5047 2.3575
4152 1 38.5065 25.933 3.9292
4153 1 40.0782 27.5047 5.5009
4154 1 38.5065 25.933 7.0726
4155 1 40.0782 27.5047 8.6443
4156 1 38.5065 25.933 10.216
4157 1 40.0782 27.5047 11.7877
4158 1 38.5065 25.933 13.3594
4159 1 40.0782 27.5047 14.9311
4160 1 38.5065 25.933 16.5028
4161 1 40.0782 27.5047 18.0745
4162 1 38.5065 25.933 19.6462
4163 1 40.0782 27.5047 21.2179
4164 1 38.5065 25.933 22.7896
4165 1 40.0782 27.5047 24.3613
4166 1 38.5065 25.933 25.933
4167 1 40.0782 27.5047 27.5047
4168 1 38.5065 25.933 29.0764
4169 1 40.0782 27.5047 30.6481
4170 1 38.5065 25.933 32.2197
4171 1 40.0782 27.5047 33.7914
4172 1 38.5065 25.933 35.3631
4173 1 40.0782 27.5047 36.9348
4174 1 38.5065 25.933 38.5065
4175 1 40.0782 27.5047 40.0782
4176 1 38.5065 25.933 41.6499
4177 1 40.0782 27.5047 43.2216
4178 1 38.5065 25.933 44.7933
4179 1 40.0782 27.5047 46.365
4180 1 38.5065 25.933 47.9367
4181 1 40.0782 27.5047 49.5084
4182 1 38.5065 29.0764 0.7858
4183 1 40.0782 30.6481 2.3575
4184 1 38.5065 29.0764 3.9292
4185 1 40.0782 30.6481 5.5009
4186 1 38.5065 29.0764 7.0726
4187 1 40.0782 30.6481 8.6443
4188 1 38.5065 29.0764 10.216
4189 1 40.0782 30.6481 11.7877
4190 1 38.5065 29.0764 13.3594
4191 1 40.0782 30.6481 14.9311
4192 1 38.5065 29.0764 16.5028
4193 1 40.0782 30.6481 18.0745
4194 1 38.5065 29.0764 19.6462
4195 1 40.0782 30.6481 21.2179
4196 1 38.5065 29.0764 22.7896
4197 1 40.0782 30.6481 24.3613
4198 1 38.5065 29.0764 25.933
4199 1 40.0782 30.6481 27.5047
4200 1 38.5065 29.0764 29.0764
4201 1 40.0782 30.6481 30.6481
4202 1 38.5065 29.0764 32.2197
4203 1 40.0782 30.6481 33.7914
4204 1 38.5065 29.0764 35.3631
4205 1 40.0782 30.6481 36.9348
4206 1 38.5065 29.0764 38.5065
4207 1 40.0782 30.6481 40.0782
4208 1 38.5065 29.0764 41.6499
4209 1 40.0782 30.6481 43.2216
4210 1 38.5065 29.0764 44.7933
4211 1 40.0782 30.6481 46.365
4212 1 38.5065 29.0764 47.9367
4213 1 40.0782 30.6481 49.5084
4214 1 38.5065 32.2197 0.7858
4215 1 40.0782 33.7914 2.3575
4216 1 38.5065 32.2197 3.9292
4217 1 40.0782 33.7914 5.5009
4218 1 38.5065 32.2197 7.0726
4219 1 40.0782 33.7914 8.6443
4220 1 38.5065 32.2197 10.216
4221 1 40.0782 33.7914 11.7877
4222 1 38.5065 32.2197 13.3594
4223 1 40.0782 33.7914 14.9311
4224 1 38.5065 32.2197 16.5028
4225 1 40.0782 33.7914 18.0745
4226 1 38.5065 32.2197 19.6462
4227 1 40.0782 33.7914 21.2179
4228 1 38.5065 32.2197 22.7896
4229 1 40.0782 33.7914 24.3613
4230 1 38.5065 32.2197 25.933
4231 1 40.0782 33.7914 27.5047
4232 1 38.5065 32.2197 29.0764
4233 1 40.0782 33.7914 30.6481
4234 1 38.5065 32.2197 32.2197
4235 1 40.0782 33.7914 33.7914
4236 1 38.5065 32.2197 35.3631
4237 1 40.0782 33.7914 36.9348
4238 1 38.5065 32.2197 38.5065
4239 1 40.0782 33.7914 40.0782
4240 1 38.5065 32.2197 41.6499
4241 1 40.0782 33.7914 43.2216
4242 1 38.5065 32.2197 44.7933
4243 1 40.0782 33.7914 46.365
4244 1 38.5065 32.2197 47.9367
4245 1 40.0782 33.7914 49.5084
4246 1 38.5065 35.3631 0.7858
4247 1 40.0782 36.9348 2.3575
4248 1 38.5065 35.3631 3.9292
4249 1 40.0782 36.9348 5.5009
4250 1 38.5065 35.3631 7.0726
4251 1 40.0782 36.9348 8.6443
4252 1 38.5065 35.3631 10.216
4253 1 40.0782 36.9348 11.7877
4254 1 38.5065 35.3631 13.3594
4255 1 40.0782 36.9348 14.9311
4256 1 38.5065 35.3631 16.5028
4257 1 40.0782 36.9348 18.0745
4258 1 38.5065 35.3631 19.6462
4259 1 40.0782 36.9348 21.2179
4260 1 38.5065 35.3631 22.7896
4261 1 40.0782 36.9348 24.3613
4262 1 38.5065 35.3631 25.933
4263 1 40.0782 36.9348 27.5047
4264 1 38.5065 35.3631 29.0764
4265 1 40.0782 36.9348 30.6481
4266 1 38.5065 35.3631 32.2197
4267 1 40.0782 36.9348 33.7914
4268 1 38.5065 35.3631 35.3631
4269 1 40.0782 36.9348 36.9348
4270 1 38.5065 35.3631 38.5065
4271 1 40.0782 36.9348 40.0782
4272 1 38.5065 35.3631 41.6499
4273 1 40.0782 36.9348 43.2216
4274 1 38.5065 35.3631 44.7933
4275 1 40.0782 36.9348 46.365
4276 1 38.5065 35.3631 47.9367
4277 1 40.0782 36.9348 49.5084
4278 1 38.5065 38.5065 0.7858
4279 1 40.0782 40.0782 2.3575
4280 1 38.5065 38.5065 3.9292
4281 1 40.0782 40.0782 5.5009
4282 1 38.5065 38.5065 7.0726
4283 1 40.0782 40.0782 8.6443
4284 1 38.5065 38.5065 10.216
4285 1 40.0782 40.0782 11.7877
4286 1 38.5065 38.5065 13.3594
4287 1 40.0782 40.0782 14.9311
4288 1 38.5065 38.5065 16.5028
4289 1 40.0782 40.0782 18.0745
4290 1 38.5065 38.5065 19.6462
4291 1 40.0782 40.0782 21.2179
4292 1 38.5065 38.5065 22.7896
4293 1 40.0782 40.0782 24.3613
4294 1 38.5065 38.5065 25.933
4295 1 40.0782 40.0782 27.5047
4296 1 38.5065 38.5065 29.0764
4297 1 40.0782 40.0782 30.6481
4298 1 38.5065 38.5065 32.2197
4299 1 40.0782 40.0782 33.7914
4300 1 38.5065 38.5065 35.3631
4301 1 40.0782 40.0782 36.9348
4302 1 38.5065 38.5065 38.5065
4303 1 40.0782 40.0782 40.0782
4304 1 38.5065 38.5065 41.6499
4305 1 40.0782 40.0782 43.2216
4306 1 38.5065 38.5065 44.7933
4307 1 40.0782 40.0782 46.365
4308 1 38.5065 38.5065 47.9367
4309 1 40.0782 40.0782 49.5084
4310 1 38.5065 41.6499 0.7858
4311 1 40.0782 43.2216 2.3575
4312 1 38.5065 41.6499 3.9292
4313 1 40.0782 43.2216 5.5009
4314 1 38.5065 41.6499 7.0726
4315 1 40.0782 43.2216 8.6443
4316 1 38.5065 41.6499 10.216
4317 1 40.0782 43.2216 11.7877
4318 1 38.5065 41.6499 13.3594
4319 1 40.0782 43.2216 14.9311
4320 1 38.5065 41.6499 16.5028
4321 1 40.0782 43.2216 18.0745
4322 1 38.5065 41.6499 19.6462
4323 1 40.0782 43.2216 21.2179
4324 1 38.5065 41.6499 22.7896
4325 1 40.0782 43.2216 24.3613
4326 1 38.5065 41.6499 25.933
4327 1 40.0782 43.2216 27.5047
4328 1 38.5065 41.6499 29.0764
4329 1 40.0782 43.2216 30.6481
4330 1 38.5065 41.6499 32.2197
4331 1 40.0782 43.2216 33.7914
4332 1 38.5065 41.6499 35.3631
4333 1 40.0782 43.2216 36.9348
4334 1 38.5065 41.6499 38.5065
4335 1 40.0782 43.2216 40.0782
4336 1 38.5065 41.6499 41.6499
4337 1 40.0782 43.2216 43.2216
4338 1 38.5065 41.6499 44.7933
4339 1 40.0782 43.2216 46.365
4340 1 38.5065 41.6499 47.9367
4341 1 40.0782 43.2216 49.5084
4342 1 38.5065 44.7933 0.7858
4343 1 40.0782 46.365 2.3575
4344 1 38.5065 44.7933 3.9292
4345 1 40.0782 46.365 5.5009
4346 1 38.5065 44.7933 7.0726
4347 1 40.0782 46.365 8.6443
4348 1 38.5065 44.7933 10.216
4349 1 40.0782 46.365 11.7877
4350 1 38.5065 44.7933 13.3594
4351 1 40.0782 46.365 14.9311
4352 1 38.5065 44.7933 16.5028
4353 1 40.0782 46.365 18.0745
4354 1 38.5065 44.7933 19.6462
4355 1 40.0782 46.365 21.2179
4356 1 38.5065 44.7933 22.7896
4357 1 40.0782 46.365 24.3613
4358 1 38.5065 44.7933 25.933
4359 1 40.0782 46.365 27.5047
4360 1 38.5065 44.7933 29.0764
4361 1 40.0782 46.365 30.6481
4362 1 38.5065 44.7933 32.2197
4363 1 40.0782 46.365 33.7914
4364 1 38.5065 44.7933 35.3631
4365 1 40.0782 46.365 36.9348
4366 1 38.5065 44.7933 38.5065
4367 1 40.0782 46.365 40.0782
4368 1 38.5065 44.7933 41.6499
4369 1 40.0782 46.365 43.2216
4370 1 38.5065 44.7933 44.7933
4371 1 40.0782 46.365 46.365
4372 1 38.5065 44.7933 47.9367
4373 1 40.0782 46.365 49.5084
4374 1 38.5065 47.9367 0.7858
4375 1 40.0782 49.5084 2.3575
4376 1 38.5065 47.9367 3.9292
4377 1 40.0782 49.5084 5.5009
4378 1 38.5065 47.9367 7.0726
4379 1 40.0782 49.5084 8.6443
4380 1 38.5065 47.9367 10.216
4381 1 40.0782 49.5084 11.7877
4382 1 38.5065 47.9367 13.3594
4383 1 40.0782 49.5084 14.9311
4384 1 38.5065 47.9367 16.5028
4385 1 40.0782 49.5084 18.0745
4386 1 38.5065 47.9367 19.6462
4387 1 40.0782 49.5084 21.2179
4388 1 38.5065 47.9367 22.7896
4389 1 40.0782 49.5084 24.3613
4390 1 38.5065 47.9367 25.933
4391 1 40.0782 49.5084 27.5047
4392 1 38.5065 47.9367 29.0764
4393 1 40.0782 49.5084 30.6481
4394 1 38.5065 47.9367 32.2197
4395 1 40.0782 49.5084 33.7914
4396 1 38.5065 47.9367 35.3631
4397 1 40.0782 49.5084 36.9348
4398 1 38.5065 47.9367 38.5065
4399 1 40.0782 49.5084 40.0782
4400 1 38.5065 47.9367 41.6499
4401 1 40.0782 49.5084 43.2216
4402 1 38.5065 47.9367 44.7933
4403 1 40.0782 49.5084 46.365
4404 1 38.5065 47.9367 47.9367
4405 1 40.0782 49.5084 49.5084
4406 1 41.6499 0.7858 0.7858
4407 1 43.2216 2.3575 2.3575
4408 1 41.6499 0.7858 3.9292
4409 1 43.2216 2.3575 5.5009
4410 1 41.6499 0.7858 7.0726
4411 1 43.2216 2.3575 8.6443
4412 1 41.6499 0.7858 10.216
4413 1 43.2216 2.3575 11.7877
4414 1 41.6499 0.7858 13.3594
4415 1 43.2216 2.3575 14.9311
4416 1 41.6499 0.7858 16.5028
4417 1 43.2216 2.3575 18.0745
4418 1 41.6499 0.7858 19.6462
4419 1 43.2216 2.3575 21.2179
4420 1 41.6499 0.7858 22.7896
4421 1 43.2216 2.3575 24.3613
4422 1 41.6499 0.7858 25.933
4423 1 43.2216 2.3575 27.5047
4424 1 41.6499 0.7858 29.0764
4425 1 43.2216 2.3575 30.6481
4426 1 41.6499 0.7858 32.2197
4427 1 43.2216 2.3575 33.7914
4428 1 41.6499 0.7858 35.3631
4429 1 43.2216 2.3575 36.9348
4430 1 41.6499 0.7858 38.5065
4431 1 43.2216 2.3575 40.0782
4432 1 41.6499 0.7858 41.6499
4433 1 43.2216 2.3575 43.2216
4434 1 41.6499 0.7858 44.7933
4435 1 43.2216 2.3575 46.365
4436 1 41.6499 0.7858 47.9367
4437 1 43.2216 2.3575 49.5084
4438 1 41.6499 3.9292 0.7858
4439 1 43.2216 5.5009 2.3575
4440 1 41.6499 3.9292 3.9292
4441 1 43.2216 5.5009 5.5009
4442 1 41.6499 3.9292 7.0726
4443 1 43.2216 5.5009 8.6443
4444 1 41.6499 3.9292 10.216
4445 1 43.2216 5.5009 11.7877
4446 1 41.6499 3.9292 13.3594
4447 1 43.2216 5.5009 14.9311
4448 1 41.6499 3.9292 16.5028
4449 1 43.2216 5.5009 18.0745
4450 1 41.6499 3.9292 19.6462
4451 1 43.2216 5.5009 21.2179
4452 1 41.6499 3.9292 22.7896
4453 1 43.2216 5.5009 24.3613
4454 1 41.6499 3.9292 25.933
4455 1 43.2216 5.5009 27.5047
4456 1 41.6499 3.9292 29.0764
4457 1 43.2216 5.5009 30.6481
4458 1 41.6499 3.9292 32.2197
4459 1 43.2216 5.5009 33.7914
4460 1 41.6499 3.9292 35.3631
4461 1 43.2216 5.5009 36.9348
4462 1 41.6499 3.9292 38.5065
4463 1 43.2216 5.5009 40.0782
4464 1 41.6499 3.9292 41.6499
4465 1 43.2216 5.5009 43.2216
4466 1 41.6499 3.9292 44.7933
4467 1 43.2216 5.5009 46.365
4468 1 41.6499 3.9292 47.9367
4469 1 43.2216 5.5009 49.5084
4470 1 41.6499 7.0726 0.7858
4471 1 43.2216 8.6443 2.3575
4472 1 41.6499 7.0726 3.9292
4473 1 43.2216 8.6443 5.5009
4474 1 41.6499 7.0726 7.0726
4475 1 43.2216 8.6443 8.6443
4476 1 41.6499 7.0726 10.216
4477 1 43.2216 8.6443 11.7877
4478 1 41.6499 7.0726 13.3594
4479 1 43.2216 8.6443 14.9311
4480 1 41.6499 7.0726 16.5028
4481 1 43.2216 8.6443 18.0745
4482 1 41.6499 7.0726 19.6462
4483 1 43.2216 8.6443 21.2179
4484 1 41.6499 7.0726 22.7896
4485 1 43.2216 8.6443 24.3613
4486 1 41.6499 7.0726 25.933
4487 1 43.2216 8.6443 27.5047
4488 1 41.6499 7.0726 29.0764
4489 1 43.2216 8.6443 30.6481
4490 1 41.6499 7.0726 32.2197
4491 1 43.2216 8.6443 33.7914
4492 1 41.6499 7.0726 35.3631
4493 1 43.2216 8.6443 36.9348
4494 1 41.6499 7.0726 38.5065
4495 1 43.2216 8.6443 40.0782
4496 1 41.6499 7.0726 41.6499
4497 1 43.2216 8.6443 43.2216
4498 1 41.6499 7.0726 44.7933
4499 1 43.2216 8.6443 46.365
4500 1 41.6499 7.0726 47.9367
4501 1 43.2216 8.6443 49.5084
4502 1 41.6499 10.216 0.7858
4503 1 43.2216 11.7877 2.3575
4504 1 41.6499 10.216 3.9292
4505 1 43.2216 11.7877 5.5009
4506 1 41.6499 10.216 7.0726
4507 1 43.2216 11.7877 8.6443
4508 1 41.6499 10.216 10.216
4509 1 43.2216 11.7877 11.7877
4510 1 41.6499 10.216 13.3594
4511 1 43.2216 11.7877 14.9311
4512 1 41.6499 10.216 16.5028
4513 1 43.2216 11.7877 18.0745
4514 1 41.6499 10.216 19.6462
4515 1 43.2216 11.7877 21.2179
4516 1 41.6499 10.216 22.7896
4517 1 43.2216 11.7877 24.3613
4518 1 41.6499 10.216 25.933
4519 1 43.2216 11.7877 27.5047
4520 1 41.6499 10.216 29.0764
4521 1 43.2216 11.7877 30.6481
4522 1 41.6499 10.216 32.2197
4523 1 43.2216 11.7877 33.7914
4524 1 41.6499 10.216 35.3631
4525 1 43.2216 11.7877 36.9348
4526 1 41.6499 10.216 38.5065
4527 1 43.2216 11.7877 40.0782
4528 1 41.6499 10.216 41.6499
4529 1 43.2216 11.7877 43.2216
4530 1 41.6499 10.216 44.7933
4531 1 43.2216 11.7877 46.365
4532 1 41.6499 10.216 47.9367
4533 1 43.2216 11.7877 49.5084
4534 1 41.6499 13.3594 0.7858
4535 1 43.2216 14.9311 2.3575
4536 1 41.6499 13.3594 3.9292
4537 1 43.2216 14.9311 5.5009
4538 1 41.6499 13.3594 7.0726
4539 1 43.2216 14.9311 8.6443
4540 1 41.6499 13.3594 10.216
4541 1 43.2216 14.9311 11.7877
4542 1 41.6499 13.3594 13.3594
4543 1 43.2216 14.9311 14.9311
4544 1 41.6499 13.3594 16.5028
4545 1 43.2216 14.9311 18.0745
4546 1 41.6499 13.3594 19.6462
4547 1 43.2216 14.9311 21.2179
4548 1 41.6499 13.3594 22.7896
4549 1 43.2216 14.9311 24.3613
4550 1 41.6499 13.3594 25.933
4551 1 43.2216 14.9311 27.5047
4552 1 41.6499 13.3594 29.0764
4553 1 43.2216 14.9311 30.6481
4554 1 41.6499 13.3594 32.2197
4555 1 43.2216 14.9311 33.7914
4556 1 41.6499 13.3594 35.3631
4557 1 43.2216 14.9311 36.9348
4558 1 41.6499 13.3594 38.5065
4559 1 43.2216 14.9311 40.0782
4560 1 41.6499 13.3594 41.6499
4561 1 43.2216 14.9311 43.2216
4562 1 41.6499 13.3594 44.7933
4563 1 43.2216 14.9311 46.365
4564 1 41.6499 13.3594 47.9367
4565 1 43.2216 14.9311 49.5084
4566 1 41.6499 16.5028 0.7858
4567 1 43.2216 18.0745 2.3575
4568 1 41.6499 16.5028 3.9292
4569 1 43.2216 18.0745 5.5009
4570 1 41.6499 16.5028 7.0726
4571 1 43.2216 18.0745 8.6443
4572 1 41.6499 16.5028 10.216
4573 1 43.2216 18.0745 11.7877
4574 1 41.6499 16.5028 13.3594
4575 1 43.2216 18.0745 14.9311
4576 1 41.6499 16.5028 16.5028
4577 1 43.2216 18.0745 18.0745
4578 1 41.6499 16.5028 19.6462
4579 1 43.2216 18.0745 21.2179
4580 1 41.6499 16.5028 22.7896
4581 1 43.2216 18.0745 24.3613
4582 1 41.6499 16.5028 25.933
4583 1 43.2216 18.0745 27.5047
4584 1 41.6499 16.5028 29.0764
4585 1 43.2216 18.0745 30.6481
4586 1 41.6499 16.5028 32.2197
4587 1 43.2216 18.0745 33.7914
4588 1 41.6499 16.5028 35.3631
4589 1 43.2216 18.0745 36.9348
4590 1 41.6499 16.5028 38.5065
4591 1 43.2216 18.0745 40.0782
4592 1 41.6499 16.5028 41.6499
4593 1 43.2216 18.0745 43.2216
4594 1 41.6499 16.5028 44.7933
4595 1 43.2216 18.0745 46.365
4596 1 41.6499 16.5028 47.9367
4597 1 43.2216 18.0745 49.5084
4598 1 41.6499 19.6462 0.7858
4599 1 43.2216 21.2179 2.3575
4600 1 41.6499 19.6462 3.9292
4601 1 43.2216 21.2179 5.5009
4602 1 41.6499 19.6462 7.0726
4603 1 43.2216 21.2179 8.6443
4604 1 41.6499 19.6462 10.216
4605 1 43.2216 21.2179 11.7877
4606 1 41.6499 19.6462 13.3594
4607 1 43.2216 21.2179 14.9311
4608 1 41.6499 19.6462 16.5028
4609 1 43.2216 21.2179 18.0745
4610 1 41.6499 19.6462 19.6462
4611 1 43.2216 21.2179 21.2179
4612 1 41.6499 19.6462 22.7896
4613 1 43.2216 21.2179 24.3613
4614 1 41.6499 19.6462 25.933
4615 1 43.2216 21.2179 27.5047
4616 1 41.6499 19.6462 29.0764
4617 1 43.2216 21.2179 30.6481
4618 1 41.6499 19.6462 32.2197
4619 1 43.2216 21.2179 33.7914
4620 1 41.6499 19.6462 35.3631
4621 1 43.2216 21.2179 36.9348
4622 1 41.6499 19.6462 38.5065
4623 1 43.2216 21.2179 40.0782
4624 1 41.6499 19.6462 41.6499
4625 1 43.2216 21.2179 43.2216
4626 1 41.6499 19.6462 44.7933
4627 1 43.2216 21.2179 46.365
4628 1 41.6499 19.6462 47.9367
4629 1 43.2216 21.2179 49.5084
4630 1 41.6499 22.7896 0.7858
4631 1 43.2216 24.3613 2.3575
4632 1 41.6499 22.7896 3.9292
4633 1 43.2216 24.3613 5.5009
4634 1 41.6499 22.7896 7.0726
4635 1 43.2216 24.3613 8.6443
4636 1 41.6499 22.7896 10.216
4637 1 43.2216 24.3613 11.7877
4638 1 41.6499 22.7896 13.3594
4639 1 43.2216 24.3613 14.9311
4640 1 41.6499 22.7896 16.5028
4641 1 43.2216 24.3613 18.0745
4642 1 41.6499 22.7896 19.6462
4643 1 43.2216 24.3613 21.2179
4644 1 41.6499 22.7896 22.7896
4645 1 43.2216 24.3613 24.3613
4646 1 41.6499 22.7896 25.933
4647 1 43.2216 24.3613 27.5047
4648 1 41.6499 22.7896 29.0764
4649 1 43.2216 24.3613 30.6481
4650 1 41.6499 22.7896 32.2197
4651 1 43.2216 24.3613 33.7914
4652 1 41.6499 22.7896 35.3631
4653 1 43.2216 24.3613 36.9348
4654 1 41.6499 22.7896 38.5065
4655 1 43.2216 24.3613 40.0782
4656 1 41.6499 22.7896 41.6499
4657 1 43.2216 24.3613 43.2216
4658 1 41.6499 22.7896 44.7933
4659 1 43.2216 24.3613 46.365
4660 1 41.6499 22.7896 47.9367
4661 1 43.2216 24.3613 49.5084
4662 1 41.6499 25.933 0.7858
4663 1 43.2216 27.5047 2.3575
4664 1 41.6499 25.933 3.9292
4665 1 43.2216 27.5047 5.5009
4666 1 41.6499 25.933 7.0726
4667 1 43.2216 27.5047 8.6443
4668 1 41.6499 25.933 10.216
4669 1 43.2216 27.5047 11.7877
4670 1 41.6499 25.933 13.3594
4671 1 43.2216 27.5047 14.9311
4672 1 41.6499 25.933 16.5028
4673 1 43.2216 27.5047 18.0745
4674 1 41.6499 25.933 19.6462
4675 1 43.2216 27.5047 21.2179
4676 1 41.6499 25.933 22.7896
4677 1 43.2216 27.5047 24.3613
4678 1 41.6499 25.933 25.933
4679 1 43.2216 27.5047 27.5047
4680 1 41.6499 25.933 29.0764
4681 1 43.2216 27.5047 30.6481
4682 1 41.6499 25.933 32.2197
4683 1 43.2216 27.5047 33.7914
4684 1 41.6499 25.933 35.3631
4685 1 43.2216 27.5047 36.9348
4686 1 41.6499 25.933 38.5065
4687 1 43.2216 27.5047 40.0782
4688 1 41.6499 25.933 41.6499
4689 1 43.2216 27.5047 43.2216
4690 1 41.6499 25.933 44.7933
4691 1 43.2216 27.5047 46.365
4692 1 41.6499 25.933 47.9367
4693 1 43.2216 27.5047 49.5084
4694 1 41.6499 29.0764 0.7858
4695 1 43.2216 30.6481 2.3575
4696 1 41.6499 29.0764 3.9292
4697 1 43.2216 30.6481 5.5009
4698 1 41.6499 29.0764 7.0726
4699 1 43.2216 30.6481 8.6443
4700 1 41.6499 29.0764 10.216
4701 1 43.2216 30.6481 11.7877
4702 1 41.6499 29.0764 13.3594
4703 1 43.2216 30.6481 14.9311
4704 1 41.6499 29.0764 16.5028
4705 1 43.2216 30.6481 18.0745
4706 1 41.6499 29.0764 19.6462
4707 1 43.2216 30.6481 21.2179
4708 1 41.6499 29.0764 22.7896
4709 1 43.2216 30.6481 24.3613
4710 1 41.6499 29.0764 25.933
4711 1 43.2216 30.6481 27.5047
4712 1 41.6499 29.0764 29.0764
4713 1 43.2216 30.6481 30.6481
4714 1 41.6499 29.0764 32.2197
4715 1 43.2216 30.6481 33.7914
4716 1 41.6499 29.0764 35.3631
4717 1 43.2216 30.6481 36.9348
4718 1 41.6499 29.0764 38.5065
4719 1 43.2216 30.6481 40.0782
4720 1 41.6499 29.0764 41.6499
4721 1 43.2216 30.6481 43.2216
4722 1 41.6499 29.0764 44.7933
4723 1 43.2216 30.6481 46.365
4724 1 41.6499 29.0764 47.9367
4725 1 43.2216 30.6481 49.5084
4726 1 41.6499 32.2197 0.7858
4727 1 43.2216 33.7914 2.3575
4728 1 41.6499 32.2197 3.9292
4729 1 43.2216 33.7914 5.5009
4730 1 41.6499 32.2197 7.0726
4731 1 43.2216 33.7914 8.6443
4732 1 41.6499 32.2197 10.216
4733 1 43.2216 33.7914 11.7877
4734 1 41.6499 32.2197 13.3594
4735 1 43.2216 33.7914 14.9311
4736 1 41.6499 32.2197 16.5028
4737 1 43.2216 33.7914 18.0745
4738 1 41.6499 32.2197 19.6462
4739 1 43.2216 33.7914 21.2179
4740 1 41.6499 32.2197 22.7896
4741 1 43.2216 33.7914 24.3613
4742 1 41.6499 32.2197 25.933
4743 1 43.2216 33.7914 27.5047
4744 1 41.6499 32.2197 29.0764
4745 1 43.2216 33.7914 30.6481
4746 1 41.6499 32.2197 32.2197
4747 1 43.2216 33.7914 33.7914
4748 1 41.6499 32.2197 35.3631
4749 1 43.2216 33.7914 36.9348
4750 1 41.6499 32.2197 38.5065
4751 1 43.2216 33.7914 40.0782
4752 1 41.6499 32.2197 41.6499
4753 1 43.2216 33.7914 43.2216
4754 1 41.6499 32.2197 44.7933
4755 1 43.2216 33.7914 46.365
4756 1 41.6499 32.2197 47.9367
4757 1 43.2216 33.7914 49.5084
4758 1 41.6499 35.3631 0.7858
4759 1 43.2216 36.9348 2.3575
4760 1 41.6499 35.3631 3.9292
4761 1 43.2216 36.9348 5.5009
4762 1 41.6499 35.3631 7.0726
4763 1 43.2216 36.9348 8.6443
4764 1 41.6499 35.3631 10.216
4765 1 43.2216 36.9348 11.7877
4766 1 41.6499 35.3631 13.3594
4767 1 43.2216 36.9348 14.9311
4768 1 41.6499 35.3631 16.5028
4769 1 43.2216 36.9348 18.0745
4770 1 41.6499 35.3631 19.6462
4771 1 43.2216 36.9348 21.2179
4772 1 41.6499 35.3631 22.7896
4773 1 43.2216 36.9348 24.3613
4774 1 41.6499 35.3631 25.933
4775 1 43.2216 36.9348 27.5047
4776 1 41.6499 35.3631 29.0764
4777 1 43.2216 36.9348 30.6481
4778 1 41.6499 35.3631 32.2197
4779 1 43.2216 36.9348 33.7914
4780 1 41.6499 35.3631 35.3631
4781 1 43.2216 36.9348 36.9348
4782 1 41.6499 35.3631 38.5065
4783 1 43.2216 36.9348 40.0782
4784 1 41.6499 35.3631 41.6499
4785 1 43.2216 36.9348 43.2216
4786 1 41.6499 35.3631 44.7933
4787 1 43.2216 36.9348 46.365
4788 1 41.6499 35.3631 47.9367
4789 1 43.2216 36.9348 49.5084
4790 1 41.6499 38.5065 0.7858
4791 1 43.2216 40.0782 2.3575
4792 1 41.6499 38.5065 3.9292
4793 1 43.2216 40.0782 5.5009
4794 1 41.6499 38.5065 7.0726
4795 1 43.2216 40.0782 8.6443
4796 1 41.6499 38.5065 10.216
4797 1 43.2216 40.0782 11.7877
4798 1 41.6499 38.5065 13.3594
4799 1 43.2216 40.0782 14.9311
4800 1 41.6499 38.5065 16.5028
4801 1 43.2216 40.0782 18.0745
4802 1 41.6499 38.5065 19.6462
4803 1 43.2216 40.0782 21.2179
4804 1 41.6499 38.5065 22.7896
4805 1 43.2216 40.0782 24.3613
4806 1 41.6499 38.5065 25.933
4807 1 43.2216 40.0782 27.5047
4808 1 41.6499 38.5065 29.0764
4809 1 43.2216 40.0782 30.6481
4810 1 41.6499 38.5065 32.2197
4811 1 43.2216 40.0782 33.7914
4812 1 41.6499 38.5065 35.3631
4813 1 43.2216 40.0782 36.9348
4814 1 41.6499 38.5065 38.5065
4815 1 43.2216 40.0782 40.0782
4816 1 41.6499 38.5065 41.6499
4817 1 43.2216 40.0782 43.2216
4818 1 41.6499 38.5065 44.7933
4819 1 43.2216 40.0782 46.365
4820 1 41.6499 38.5065 47.9367
4821 1 43.2216 40.0782 49.5084
4822 1 41.6499 41.6499 0.7858
4823 1 43.2216 43.2216 2.3575
4824 1 41.6499 41.6499 3.9292
4825 1 43.2216 43.2216 5.5009
4826 1 41.6499 41.6499 7.0726
4827 1 43.2216 43.2216 8.6443
4828 1 41.6499 41.6499 10.216
4829 1 43.2216 43.2216 11.7877
4830 1 41.6499 41.6499 13.3594
4831 1 43.2216 43.2216 14.9311
4832 1 41.6499 41.6499 16.5028
4833 1 43.2216 43.2216 18.0745
4834 1 41.6499 41.6499 19.6462
4835 1 43.2216 43.2216 21.2179
4836 1 41.6499 41.6499 22.7896
4837 1 43.2216 43.2216 24.3613
4838 1 41.6499 41.6499 25.933
4839 1 43.2216 43.2216 27.5047
4840 1 41.6499 41.6499 29.0764
4841 1 43.2216 43.2216 30.6481
4842 1 41.6499 41.6499 32.2197
4843 1 43.2216 43.2216 33.7914
4844 1 41.6499 41.6499 35.3631
4845 1 43.2216 43.2216 36.9348
4846 1 41.6499 41.6499 38.5065
4847 1 43.2216 43.2216 40.0782
4848 1 41.6499 41.6499 41.6499
4849 1 43.2216 43.2216 43.2216
4850 1 41.6499 41.6499 44.7933
4851 1 43.2216 43.2216 46.365
4852 1 41.6499 41.6499 47.9367
4853 1 43.2216 43.2216 49.5084
4854 1 41.6499 44.7933 0.7858
4855 1 43.2216 46.365 2.3575
4856 1 41.6499 44.7933 3.9292
4857 1 43.2216 46.365 5.5009
4858 1 41.6499 44.7933 7.0726
4859 1 43.2216 46.365 8.6443
4860 1 41.6499 44.7933 10.216
4861 1 43.2216 46.365 11.7877
4862 1 41.6499 44.7933 13.3594
4863 1 43.2216 46.365 14.9311
4864 1 41.6499 44.7933 16.5028
4865 1 43.2216 46.365 18.0745
4866 1 41.6499 44.7933 19.6462
4867 1 43.2216 46.365 21.2179
4868 1 41.6499 44.7933 22.7896
4869 1 43.2216 46.365 24.3613
4870 1 41.6499 44.7933 25.933
4871 1 43.2216 46.365 27.5047
4872 1 41.6499 44.7933 29.0764
4873 1 43.2216 46.365 30.6481
4874 1 41.6499 44.7933 32.2197
4875 1 43.2216 46.365 33.7914
4876 1 41.6499 44.7933 35.3631
4877 1 43.2216 46.365 36.9348
4878 1 41.6499 44.7933 38.5065
4879 1 43.2216 46.365 40.0782
4880 1 41.6499 44.7933 41.6499
4881 1 43.2216 46.365 43.2216
4882 1 41.6499 44.7933 44.7933
4883 1 43.2216 46.365 46.365
4884 1 41.6499 44.7933 47.9367
4885 1 43.2216 46.365 49.5084
4886 1 41.6499 47.9367 0.7858
4887 1 43.2216 49.5084 2.3575
4888 1 41.6499 47.9367 3.9292
4889 1 43.2216 49.5084 5.5009
4890 1 41.6499 47.9367 7.0726
4891 1 43.2216 49.5084 8.6443
4892 1 41.6499 47.9367 10.216
4893 1 43.2216 49.5084 11.7877
4894 1 41.6499 47.9367 13.3594
4895 1 43.2216 49.5084 14.9311
4896 1 41.6499 47.9367 16.5028
4897 1 43.2216 49.5084 18.0745
4898 1 41.6499 47.9367 19.6462
4899 1 43.2216 49.5084 21.2179
4900 1 41.6499 47.9367 22.7896
4901 1 43.2216 49.5084 24.3613
4902 1 41.6499 47.9367 25.933
4903 1 43.2216 49.5084 27.5047
4904 1 41.6499 47.9367 29.0764
4905 1 43.2216 49.5084 30.6481
4906 1 41.6499 47.9367 32.2197
4907 1 43.2216 49.5084 33.7914
4908 1 41.6499 47.9367 35.3631
4909 1 43.2216 49.5084 36.9348
4910 1 41.6499 47.9367 38.5065
4911 1 43.2216 49.5084 40.0782
4912 1 41.6499 47.9367 41.6499
4913 1 43.2216 49.5084 43.2216
4914 1 41.6499 47.9367 44.7933
4915 1 43.2216 49.5084 46.365
4916 1 41.6499 47.9367 47.9367
4917 1 43.2216 49.5084 49.5084
4918 1 44.7933 0.7858 0.7858
4919 1 46.365 2.3575 2.3575
4920 1 44.7933 0.7858 3.9292
4921 1 46.365 2.3575 5.5009
4922 1 44.7933 0.7858 7.0726
4923 1 46.365 2.3575 8.6443
4924 1 44.7933 0.7858 10.216
4925 1 46.365 2.3575 11.7877
4926 1 44.7933 0.7858 13.3594
4927 1 46.365 2.3575 14.9311
4928 1 44.7933 0.7858 16.5028
4929 1 46.365 2.3575 18.0745
4930 1 44.7933 0.7858 19.6462
4931 1 46.365 2.3575 21.2179
4932 1 44.7933 0.7858 22.7896
4933 1 46.365 2.3575 24.3613
4934 1 44.7933 0.7858 25.933
4935 1 46.365 2.3575 27.5047
4936 1 44.7933 0.7858 29.0764
4937 1 46.365 2.3575 30.6481
4938 1 44.7933 0.7858 32.2197
4939 1 46.365 2.3575 33.7914
4940 1 44.7933 0.7858 35.3631
4941 1 46.365 2.3575 36.9348
4942 1 44.7933 0.7858 38.5065
4943 1 46.365 2.3575 40.0782
4944 1 44.7933 0.7858 41.6499
4945 1 46.365 2.3575 43.2216
4946 1 44.7933 0.7858 44.7933
4947 1 46.365 2.3575 46.365
4948 1 44.7933 0.7858 47.9367
4949 1 46.365 2.3575 49.5084
4950 1 44.7933 3.9292 0.7858
4951 1 46.365 5.5009 2.3575
4952 1 44.7933 3.9292 3.9292
4953 1 46.365 5.5009 5.5009
4954 1 44.7933 3.9292 7.0726
4955 1 46.365 5.5009 8.6443
4956 1 44.7933 3.9292 10.216
4957 1 46.365 5.5009 11.7877
4958 1 44.7933 3.9292 13.3594
4959 1 46.365 5.5009 14.9311
4960 1 44.7933 3.9292 16.5028
4961 1 46.365 5.5009 18.0745
4962 1 44.7933 3.9292 19.6462
4963 1 46.365 5.5009 21.2179
4964 1 44.7933 3.9292 22.7896
4965 1 46.365 5.5009 24.3613
4966 1 44.7933 3.9292 25.933
4967 1 46.365 5.5009 27.5047
4968 1 44.7933 3.9292 29.0764
4969 1 46.365 5.5009 30.6481
4970 1 44.7933 3.9292 32.2197
4971 1 46.365 5.5009 33.7914
4972 1 44.7933 3.9292 35.3631
4973 1 46.365 5.5009 36.9348
4974 1 44.7933 3.9292 38.5065
4975 1 46.365 5.5009 40.0782
4976 1 44.7933 3.9292 41.6499
4977 1 46.365 5.5009 43.2216
4978 1 44.7933 3.9292 44.7933
4979 1 46.365 5.5009 46.365
4980 1 44.7933 3.9292 47.9367
4981 1 46.365 5.5009 49.5084
4982 1 44.7933 7.0726 0.7858
4983 1 46.365 8.6443 2.3575
4984 1 44.7933 7.0726 3.9292
4985 1 46.365 8.6443 5.5009
4986 1 44.7933 7.0726 7.0726
4987 1 46.365 8.6443 8.6443
4988 1 44.7933 7.0726 10.216
4989 1 46.365 8.6443 11.7877
4990 1 44.7933 7.0726 13.3594
4991 1 46.365 8.6443 14.9311
4992 1 44.7933 7.0726 16.5028
4993 1 46.365 8.6443 18.0745
4994 1 44.7933 7.0726 19.6462
4995 1 46.365 8.6443 21.2179
4996 1 44.7933 7.0726 22.7896
4997 1 46.365 8.6443 24.3613
4998 1 44.7933 7.0726 25.933
4999 1 46.365 8.6443 27.5047
5000 1 44.7933 7.0726 29.0764
5001 1 46.365 8.6443 30.6481
5002 1 44.7933 7.0726 32.2197
5003 1 46.365 8.6443 33.7914
5004 1 44.7933 7.0726 35.3631
5005 1 46.365 8.6443 36.9348
5006 1 44.7933 7.0726 38.5065
5007 1 46.365 8.6443 40.0782
5008 1 44.7933 7.0726 41.6499
5009 1 46.365 8.6443 43.2216
5010 1 44.7933 7.0726 44.7933
5011 1 46.365 8.6443 46.365
5012 1 44.7933 7.0726 47.9367
5013 1 46.365 8.6443 49.5084
5014 1 44.7933 10.216 0.7858
5015 1 46.365 11.7877 2.3575
5016 1 44.7933 10.216 3.9292
5017 1 46.365 11.7877 5.5009
5018 1 44.7933 10.216 7.0726
5019 1 46.365 11.7877 8.6443
5020 1 44.7933 10.216 10.216
5021 1 46.365 11.7877 11.7877
5022 1 44.7933 10.216 13.3594
5023 1 46.365 11.7877 14.9311
5024 1 44.7933 10.216 16.5028
5025 1 46.365 11.7877 18.0745
5026 1 44.7933 10.216 19.6462
5027 1 46.365 11.7877 21.2179
5028 1 44.7933 10.216 22.7896
5029 1 46.365 11.7877 24.3613
5030 1 44.7933 10.216 25.933
5031 1 46.365 11.7877 27.5047
5032 1 44.7933 10.216 29.0764
5033 1 46.365 11.7877 30.6481
5034 1 44.7933 10.216 32.2197
5035 1 46.365 11.7877 33.7914
5036 1 44.7933 10.216 35.3631
5037 1 46.365 11.7877 36.9348
5038 1 44.7933 10.216 38.5065
5039 1 46.365 11.7877 40.0782
5040 1 44.7933 10.216 41.6499
5041 1 46.365 11.7877 43.2216
5042 1 44.7933 10.216 44.7933
5043 1 46.365 11.7877 46.365
5044 1 44.7933 10.216 47.9367
5045 1 46.365 11.7877 49.5084
5046 1 44.7933 13.3594 0.7858
5047 1 46.365 14.9311 2.3575
5048 1 44.7933 13.3594 3.9292
5049 1 46.365 14.9311 5.5009
5050 1 44.7933 13.3594 7.0726
5051 1 46.365 14.9311 8.6443
5052 1 44.7933 13.3594 10.216
5053 1 46.365 14.9311 11.7877
5054 1 44.7933 13.3594 13.3594
5055 1 46.365 14.9311 14.9311
5056 1 44.7933 13.3594 16.5028
5057 1 46.365 14.9311 18.0745
5058 1 44.7933 13.3594 19.6462
5059 1 46.365 14.9311 21.2179
5060 1 44.7933 13.3594 22.7896
5061 1 46.365 14.9311 24.3613
5062 1 44.7933 13.3594 25.933
5063 1 46.365 14.9311 27.5047
5064 1 44.7933 13.3594 29.0764
5065 1 46.365 14.9311 30.6481
5066 1 44.7933 13.3594 32.2197
5067 1 46.365 14.9311 33.7914
5068 1 44.7933 13.3594 35.3631
5069 1 46.365 14.9311 36.9348
5070 1 44.7933 13.3594 38.5065
5071 1 46.365 14.9311 40.0782
5072 1 44.7933 13.3594 41.6499
5073 1 46.365 14.9311 43.2216
5074 1 44.7933 13.3594 44.7933
5075 1 46.365 14.9311 46.365
5076 1 44.7933 13.3594 47.9367
5077 1 46.365 14.9311 49.5084
5078 1 44.7933 16.5028 0.7858
5079 1 46.365 18.0745 2.3575
5080 1 44.7933 16.5028 3.9292
5081 1 46.365 18.0745 5.5009
5082 1 44.7933 16.5028 7.0726
5083 1 46.365 18.0745 8.6443
5084 1 44.7933 16.5028 10.216
5085 1 46.365 18.0745 11.7877
5086 1 44.7933 16.5028 13.3594
5087 1 46.365 18.0745 14.9311
5088 1 44.7933 16.5028 16.5028
5089 1 46.365 18.0745 18.0745
5090 1 44.7933 16.5028 19.6462
5091 1 46.365 18.0745 21.2179
5092 1 44.7933 16.5028 22.7896
5093 1 46.365 18.0745 24.3613
5094 1 44.7933 16.5028 25.933
5095 1 46.365 18.0745 27.5047
5096 1 44.7933 16.5028 29.0764
5097 1 46.365 18.0745 30.6481
5098 1 44.7933 16.5028 32.2197
5099 1 46.365 18.0745 33.7914
5100 1 44.7933 16.5028 35.3631
5101 1 46.365 18.0745 36.9348
5102 1 44.7933 16.5028 38.5065
5103 1 46.365 18.0745 40.0782
5104 1 44.7933 16.5028 41.6499
5105 1 46.365 18.0745 43.2216
5106 1 44.7933 16.5028 44.7933
5107 1 46.365 18.0745 46.365
5108 1 44.7933 16.5028 47.9367
5109 1 46.365 18.0745 49.5084
5110 1 44.7933 19.6462 0.7858
5111 1 46.365 21.2179 2.3575
5112 1 44.7933 19.6462 3.9292
5113 1 46.365 21.2179 5.5009
5114 1 44.7933 19.6462 7.0726
5115 1 46.365 21.2179 8.6443
5116 1 44.7933 19.6462 10.216
5117 1 46.365 21.2179 11.7877
5118 1 44.7933 19.6462 13.3594
5119 1 46.365 21.2179 14.9311
5120 1 44.7933 19.6462 16.5028
5121 1 46.365 21.2179 18.0745
5122 1 44.7933 19.6462 19.6462
5123 1 46.365 21.2179 21.2179
5124 1 44.7933 19.6462 22.7896
5125 1 46.365 21.2179 24.3613
5126 1 44.7933 19.6462 25.933
5127 1 46.365 21.2179 27.5047
5128 1 44.7933 19.6462 29.0764
5129 1 46.365 21.2179 30.6481
5130 1 44.7933 19.6462 32.2197
5131 1 46.365 21.2179 33.7914
5132 1 44.7933 19.6462 35.3631
5133 1 46.365 21.2179 36.9348
5134 1 44.7933 19.6462 38.5065
5135 1 46.365 21.2179 40.0782
5136 1 44.7933 19.6462 41.6499
5137 1 46.365 21.2179 43.2216
5138 1 44.7933 19.6462 44.7933
5139 1 46.365 21.2179 46.365
5140 1 44.7933 19.6462 47.9367
5141 1 46.365 21.2179 49.5084
5142 1 44.7933 22.7896 0.7858
5143 1 46.365 24.3613 2.3575
5144 1 44.7933 22.7896 3.9292
5145 1 46.365 24.3613 5.5009
5146 1 44.7933 22.7896 7.0726
5147 1 46.365 24.3613 8.6443
5148 1 44.7933 22.7896 10.216
5149 1 46.365 24.3613 11.7877
5150 1 44.7933 22.7896 13.3594
5151 1 46.365 24.3613 14.9311
5152 1 44.7933 22.7896 16.5028
5153 1 46.365 24.3613 18.0745
5154 1 44.7933 22.7896 19.6462
5155 1 46.365 24.3613 21.2179
5156 1 44.7933 22.7896 22.7896
5157 1 46.365 24.3613 24.3613
5158 1 44.7933 22.7896 25.933
5159 1 46.365 24.3613 27.5047
5160 1 44.7933 22.7896 29.0764
5161 1 46.365 24.3613 30.6481
5162 1 44.7933 22.7896 32.2197
5163 1 46.365 24.3613 33.7914
5164 1 44.7933 22.7896 35.3631
5165 1 46.365 24.3613 36.9348
5166 1 44.7933 22.7896 38.5065
5167 1 46.365 24.3613 40.0782
5168 1 44.7933 22.7896 41.6499
5169 1 46.365 24.3613 43.2216
5170 1 44.7933 22.7896 44.7933
5171 1 46.365 24.3613 46.365
5172 1 44.7933 22.7896 47.9367
5173 1 46.365 24.3613 49.5084
5174 1 44.7933 25.933 0.7858
5175 1 46.365 27.5047 2.3575
5176 1 44.7933 25.933 3.9292
5177 1 46.365 27.5047 5.5009
5178 1 44.7933 25.933 7.0726
5179 1 46.365 27.5047 8.6443
5180 1 44.7933 25.933 10.216
5181 1 46.365 27.5047 11.7877
5182 1 44.7933 25.933 13.3594
5183 1 46.365 27.5047 14.9311
5184 1 44.7933 25.933 16.5028
5185 1 46.365 27.5047 18.0745
5186 1 44.7933 25.933 19.6462
5187 1 46.365 27.5047 21.2179
5188 1 44.7933 25.933 22.7896
5189 1 46.365 27.5047 24.3613
5190 1 44.7933 25.933 25.933
5191 1 46.365 27.5047 27.5047
5192 1 44.7933 25.933 29.0764
5193 1 46.365 27.5047 30.6481
5194 1 44.7933 25.933 32.2197
5195 1 46.365 27.5047 33.7914
5196 1 44.7933 25.933 35.3631
5197 1 46.365 27.5047 36.9348
5198 1 44.7933 25.933 38.5065
5199 1 46.365 27.5047 40.0782
5200 1 44.7933 25.933 41.6499
5201 1 46.365 27.5047 43.2216
5202 1 44.7933 25.933 44.7933
5203 1 46.365 27.5047 46.365
5204 1 44.7933 25.933 47.9367
5205 1 46.365 27.5047 49.5084
5206 1 44.7933 29.0764 0.7858
5207 1 46.365 30.6481 2.3575
5208 1 44.7933 29.0764 3.9292
5209 1 46.365 30.6481 5.5009
5210 1 44.7933 29.0764 7.0726
5211 1 46.365 30.6481 8.6443
5212 1 44.7933 29.0764 10.216
5213 1 46.365 30.6481 11.7877
5214 1 44.7933 29.0764 13.3594
5215 1 46.365 30.6481 14.9311
5216 1 44.7933 29.0764 16.5028
5217 1 46.365 30.6481 18.0745
5218 1 44.7933 29.0764 19.6462
5219 1 46.365 30.6481 21.2179
5220 1 44.7933 29.0764 22.7896
5221 1 46.365 30.6481 24.3613
5222 1 44.7933 29.0764 25.933
5223 1 46.365 30.6481 27.5047
5224 1 44.7933 29.0764 29.0764
5225 1 46.365 30.6481 30.6481
5226 1 44.7933 29.0764 32.2197
5227 1 46.365 30.6481 33.7914
5228 1 44.7933 29.0764 35.3631
5229 1 46.365 30.6481 36.9348
5230 1 44.7933 29.0764 38.5065
5231 1 46.365 30.6481 40.0782
5232 1 44.7933 29.0764 41.6499
5233 1 46.365 30.6481 43.2216
5234 1 44.7933 29.0764 44.7933
5235 1 46.365 30.6481 46.365
5236 1 44.7933 29.0764 47.9367
5237 1 46.365 30.6481 49.5084
5238 1 44.7933 32.2197 0.7858
5239 1 46.365 33.7914 2.3575
5240 1 44.7933 32.2197 3.9292
5241 1 46.365 33.7914 5.5009
5242 1 44.7933 32.2197 7.0726
5243 1 46.365 33.7914 8.6443
5244 1 44.7933 32.2197 10.216
5245 1 46.365 33.7914 11.7877
5246 1 44.7933 32.2197 13.3594
5247 1 46.365 33.7914 14.9311
5248 1 44.7933 32.2197 16.5028
5249 1 46.365 33.7914 18.0745
5250 1 44.7933 32.2197 19.6462
5251 1 46.365 33.7914 21.2179
5252 1 44.7933 32.2197 22.7896
5253 1 46.365 33.7914 24.3613
5254 1 44.7933 32.2197 25.933
5255 1 46.365 33.7914 27.5047
5256 1 44.7933 32.2197 29.0764
5257 1 46.365 33.7914 30.6481
5258 1 44.7933 32.2197 32.2197
5259 1 46.365 33.7914 33.7914
5260 1 44.7933 32.2197 35.3631
5261 1 46.365 33.7914 36.9348
5262 1 44.7933 32.2197 38.5065
5263 1 46.365 33.7914 40.0782
5264 1 44.7933 32.2197 41.6499
5265 1 46.365 33.7914 43.2216
5266 1 44.7933 32.2197 44.7933
5267 1 46.365 33.7914 46.365
5268 1 44.7933 32.2197 47.9367
5269 1 46.365 33.7914 49.5084
5270 1 44.7933 35.3631 0.7858
5271 1 46.365 36.9348 2.3575
5272 1 44.7933 35.3631 3.9292
5273 1 46.365 36.9348 5.5009
5274 1 44.7933 35.3631 7.0726
5275 1 46.365 36.9348 8.6443
5276 1 44.7933 35.3631 10.216
5277 1 46.365 36.9348 11.7877
5278 1 44.7933 35.3631 13.3594
5279 1 46.365 36.9348 14.9311
5280 1 44.7933 35.3631 16.5028
5281 1 46.365 36.9348 18.0745
5282 1 44.7933 35.3631 19.6462
5283 1 46.365 36.9348 21.2179
5284 1 44.7933 35.3631 22.7896
5285 1 46.365 36.9348 24.3613
5286 1 44.7933 35.3631 25.933
5287 1 46.365 36.9348 27.5047
5288 1 44.7933 35.3631 29.0764
5289 1 46.365 36.9348 30.6481
5290 1 44.7933 35.3631 32.2197
5291 1 46.365 36.9348 33.7914
5292 1 44.7933 35.3631 35.3631
5293 1 46.365 36.9348 36.9348
5294 1 44.7933 35.3631 38.5065
5295 1 46.365 36.9348 40.0782
5296 1 44.7933 35.3631 41.6499
5297 1 46.365 36.9348 43.2216
5298 1 44.7933 35.3631 44.7933
5299 1 46.365 36.9348 46.365
5300 1 44.7933 35.3631 47.9367
5301 1 46.365 36.9348 49.5084
5302 1 44.7933 38.5065 0.7858
5303 1 46.365 40.0782 2.3575
5304 1 44.7933 38.5065 3.9292
5305 1 46.365 40.0782 5.5009
5306 1 44.7933 38.5065 7.0726
5307 1 46.365 40.0782 8.6443
5308 1 44.7933 38.5065 10.216
5309 1 46.365 40.0782 11.7877
5310 1 44.7933 38.5065 13.3594
5311 1 46.365 40.0782 14.9311
5312 1 44.7933 38.5065 16.5028
5313 1 46.365 40.0782 18.0745
5314 1 44.7933 38.5065 19.6462
5315 1 46.365 40.0782 21.2179
5316 1 44.7933 38.5065 22.7896
5317 1 46.365 40.0782 24.3613
5318 1 44.7933 38.5065 25.933
5319 1 46.365 40.0782 27.5047
5320 1 44.7933 38.5065 29.0764
5321 1 46.365 40.0782 30.6481
5322 1 44.7933 38.5065 32.2197
5323 1 46.365 40.0782 33.7914
5324 1 44.7933 38.5065 35.3631
5325 1 46.365 40.0782 36.9348
5326 1 44.7933 38.5065 38.5065
5327 1 46.365 40.0782 40.0782
5328 1 44.7933 38.5065 41.6499
5329 1 46.365 40.0782 43.2216
5330 1 44.7933 38.5065 44.7933
5331 1 46.365 40.0782 46.365
5332 1 44.7933 38.5065 47.9367
5333 1 46.365 40.0782 49.5084
5334 1 44.7933 41.6499 0.7858
5335 1 46.365 43.2216 2.3575
5336 1 44.7933 41.6499 3.9292
5337 1 46.365 43.2216 5.5009
5338 1 44.7933 41.6499 7.0726
5339 1 46.365 43.2216 8.6443
5340 1 44.7933 41.6499 10.216
5341 1 46.365 43.2216 11.7877
5342 1 44.7933 41.6499 13.3594
5343 1 46.365 43.2216 14.9311
5344 1 44.7933 41.6499 16.5028
5345 1 46.365 43.2216 18.0745
5346 1 44.7933 41.6499 19.6462
5347 1 46.365 43.2216 21.2179
5348 1 44.7933 41.6499 22.7896
5349 1 46.365 43.2216 24.3613
5350 1 44.7933 41.6499 25.933
5351 1 46.365 43.2216 27.5047
5352 1 44.7933 41.6499 29.0764
5353 1 46.365 43.2216 30.6481
5354 1 44.7933 41.6499 32.2197
5355 1 46.365 43.2216 33.7914
5356 1 44.7933 41.6499 35.3631
5357 1 46.365 43.2216 36.9348
5358 1 44.7933 41.6499 38.5065
5359 1 46.365 43.2216 40.0782
5360 1 44.7933 41.6499 41.6499
5361 1 46.365 43.2216 43.2216
5362 1 44.7933 41.6499 44.7933
5363 1 46.365 43.2216 46.365
5364 1 44.7933 41.6499 47.9367
5365 1 46.365 43.2216 49.5084
5366 1 44.7933 44.7933 0.7858
5367 1 46.365 46.365 2.3575
5368 1 44.7933 44.7933 3.9292
5369 1 46.365 46.365 5.5009
5370 1 44.7933 44.7933 7.0726
5371 1 46.365 46.365 8.6443
5372 1 44.7933 44.7933 10.216
5373 1 46.365 46.365 11.7877
5374 1 44.7933 44.7933 13.3594
5375 1 46.365 46.365 14.9311
5376 1 44.7933 44.7933 16.5028
5377 1 46.365 46.365 18.0745
5378 1 44.7933 44.7933 19.6462
5379 1 46.365 46.365 21.2179
5380 1 44.7933 44.7933 22.7896
5381 1 46.365 46.365 24.3613
5382 1 44.7933 44.7933 25.933
5383 1 46.365 46.365 27.5047
5384 1 44.7933 44.7933 29.0764
5385 1 46.365 46.365 30.6481
5386 1 44.7933 44.7933 32.2197
5387 1 46.365 46.365 33.7914
5388 1 44.7933 44.7933 35.3631
5389 1 46.365 46.365 36.9348
5390 1 44.7933 44.7933 38.5065
5391 1 46.365 46.365 40.0782
5392 1 44.7933 44.7933 41.6499
5393 1 46.365 46.365 43.2216
5394 1 44.7933 44.7933 44.7933
5395 1 46.365 46.365 46.365
5396 1 44.7933 44.7933 47.9367
5397 1 46.365 46.365 49.5084
5398 1 44.7933 47.9367 0.7858
5399 1 46.365 49.5084 2.3575
5400 1 44.7933 47.9367 3.9292
5401 1 46.365 49.5084 5.5009
5402 1 44.7933 47.9367 7.0726
5403 1 46.365 49.5084 8.6443
5404 1 44.7933 47.9367 10.216
5405 1 46.365 49.5084 11.7877
5406 1 44.7933 47.9367 13.3594
5407 1 46.365 49.5084 14.9311
5408 1 44.7933 47.9367 16.5028
5409 1 46.365 49.5084 18.0745
5410 1 44.7933 47.9367 19.6462
5411 1 46.365 49.5084 21.2179
5412 1 44.7933 47.9367 22.7896
5413 1 46.365 49.5084 24.3613
5414 1 44.7933 47.9367 25.933
5415 1 46.365 49.5084 27.5047
5416 1 44.7933 47.9367 29.0764
5417 1 46.365 49.5084 30.6481
5418 1 44.7933 47.9367 32.2197
5419 1 46.365 49.5084 33.7914
5420 1 44.7933 47.9367 35.3631
5421 1 46.365 49.5084 36.9348
5422 1 44.7933 47.9367 38.5065
5423 1 46.365 49.5084 40.0782
5424 1 44.7933 47.9367 41.6499
5425 1 46.365 49.5084 43.2216
5426 1 44.7933 47.9367 44.7933
5427 1 46.365 49.5084 46.365
5428 1 44.7933 47.9367 47.9367
5429 1 46.365 49.5084 49.5084
5430 1 47.9367 0.7858 0.7858
5431 1 49.5084 2.3575 2.3575
5432 1 47.9367 0.7858 3.9292
5433 1 49.5084 2.3575 5.5009
5434 1 47.9367 0.7858 7.0726
5435 1 49.5084 2.3575 8.6443
5436 1 47.9367 0.7858 10.216
5437 1 49.5084 2.3575 11.7877
5438 1 47.9367 0.7858 13.3594
5439 1 49.5084 2.3575 14.9311
5440 1 47.9367 0.7858 16.5028
5441 1 49.5084 2.3575 18.0745
5442 1 47.9367 0.7858 19.6462
5443 1 49.5084 2.3575 21.2179
5444 1 47.9367 0.7858 22.7896
5445 1 49.5084 2.3575 24.3613
5446 1 47.9367 0.7858 25.933
5447 1 49.5084 2.3575 27.5047
5448 1 47.9367 0.7858 29.0764
5449 1 49.5084 2.3575 30.6481
5450 1 47.9367 0.7858 32.2197
5451 1 49.5084 2.3575 33.7914
5452 1 47.9367 0.7858 35.3631
5453 1 49.5084 2.3575 36.9348
5454 1 47.9367 0.7858 38.5065
5455 1 49.5084 2.3575 40.0782
5456 1 47.9367 0.7858 41.6499
5457 1 49.5084 2.3575 43.2216
5458 1 47.9367 0.7858 44.7933
5459 1 49.5084 2.3575 46.365
5460 1 47.9367 0.7858 47.9367
5461 1 49.5084 2.3575 49.5084
5462 1 47.9367 3.9292 0.7858
5463 1 49.5084 5.5009 2.3575
5464 1 47.9367 3.9292 3.9292
5465 1 49.5084 5.5009 5.5009
5466 1 47.9367 3.9292 7.0726
5467 1 49.5084 5.5009 8.6443
5468 1 47.9367 3.9292 10.216
5469 1 49.5084 5.5009 11.7877
5470 1 47.9367 3.9292 13.3594
5471 1 49.5084 5.5009 14.9311
5472 1 47.9367 3.9292 16.5028
5473 1 49.5084 5.5009 18.0745
5474 1 47.9367 3.9292 19.6462
5475 1 49.5084 5.5009 21.2179
5476 1 47.9367 3.9292 22.7896
5477 1 49.5084 5.5009 24.3613
5478 1 47.9367 3.9292 25.933
5479 1 49.5084 5.5009 27.5047
5480 1 47.9367 3.9292 29.0764
5481 1 49.5084 5.5009 30.6481
5482 1 47.9367 3.9292 32.2197
5483 1 49.5084 5.5009 33.7914
5484 1 47.9367 3.9292 35.3631
5485 1 49.5084 5.5009 36.9348
5486 1 47.9367 3.9292 38.5065
5487 1 49.5084 5.5009 40.0782
5488 1 47.9367 3.9292 41.6499
5489 1 49.5084 5.5009 43.2216
5490 1 47.9367 3.9292 44.7933
5491 1 49.5084 5.5009 46.365
5492 1 47.9367 3.9292 47.9367
5493 1 49.5084 5.5009 49.5084
5494 1 47.9367 7.0726 0.7858
5495 1 49.5084 8.6443 2.3575
5496 1 47.9367 7.0726 3.9292
5497 1 49.5084 8.6443 5.5009
5498 1 47.9367 7.0726 7.0726
5499 1 49.5084 8.6443 8.6443
5500 1 47.9367 7.0726 10.216
5501 1 49.5084 8.6443 11.7877
5502 1 47.9367 7.0726 13.3594
5503 1 49.5084 8.6443 14.9311
5504 1 47.9367 7.0726 16.5028
5505 1 49.5084 8.6443 18.0745
5506 1 47.9367 7.0726 19.6462
5507 1 49.5084 8.6443 21.2179
5508 1 47.9367 7.0726 22.7896
5509 1 49.5084 8.6443 24.3613
5510 1 47.9367 7.0726 25.933
5511 1 49.5084 8.6443 27.5047
5512 1 47.9367 7.0726 29.0764
5513 1 49.5084 8.6443 30.6481
5514 1 47.9367 7.0726 32.2197
5515 1 49.5084 8.6443 33.7914
5516 1 47.9367 7.0726 35.3631
5517 1 49.5084 8.6443 36.9348
5518 1 47.9367 7.0726 38.5065
5519 1 49.5084 8.6443 40.0782
5520 1 47.9367 7.0726 41.6499
5521 1 49.5084 8.6443 43.2216
5522 1 47.9367 7.0726 44.7933
5523 1 49.5084 8.6443 46.365
5524 1 47.9367 7.0726 47.9367
5525 1 49.5084 8.6443 49.5084
5526 1 47.9367 10.216 0.7858
5527 1 49.5084 11.7877 2.3575
5528 1 47.9367 10.216 3.9292
5529 1 49.5084 11.7877 5.5009
5530 1 47.9367 10.216 7.0726
5531 1 49.5084 11.7877 8.6443
5532 1 47.9367 10.216 10.216
5533 1 49.5084 11.7877 11.7877
5534 1 47.9367 10.216 13.3594
5535 1 49.5084 11.7877 14.9311
5536 1 47.9367 10.216 16.5028
5537 1 49.5084 11.7877 18.0745
5538 1 47.9367 10.216 19.6462
5539 1 49.5084 11.7877 21.2179
5540 1 47.9367 10.216 22.7896
5541 1 49.5084 11.7877 24.3613
5542 1 47.9367 10.216 25.933
5543 1 49.5084 11.7877 27.5047
5544 1 47.9367 10.216 29.0764
5545 1 49.5084 11.7877 30.6481
5546 1 47.9367 10.216 32.2197
5547 1 49.5084 11.7877 33.7914
5548 1 47.9367 10.216 35.3631
5549 1 49.5084 11.7877 36.9348
5550 1 47.9367 10.216 38.5065
5551 1 49.5084 11.7877 40.0782
5552 1 47.9367 10.216 41.6499
5553 1 49.5084 11.7877 43.2216
5554 1 47.9367 10.216 44.7933
5555 1 49.5084 11.7877 46.365
5556 1 47.9367 10.216 47.9367
5557 1 49.5084 11.7877 49.5084
5558 1 47.9367 13.3594 0.7858
5559 1 49.5084 14.9311 2.3575
5560 1 47.9367 13.3594 3.9292
5561 1 49.5084 14.9311 5.5009
5562 1 47.9367 13.3594 7.0726
5563 1 49.5084 14.9311 8.6443
5564 1 47.9367 13.3594 10.216
5565 1 49.5084 14.9311 11.7877
5566 1 47.9367 13.3594 13.3594
5567 1 49.5084 14.9311 14.9311
5568 1 47.9367 13.3594 16.5028
5569 1 49.5084 14.9311 18.0745
5570 1 47.9367 13.3594 19.6462
5571 1 49.5084 14.9311 21.2179
5572 1 47.9367 13.3594 22.7896
5573 1 49.5084 14.9311 24.3613
5574 1 47.9367 13.3594 25.933
5575 1 49.5084 14.9311 27.5047
5576 1 47.9367 13.3594 29.0764
5577 1 49.5084 14.9311 30.6481
5578 1 47.9367 13.3594 32.2197
5579 1 49.5084 14.9311 33.7914
5580 1 47.9367 13.3594 35.3631
5581 1 49.5084 14.9311 36.9348
5582 1 47.9367 13.3594 38.5065
5583 1 49.5084 14.9311 40.0782
5584 1 47.9367 13.3594 41.6499
5585 1 49.5084 14.9311 43.2216
5586 1 47.9367 13.3594 44.7933
5587 1 49.5084 14.9311 46.365
5588 1 47.9367 13.3594 47.9367
5589 1 49.5084 14.9311 49.5084
5590 1 47.9367 16.5028 0.7858
5591 1 49.5084 18.0745 2.3575
5592 1 47.9367 16.5028 3.9292
5593 1 49.5084 18.0745 5.5009
5594 1 47.9367 16.5028 7.0726
5595 1 49.5084 18.0745 8.6443
5596 1 47.9367 16.5028 10.216
5597 1 49.5084 18.0745 11.7877
5598 1 47.9367 16.5028 13.3594
5599 1 49.5084 18.0745 14.9311
5600 1 47.9367 16.5028 16.5028
5601 1 49.5084 18.0745 18.0745
5602 1 47.9367 16.5028 19.6462
5603 1 49.5084 18.0745 21.2179
5604 1 47.9367 16.5028 22.7896
5605 1 49.5084 18.0745 24.3613
5606 1 47.9367 16.5028 25.933
5607 1 49.5084 18.0745 27.5047
5608 1 47.9367 16.5028 29.0764
5609 1 49.5084 18.0745 30.6481
5610 1 47.9367 16.5028 32.2197
5611 1 49.5084 18.0745 33.7914
5612 1 47.9367 16.5028 35.3631
5613 1 49.5084 18.0745 36.9348
5614 1 47.9367 16.5028 38.5065
5615 1 49.5084 18.0745 40.0782
5616 1 47.9367 16.5028 41.6499
5617 1 49.5084 18.0745 43.2216
5618 1 47.9367 16.5028 44.7933
5619 1 49.5084 18.0745 46.365
5620 1 47.9367 16.5028 47.9367
5621 1 49.5084 18.0745 49.5084
5622 1 47.9367 19.6462 0.7858
5623 1 49.5084 21.2179 2.3575
5624 1 47.9367 19.6462 3.9292
5625 1 49.5084 21.2179 5.5009
5626 1 47.9367 19.6462 7.0726
5627 1 49.5084 21.2179 8.6443
5628 1 47.9367 19.6462 10.216
5629 1 49.5084 21.2179 11.7877
5630 1 47.9367 19.6462 13.3594
5631 1 49.5084 21.2179 14.9311
5632 1 47.9367 19.6462 16.5028
5633 1 49.5084 21.2179 18.0745
5634 1 47.9367 19.6462 19.6462
5635 1 49.5084 21.2179 21.2179
5636 1 47.9367 19.6462 22.7896
5637 1 49.5084 21.2179 24.3613
5638 1 47.9367 19.6462 25.933
5639 1 49.5084 21.2179 27.5047
5640 1 47.9367 19.6462 29.0764
5641 1 49.5084 21.2179 30.6481
5642 1 47.9367 19.6462 32.2197
5643 1 49.5084 21.2179 33.7914
5644 1 47.9367 19.6462 35.3631
5645 1 49.5084 21.2179 36.9348
5646 1 47.9367 19.6462 38.5065
5647 1 49.5084 21.2179 40.0782
5648 1 47.9367 19.6462 41.6499
5649 1 49.5084 21.2179 43.2216
5650 1 47.9367 19.6462 44.7933
5651 1 49.5084 21.2179 46.365
5652 1 47.9367 19.6462 47.9367
5653 1 49.5084 21.2179 49.5084
5654 1 47.9367 22.7896 0.7858
5655 1 49.5084 24.3613 2.3575
5656 1 47.9367 22.7896 3.9292
5657 1 49.5084 24.3613 5.5009
5658 1 47.9367 22.7896 7.0726
5659 1 49.5084 24.3613 8.6443
5660 1 47.9367 22.7896 10.216
5661 1 49.5084 24.3613 11.7877
5662 1 47.9367 22.7896 13.3594
5663 1 49.5084 24.3613 14.9311
5664 1 47.9367 22.7896 16.5028
5665 1 49.5084 24.3613 18.0745
5666 1 47.9367 22.7896 19.6462
5667 1 49.5084 24.3613 21.2179
5668 1 47.9367 22.7896 22.7896
5669 1 49.5084 24.3613 24.3613
5670 1 47.9367 22.7896 25.933
5671 1 49.5084 24.3613 27.5047
5672 1 47.9367 22.7896 29.0764
5673 1 49.5084 24.3613 30.6481
5674 1 47.9367 22.7896 32.2197
5675 1 49.5084 24.3613 33.7914
5676 1 47.9367 22.7896 35.3631
5677 1 49.5084 24.3613 36.9348
5678 1 47.9367 22.7896 38.5065
5679 1 49.5084 24.3613 40.0782
5680 1 47.9367 22.7896 41.6499
5681 1 49.5084 24.3613 43.2216
5682 1 47.9367 22.7896 44.7933
5683 1 49.5084 24.3613 46.365
5684 1 47.9367 22.7896 47.9367
5685 1 49.5084 24.3613 49.5084
5686 1 47.9367 25.933 0.7858
5687 1 49.5084 27.5047 2.3575
5688 1 47.9367 25.933 3.9292
5689 1 49.5084 27.5047 5.5009
5690 1 47.9367 25.933 7.0726
5691 1 49.5084 27.5047 8.6443
5692 1 47.9367 25.933 10.216
5693 1 49.5084 27.5047 11.7877
5694 1 47.9367 25.933 13.3594
5695 1 49.5084 27.5047 14.9311
5696 1 47.9367 25.933 16.5028
5697 1 49.5084 27.5047 18.0745
5698 1 47.9367 25.933 19.6462
5699 1 49.5084 27.5047 21.2179
5700 1 47.9367 25.933 22.7896
5701 1 49.5084 27.5047 24.3613
5702 1 47.9367 25.933 25.933
5703 1 49.5084 27.5047 27.5047
5704 1 47.9367 25.933 29.0764
5705 1 49.5084 27.5047 30.6481
5706 1 47.9367 25.933 32.2197
5707 1 49.5084 27.5047 33.7914
5708 1 47.9367 25.933 35.3631
5709 1 49.5084 27.5047 36.9348
5710 1 47.9367 25.933 38.5065
5711 1 49.5084 27.5047 40.0782
5712 1 47.9367 25.933 41.6499
5713 1 49.5084 27.5047 43.2216
5714 1 47.9367 25.933 44.7933
5715 1 49.5084 27.5047 46.365
5716 1 47.9367 25.933 47.9367
5717 1 49.5084 27.5047 49.5084
5718 1 47.9367 29.0764 0.7858
5719 1 49.5084 30.6481 2.3575
5720 1 47.9367 29.0764 3.9292
5721 1 49.5084 30.6481 5.5009
5722 1 47.9367 29.0764 7.0726
5723 1 49.5084 30.6481 8.6443
5724 1 47.9367 29.0764 10.216
5725 1 49.5084 30.6481 11.7877
5726 1 47.9367 29.0764 13.3594
5727 1 49.5084 30.6481 14.9311
5728 1 47.9367 29.0764 16.5028
5729 1 49.5084 30.6481 18.0745
5730 1 47.9367 29.0764 19.6462
5731 1 49.5084 30.6481 21.2179
5732 1 47.9367 29.0764 22.7896
5733 1 49.5084 30.6481 24.3613
5734 1 47.9367 29.0764 25.933
5735 1 49.5084 30.6481 27.5047
5736 1 47.9367 29.0764 29.0764
5737 1 49.5084 30.6481 30.6481
5738 1 47.9367 29.0764 32.2197
5739 1 49.5084 30.6481 33.7914
5740 1 47.9367 29.0764 35.3631
5741 1 49.5084 30.6481 36.9348
5742 1 47.9367 29.0764 38.5065
5743 1 49.5084 30.6481 40.0782
5744 1 47.9367 29.0764 41.6499
5745 1 49.5084 30.6481 43.2216
5746 1 47.9367 29.0764 44.7933
5747 1 49.5084 30.6481 46.365
5748 1 47.9367 29.0764 47.9367
5749 1 49.5084 30.6481 49.5084
5750 1 47.9367 32.2197 0.7858
5751 1 49.5084 33.7914 2.3575
5752 1 47.9367 32.2197 3.9292
5753 1 49.5084 33.7914 5.5009
5754 1 47.9367 32.2197 7.0726
5755 1 49.5084 33.7914 8.6443
5756 1 47.9367 32.2197 10.216
5757 1 49.5084 33.7914 11.7877
5758 1 47.9367 32.2197 13.3594
5759 1 49.5084 33.7914 14.9311
5760 1 47.9367 32.2197 16.5028
5761 1 49.5084 33.7914 18.0745
5762 1 47.9367 32.2197 19.6462
5763 1 49.5084 33.7914 21.2179
5764 1 47.9367 32.2197 22.7896
5765 1 49.5084 33.7914 24.3613
5766 1 47.9367 32.2197 25.933
5767 1 49.5084 33.7914 27.5047
5768 1 47.9367 32.2197 29.0764
5769 1 49.5084 33.7914 30.6481
5770 1 47.9367 32.2197 32.2197
5771 1 49.5084 33.7914 33.7914
5772 1 47.9367 32.2197 35.3631
5773 1 49.5084 33.7914 36.9348
5774 1 47.9367 32.2197 38.5065
5775 1 49.5084 33.7914 40.0782
5776 1 47.9367 32.2197 41.6499
5777 1 49.5084 33.7914 43.2216
5778 1 47.9367 32.2197 44.7933
5779 1 49.5084 33.7914 46.365
5780 1 47.9367 32.2197 47.9367
5781 1 49.5084 33.7914 49.5084
5782 1 47.9367 35.3631 0.7858
5783 1 49.5084 36.9348 2.3575
5784 1 47.9367 35.3631 3.9292
5785 1 49.5084 36.9348 5.5009
5786 1 47.9367 35.3631 7.0726
5787 1 49.5084 36.9348 8.6443
5788 1 47.9367 35.3631 10.216
5789 1 49.5084 36.9348 11.7877
5790 1 47.9367 35.3631 13.3594
5791 1 49.5084 36.9348 14.9311
5792 1 47.9367 35.3631 16.5028
5793 1 49.5084 36.9348 18.0745
5794 1 47.9367 35.3631 19.6462
5795 1 49.5084 36.9348 21.2179
5796 1 47.9367 35.3631 22.7896
5797 1 49.5084 36.9348 24.3613
5798 1 47.9367 35.3631 25.933
5799 1 49.5084 36.9348 27.5047
5800 1 47.9367 35.3631 29.0764
5801 1 49.5084 36.9348 30.6481
5802 1 47.9367 35.3631 32.2197
5803 1 49.5084 36.9348 33.7914
5804 1 47.9367 35.3631 35.3631
5805 1 49.5084 36.9348 36.9348
5806 1 47.9367 35.3631 38.5065
5807 1 49.5084 36.9348 40.0782
5808 1 47.9367 35.3631 41.6499
5809 1 49.5084 36.9348 43.2216
5810 1 47.9367 35.3631 44.7933
5811 1 49.5084 36.9348 46.365
5812 1 47.9367 35.3631 47.9367
5813 1 49.5084 36.9348 49.5084
5814 1 47.9367 38.5065 0.7858
5815 1 49.5084 40.0782 2.3575
5816 1 47.9367 38.5065 3.9292
5817 1 49.5084 40.0782 5.5009
5818 1 47.9367 38.5065 7.0726
5819 1 49.5084 40.0782 8.6443
5820 1 47.9367 38.5065 10.216
5821 1 49.5084 40.0782 11.7877
5822 1 47.9367 38.5065 13.3594
5823 1 49.5084 40.0782 14.9311
5824 1 47.9367 38.5065 16.5028
5825 1 49.5084 40.0782 18.0745
5826 1 47.9367 38.5065 19.6462
5827 1 49.5084 40.0782 21.2179
5828 1 47.9367 38.5065 22.7896
5829 1 49.5084 40.0782 24.3613
5830 1 47.9367 38.5065 25.933
5831 1 49.5084 40.0782 27.5047
5832 1 47.9367 38.5065 29.0764
5833 1 49.5084 40.0782 30.6481
5834 1 47.9367 38.5065 32.2197
5835 1 49.5084 40.0782 33.7914
5836 1 47.9367 38.5065 35.3631
5837 1 49.5084 40.0782 36.9348
5838 1 47.9367 38.5065 38.5065
5839 1 49.5084 40.0782 40.0782
5840 1 47.9367 38.5065 41.6499
5841 1 49.5084 40.0782 43.2216
5842 1 47.9367 38.5065 44.7933
5843 1 49.5084 40.0782 46.365
5844 1 47.9367 38.5065 47.9367
5845 1 49.5084 40.0782 49.5084
5846 1 47.9367 41.6499 0.7858
5847 1 49.5084 43.2216 2.3575
5848 1 47.9367 41.6499 3.9292
5849 1 49.5084 43.2216 5.5009
5850 1 47.9367 41.6499 7.0726
5851 1 49.5084 43.2216 8.6443
5852 1 47.9367 41.6499 10.216
5853 1 49.5084 43.2216 11.7877
5854 1 47.9367 41.6499 13.3594
5855 1 49.5084 43.2216 14.9311
5856 1 47.9367 41.6499 16.5028
5857 1 49.5084 43.2216 18.0745
5858 1 47.9367 41.6499 19.6462
5859 1 49.5084 43.2216 21.2179
5860 1 47.9367 41.6499 22.7896
5861 1 49.5084 43.2216 24.3613
5862 1 47.9367 41.6499 25.933
5863 1 49.5084 43.2216 27.5047
5864 1 47.9367 41.6499 29.0764
5865 1 49.5084 43.2216 30.6481
5866 1 47.9367 41.6499 32.2197
5867 1 49.5084 43.2216 33.7914
5868 1 47.9367 41.6499 35.3631
5869 1 49.5084 43.2216 36.9348
5870 1 47.9367 41.6499 38.5065
5871 1 49.5084 43.2216 40.0782
5872 1 47.9367 41.6499 41.6499
5873 1 49.5084 43.2216 43.2216
5874 1 47.9367 41.6499 44.7933
5875 1 49.5084 43.2216 46.365
5876 1 47.9367 41.6499 47.9367
5877 1 49.5084 43.2216 49.5084
5878 1 47.9367 44.7933 0.7858
5879 1 49.5084 46.365 2.3575
5880 1 47.9367 44.7933 3.9292
5881 1 49.5084 46.365 5.5009
5882 1 47.9367 44.7933 7.0726
5883 1 49.5084 46.365 8.6443
5884 1 47.9367 44.7933 10.216
5885 1 49.5084 46.365 11.7877
5886 1 47.9367 44.7933 13.3594
5887 1 49.5084 46.365 14.9311
5888 1 47.9367 44.7933 16.5028
5889 1 49.5084 46.365 18.0745
5890 1 47.9367 44.7933 19.6462
5891 1 49.5084 46.365 21.2179
5892 1 47.9367 44.7933 22.7896
5893 1 49.5084 46.365 24.3613
5894 1 47.9367 44.7933 25.933
5895 1 49.5084 46.365 27.5047
5896 1 47.9367 44.7933 29.0764
5897 1 49.5084 46.365 30.6481
5898 1 47.9367 44.7933 32.2197
5899 1 49.5084 46.365 33.7914
5900 1 47.9367 44.7933 35.3631
5901 1 49.5084 46.365 36.9348
5902 1 47.9367 44.7933 38.5065
5903 1 49.5084 46.365 40.0782
5904 1 47.9367 44.7933 41.6499
5905 1 49.5084 46.365 43.2216
5906 1 47.9367 44.7933 44.7933
5907 1 49.5084 46.365 46.365
5908 1 47.9367 44.7933 47.9367
5909 1 49.5084 46.365 49.5084
5910 1 47.9367 47.9367 0.7858
5911 1 49.5084 49.5084 2.3575
5912 1 47.9367 47.9367 3.9292
5913 1 49.5084 49.5084 5.5009
5914 1 47.9367 47.9367 7.0726
5915 1 49.5084 49.5084 8.6443
5916 1 47.9367 47.9367 10.216
5917 1 49.5084 49.5084 11.7877
5918 1 47.9367 47.9367 13.3594
5919 1 49.5084 49.5084 14.9311
5920 1 47.9367 47.9367 16.5028
5921 1 49.5084 49.5084 18.0745
5922 1 47.9367 47.9367 19.6462
5923 1 49.5084 49.5084 21.2179
5924 1 47.9367 47.9367 22.7896
5925 1 49.5084 49.5084 24.3613
5926 1 47.9367 47.9367 25.933
5927 1 49.5084 49.5084 27.5047
5928 1 47.9367 47.9367 29.0764
5929 1 49.5084 49.5084 30.6481
5930 1 47.9367 47.9367 32.2197
5931 1 49.5084 49.5084 33.7914
5932 1 47.9367 47.9367 35.3631
5933 1 49.5084 49.5084 36.9348
5934 1 47.9367 47.9367 38.5065
5935 1 49.5084 49.5084 40.0782
5936 1 47.9367 47.9367 41.6499
5937 1 49.5084 49.5084 43.2216
5938 1 47.9367 47.9367 44.7933
5939 1 49.5084 49.5084 46.365
5940 1 47.9367 47.9367 47.9367
5941 1 49.5084 49.5084 49.5084
5942 1 16.5028 0.7858 0.7858
5943 1 18.0745 2.3575 2.3575
5944 1 16.5028 0.7858 3.9292
5945 1 18.0745 2.3575 5.5009
5946 1 16.5028 0.7858 7.0726
5947 1 18.0745 2.3575 8.6443
5948 1 16.5028 0.7858 10.216
5949 1 18.0745 2.3575 11.7877
5950 1 16.5028 0.7858 13.3594
5951 1 18.0745 2.3575 14.9311
5952 1 16.5028 3.9292 0.7858
5953 1 18.0745 5.5009 2.3575
5954 1 16.5028 3.9292 3.9292
5955 1 18.0745 5.5009 5.5009
5956 1 16.5028 3.9292 7.0726
5957 1 18.0745 5.5009 8.6443
5958 1 16.5028 3.9292 10.216
5959 1 18.0745 5.5009 11.7877
5960 1 16.5028 3.9292 13.3594
5961 1 18.0745 5.5009 14.9311
5962 1 16.5028 7.0726 0.7858
5963 1 18.0745 8.6443 2.3575
5964 1 16.5028 7.0726 3.9292
5965 1 18.0745 8.6443 5.5009
5966 1 16.5028 7.0726 7.0726
5967 1 18.0745 8.6443 8.6443
5968 1 16.5028 7.0726 10.216
5969 1 18.0745 8.6443 11.7877
5970 1 16.5028 7.0726 13.3594
5971 1 18.0745 8.6443 14.9311
5972 1 16.5028 10.216 0.7858
5973 1 18.0745 11.7877 2.3575
5974 1 16.5028 10.216 3.9292
5975 1 18.0745 11.7877 5.5009
5976 1 16.5028 10.216 7.0726
5977 1 18.0745 11.7877 8.6443
5978 1 16.5028 10.216 10.216
5979 1 18.0745 11.7877 11.7877
5980 1 16.5028 10.216 13.3594
5981 1 18.0745 11.7877 14.9311
5982 1 16.5028 13.3594 0.7858
5983 1 18.0745 14.9311 2.3575
5984 1 16.5028 13.3594 3.9292
5985 1 18.0745 14.9311 5.5009
5986 1 16.5028 13.3594 7.0726
5987 1 18.0745 14.9311 8.6443
5988 1 16.5028 13.3594 10.216
5989 1 18.0745 14.9311 11.7877
5990 1 16.5028 13.3594 13.3594
5991 1 18.0745 14.9311 14.9311
5992 1 16.5028 16.5028 0.7858
5993 1 18.0745 18.0745 2.3575
5994 1 16.5028 16.5028 3.9292
5995 1 18.0745 18.0745 5.5009
5996 1 16.5028 16.5028 7.0726
5997 1 18.0745 18.0745 8.6443
5998 1 16.5028 16.5028 10.216
5999 1 18.0745 18.0745 11.7877
6000 1 16.5028 16.5028 13.3594
6001 1 18.0745 18.0745 14.9311
6002 1 16.5028 19.6462 0.7858
6003 1 18.0745 21.2179 2.3575
6004 1 16.5028 19.6462 3.9292
6005 1 18.0745 21.2179 5.5009
6006 1 16.5028 19.6462 7.0726
6007 1 18.0745 21.2179 8.6443
6008 1 16.5028 19.6462 10.216
6009 1 18.0745 21.2179 11.7877
6010 1 16.5028 19.6462 13.3594
6011 1 18.0745 21.2179 14.9311
6012 1 16.5028 22.7896 0.7858
6013 1 18.0745 24.3613 2.3575
6014 1 16.5028 22.7896 3.9292
6015 1 18.0745 24.3613 5.5009
6016 1 16.5028 22.7896 7.0726
6017 1 18.0745 24.3613 8.6443
6018 1 16.5028 22.7896 10.216
6019 1 18.0745 24.3613 11.7877
6020 1 16.5028 22.7896 13.3594
6021 1 18.0745 24.3613 14.9311
6022 1 16.5028 25.933 0.7858
6023 1 18.0745 27.5047 2.3575
6024 1 16.5028 25.933 3.9292
6025 1 18.0745 27.5047 5.5009
6026 1 16.5028 25.933 7.0726
6027 1 18.0745 27.5047 8.6443
6028 1 16.5028 25.933 10.216
6029 1 18.0745 27.5047 11.7877
6030 1 16.5028 25.933 13.3594
6031 1 18.0745 27.5047 14.9311
6032 1 16.5028 29.0764 0.7858
6033 1 18.0745 30.6481 2.3575
6034 1 16.5028 29.0764 3.9292
6035 1 18.0745 30.6481 5.5009
6036 1 16.5028 29.0764 7.0726
6037 1 18.0745 30.6481 8.6443
6038 1 16.5028 29.0764 10.216
6039 1 18.0745 30.6481 11.7877
6040 1 16.5028 29.0764 13.3594
6041 1 18.0745 30.6481 14.9311
6042 1 16.5028 32.2197 0.7858
6043 1 18.0745 33.7914 2.3575
6044 1 16.5028 32.2197 3.9292
6045 1 18.0745 33.7914 5.5009
6046 1 16.5028 32.2197 7.0726
6047 1 18.0745 33.7914 8.6443
6048 1 16.5028 32.2197 10.216
6049 1 18.0745 33.7914 11.7877
6050 1 16.5028 32.2197 13.3594
6051 1 18.0745 33.7914 14.9311
6052 1 16.5028 35.3631 0.7858
6053 1 18.0745 36.9348 2.3575
6054 1 16.5028 35.3631 3.9292
6055 1 18.0745 36.9348 5.5009
6056 1 16.5028 35.3631 7.0726
6057 1 18.0745 36.9348 8.6443
6058 1 16.5028 35.3631 10.216
6059 1 18.0745 36.9348 11.7877
6060 1 16.5028 35.3631 13.3594
6061 1 18.0745 36.9348 14.9311
6062 1 16.5028 38.5065 0.7858
6063 1 18.0745 40.0782 2.3575
6064 1 16.5028 38.5065 3.9292
6065 1 18.0745 40.0782 5.5009
6066 1 16.5028 38.5065 7.0726
6067 1 18.0745 40.0782 8.6443
6068 1 16.5028 38.5065 10.216
6069 1 18.0745 40.0782 11.7877
6070 1 16.5028 38.5065 13.3594
6071 1 18.0745 40.0782 14.9311
6072 1 16.5028 41.6499 0.7858
6073 1 18.0745 43.2216 2.3575
6074 1 16.5028 41.6499 3.9292
6075 1 18.0745 43.2216 5.5009
6076 1 16.5028 41.6499 7.0726
6077 1 18.0745 43.2216 8.6443
6078 1 16.5028 41.6499 10.216
6079 1 18.0745 43.2216 11.7877
6080 1 16.5028 41.6499 13.3594
6081 1 18.0745 43.2216 14.9311
6082 1 16.5028 44.7933 0.7858
6083 1 18.0745 46.365 2.3575
6084 1 16.5028 44.7933 3.9292
6085 1 18.0745 46.365 5.5009
6086 1 16.5028 44.7933 7.0726
6087 1 18.0745 46.365 8.6443
6088 1 16.5028 44.7933 10.216
6089 1 18.0745 46.365 11.7877
6090 1 16.5028 44.7933 13.3594
6091 1 18.0745 46.365 14.9311
6092 1 16.5028 47.9367 0.7858
6093 1 18.0745 49.5084 2.3575
6094 1 16.5028 47.9367 3.9292
6095 1 18.0745 49.5084 5.5009
6096 1 16.5028 47.9367 7.0726
6097 1 18.0745 49.5084 8.6443
6098 1 16.5028 47.9367 10.216
6099 1 18.0745 49.5084 11.7877
6100 1 16.5028 47.9367 13.3594
6101 1 18.0745 49.5084 14.9311
6102 1 19.6462 0.7858 0.7858
6103 1 21.2179 2.3575 2.3575
6104 1 19.6462 0.7858 3.9292
6105 1 21.2179 2.3575 5.5009
6106 1 19.6462 0.7858 7.0726
6107 1 21.2179 2.3575 8.6443
6108 1 19.6462 0.7858 10.216
6109 1 21.2179 2.3575 11.7877
6110 1 19.6462 0.7858 13.3594
6111 1 21.2179 2.3575 14.9311
6112 1 19.6462 3.9292 0.7858
6113 1 21.2179 5.5009 2.3575
6114 1 19.6462 3.9292 3.9292
6115 1 21.2179 5.5009 5.5009
6116 1 19.6462 3.9292 7.0726
6117 1 21.2179 5.5009 8.6443
6118 1 19.6462 3.9292 10.216
6119 1 21.2179 5.5009 11.7877
6120 1 19.6462 3.9292 13.3594
6121 1 21.2179 5.5009 14.9311
6122 1 19.6462 7.0726 0.7858
6123 1 21.2179 8.6443 2.3575
6124 1 19.6462 7.0726 3.9292
6125 1 21.2179 8.6443 5.5009
6126 1 19.6462 7.0726 7.0726
6127 1 21.2179 8.6443 8.6443
6128 1 19.6462 7.0726 10.216
6129 1 21.2179 8.6443 11.7877
6130 1 19.6462 7.0726 13.3594
6131 1 21.2179 8.6443 14.9311
6132 1 19.6462 10.216 0.7858
6133 1 21.2179 11.7877 2.3575
6134 1 19.6462 10.216 3.9292
6135 1 21.2179 11.7877 5.5009
6136 1 19.6462 10.216 7.0726
6137 1 21.2179 11.7877 8.6443
6138 1 19.6462 10.216 10.216
6139 1 21.2179 11.7877 11.7877
6140 1 19.6462 10.216 13.3594
6141 1 21.2179 11.7877 14.9311
6142 1 19.6462 13.3594 0.7858
6143 1 21.2179 14.9311 2.3575
6144 1 19.6462 13.3594 3.9292
6145 1 21.2179 14.9311 5.5009
6146 1 19.6462 13.3594 7.0726
6147 1 21.2179 14.9311 8.6443
6148 1 19.6462 13.3594 10.216
6149 1 21.2179 14.9311 11.7877
6150 1 19.6462 13.3594 13.3594
6151 1 21.2179 14.9311 14.9311
6152 1 19.6462 16.5028 0.7858
6153 1 21.2179 18.0745 2.3575
6154 1 19.6462 16.5028 3.9292
6155 1 21.2179 18.0745 5.5009
6156 1 19.6462 16.5028 7.0726
6157 1 21.2179 18.0745 8.6443
6158 1 19.6462 16.5028 10.216
6159 1 21.2179 18.0745 11.7877
6160 1 19.6462 16.5028 13.3594
6161 1 21.2179 18.0745 14.9311
6162 1 19.6462 19.6462 0.7858
6163 1 21.2179 21.2179 2.3575
6164 1 19.6462 19.6462 3.9292
6165 1 21.2179 21.2179 5.5009
6166 1 19.6462 19.6462 7.0726
6167 1 21.2179 21.2179 8.6443
6168 1 19.6462 19.6462 10.216
6169 1 21.2179 21.2179 11.7877
6170 1 19.6462 19.6462 13.3594
6171 1 21.2179 21.2179 14.9311
6172 1 19.6462 22.7896 0.7858
6173 1 21.2179 24.3613 2.3575
6174 1 19.6462 22.7896 3.9292
6175 1 21.2179 24.3613 5.5009
6176 1 19.6462 22.7896 7.0726
6177 1 21.2179 24.3613 8.6443
6178 1 19.6462 22.7896 10.216
6179 1 21.2179 24.3613 11.7877
6180 1 19.6462 22.7896 13.3594
6181 1 21.2179 24.3613 14.9311
6182 1 19.6462 25.933 0.7858
6183 1 21.2179 27.5047 2.3575
6184 1 19.6462 25.933 3.9292
6185 1 21.2179 27.5047 5.5009
6186 1 19.6462 25.933 7.0726
6187 1 21.2179 27.5047 8.6443
6188 1 19.6462 25.933 10.216
6189 1 21.2179 27.5047 11.7877
6190 1 19.6462 25.933 13.3594
6191 1 21.2179 27.5047 14.9311
6192 1 19.6462 29.0764 0.7858
6193 1 21.2179 30.6481 2.3575
6194 1 19.6462 29.0764 3.9292
6195 1 21.2179 30.6481 5.5009
6196 1 19.6462 29.0764 7.0726
6197 1 21.2179 30.6481 8.6443
6198 1 19.6462 29.0764 10.216
6199 1 21.2179 30.6481 11.7877
6200 1 19.6462 29.0764 13.3594
6201 1 21.2179 30.6481 14.9311
6202 1 19.6462 32.2197 0.7858
6203 1 21.2179 33.7914 2.3575
6204 1 19.6462 32.2197 3.9292
6205 1 21.2179 33.7914 5.5009
6206 1 19.6462 32.2197 7.0726
6207 1 21.2179 33.7914 8.6443
6208 1 19.6462 32.2197 10.216
6209 1 21.2179 33.7914 11.7877
6210 1 19.6462 32.2197 13.3594
6211 1 21.2179 33.7914 14.9311
6212 1 19.6462 35.3631 0.7858
6213 1 21.2179 36.9348 2.3575
6214 1 19.6462 35.3631 3.9292
6215 1 21.2179 36.9348 5.5009
6216 1 19.6462 35.3631 7.0726
6217 1 21.2179 36.9348 8.6443
6218 1 19.6462 35.3631 10.216
6219 1 21.2179 36.9348 11.7877
6220 1 19.6462 35.3631 13.3594
6221 1 21.2179 36.9348 14.9311
6222 1 19.6462 38.5065 0.7858
6223 1 21.2179 40.0782 2.3575
6224 1 19.6462 38.5065 3.9292
6225 1 21.2179 40.0782 5.5009
6226 1 19.6462 38.5065 7.0726
6227 1 21.2179 40.0782 8.6443
6228 1 19.6462 38.5065 10.216
6229 1 21.2179 40.0782 11.7877
6230 1 19.6462 38.5065 13.3594
6231 1 21.2179 40.0782 14.9311
6232 1 19.6462 41.6499 0.7858
6233 1 21.2179 43.2216 2.3575
6234 1 19.6462 41.6499 3.9292
6235 1 21.2179 43.2216 5.5009
6236 1 19.6462 41.6499 7.0726
6237 1 21.2179 43.2216 8.6443
6238 1 19.6462 41.6499 10.216
6239 1 21.2179 43.2216 11.7877
6240 1 19.6462 41.6499 13.3594
6241 1 21.2179 43.2216 14.9311
6242 1 19.6462 44.7933 0.7858
6243 1 21.2179 46.365 2.3575
6244 1 19.6462 44.7933 3.9292
6245 1 21.2179 46.365 5.5009
6246 1 19.6462 44.7933 7.0726
6247 1 21.2179 46.365 8.6443
6248 1 19.6462 44.7933 10.216
6249 1 21.2179 46.365 11.7877
6250 1 19.6462 44.7933 13.3594
6251 1 21.2179 46.365 14.9311
6252 1 19.6462 47.9367 0.7858
6253 1 21.2179 49.5084 2.3575
6254 1 19.6462 47.9367 3.9292
6255 1 21.2179 49.5084 5.5009
6256 1 19.6462 47.9367 7.0726
6257 1 21.2179 49.5084 8.6443
6258 1 19.6462 47.9367 10.216
6259 1 21.2179 49.5084 11.7877
6260 1 19.6462 47.9367 13.3594
6261 1 21.2179 49.5084 14.9311
6262 1 22.7896 0.7858 0.7858
6263 1 24.3613 2.3575 2.3575
6264 1 22.7896 0.7858 3.9292
6265 1 24.3613 2.3575 5.5009
6266 1 22.7896 0.7858 7.0726
6267 1 24.3613 2.3575 8.6443
6268 1 22.7896 0.7858 10.216
6269 1 24.3613 2.3575 11.7877
6270 1 22.7896 0.7858 13.3594
6271 1 24.3613 2.3575 14.9311
6272 1 22.7896 3.9292 0.7858
6273 1 24.3613 5.5009 2.3575
6274 1 22.7896 3.9292 3.9292
6275 1 24.3613 5.5009 5.5009
6276 1 22.7896 3.9292 7.0726
6277 1 24.3613 5.5009 8.6443
6278 1 22.7896 3.9292 10.216
6279 1 24.3613 5.5009 11.7877
6280 1 22.7896 3.9292 13.3594
6281 1 24.3613 5.5009 14.9311
6282 1 22.7896 7.0726 0.7858
6283 1 24.3613 8.6443 2.3575
6284 1 22.7896 7.0726 3.9292
6285 1 24.3613 8.6443 5.5009
6286 1 22.7896 7.0726 7.0726
6287 1 24.3613 8.6443 8.6443
6288 1 22.7896 7.0726 10.216
6289 1 24.3613 8.6443 11.7877
6290 1 22.7896 7.0726 13.3594
6291 1 24.3613 8.6443 14.9311
6292 1 22.7896 10.216 0.7858
6293 1 24.3613 11.7877 2.3575
6294 1 22.7896 10.216 3.9292
6295 1 24.3613 11.7877 5.5009
6296 1 22.7896 10.216 7.0726
6297 1 24.3613 11.7877 8.6443
6298 1 22.7896 10.216 10.216
6299 1 24.3613 11.7877 11.7877
6300 1 22.7896 10.216 13.3594
6301 1 24.3613 11.7877 14.9311
6302 1 22.7896 13.3594 0.7858
6303 1 24.3613 14.9311 2.3575
6304 1 22.7896 13.3594 3.9292
6305 1 24.3613 14.9311 5.5009
6306 1 22.7896 13.3594 7.0726
6307 1 24.3613 14.9311 8.6443
6308 1 22.7896 13.3594 10.216
6309 1 24.3613 14.9311 11.7877
6310 1 22.7896 13.3594 13.3594
6311 1 24.3613 14.9311 14.9311
6312 1 22.7896 16.5028 0.7858
6313 1 24.3613 18.0745 2.3575
6314 1 22.7896 16.5028 3.9292
6315 1 24.3613 18.0745 5.5009
6316 1 22.7896 16.5028 7.0726
6317 1 24.3613 18.0745 8.6443
6318 1 22.7896 16.5028 10.216
6319 1 24.3613 18.0745 11.7877
6320 1 22.7896 16.5028 13.3594
6321 1 24.3613 18.0745 14.9311
6322 1 22.7896 19.6462 0.7858
6323 1 24.3613 21.2179 2.3575
6324 1 22.7896 19.6462 3.9292
6325 1 24.3613 21.2179 5.5009
6326 1 22.7896 19.6462 7.0726
6327 1 24.3613 21.2179 8.6443
6328 1 22.7896 19.6462 10.216
6329 1 24.3613 21.2179 11.7877
6330 1 22.7896 19.6462 13.3594
6331 1 24.3613 21.2179 14.9311
6332 1 22.7896 22.7896 0.7858
6333 1 24.3613 24.3613 2.3575
6334 1 22.7896 22.7896 3.9292
6335 1 24.3613 24.3613 5.5009
6336 1 22.7896 22.7896 7.0726
6337 1 24.3613 24.3613 8.6443
6338 1 22.7896 22.7896 10.216
6339 1 24.3613 24.3613 11.7877
6340 1 22.7896 22.7896 13.3594
6341 1 24.3613 24.3613 14.9311
6342 1 22.7896 25.933 0.7858
6343 1 24.3613 27.5047 2.3575
6344 1 22.7896 25.933 3.9292
6345 1 24.3613 27.5047 5.5009
6346 1 22.7896 25.933 7.0726
6347 1 24.3613 27.5047 8.6443
6348 1 22.7896 25.933 10.216
6349 1 24.3613 27.5047 11.7877
6350 1 22.7896 25.933 13.3594
6351 1 24.3613 27.5047 14.9311
6352 1 22.7896 29.0764 0.7858
6353 1 24.3613 30.6481 2.3575
6354 1 22.7896 29.0764 3.9292
6355 1 24.3613 30.6481 5.5009
6356 1 22.7896 29.0764 7.0726
6357 1 24.3613 30.6481 8.6443
6358 1 22.7896 29.0764 10.216
6359 1 24.3613 30.6481 11.7877
6360 1 22.7896 29.0764 13.3594
6361 1 24.3613 30.6481 14.9311
6362 1 22.7896 32.2197 0.7858
6363 1 24.3613 33.7914 2.3575
6364 1 22.7896 32.2197 3.9292
6365 1 24.3613 33.7914 5.5009
6366 1 22.7896 32.2197 7.0726
6367 1 24.3613 33.7914 8.6443
6368 1 22.7896 32.2197 10.216
6369 1 24.3613 33.7914 11.7877
6370 1 22.7896 32.2197 13.3594
6371 1 24.3613 33.7914 14.9311
6372 1 22.7896 35.3631 0.7858
6373 1 24.3613 36.9348 2.3575
6374 1 22.7896 35.3631 3.9292
6375 1 24.3613 36.9348 5.5009
6376 1 22.7896 35.3631 7.0726
6377 1 24.3613 36.9348 8.6443
6378 1 22.7896 35.3631 10.216
6379 1 24.3613 36.9348 11.7877
6380 1 22.7896 35.3631 13.3594
6381 1 24.3613 36.9348 14.9311
6382 1 22.7896 38.5065 0.7858
6383 1 24.3613 40.0782 2.3575
6384 1 22.7896 38.5065 3.9292
6385 1 24.3613 40.0782 5.5009
6386 1 22.7896 38.5065 7.0726
6387 1 24.3613 40.0782 8.6443
6388 1 22.7896 38.5065 10.216
6389 1 24.3613 40.0782 11.7877
6390 1 22.7896 38.5065 13.3594
6391 1 24.3613 40.0782 14.9311
6392 1 22.7896 41.6499 0.7858
6393 1 24.3613 43.2216 2.3575
6394 1 22.7896 41.6499 3.9292
6395 1 24.3613 43.2216 5.5009
6396 1 22.7896 41.6499 7.0726
6397 1 24.3613 43.2216 8.6443
6398 1 22.7896 41.6499 10.216
6399 1 24.3613 43.2216 11.7877
6400 1 22.7896 41.6499 13.3594
6401 1 24.3613 43.2216 14.9311
6402 1 22.7896 44.7933 0.7858
6403 1 24.3613 46.365 2.3575
6404 1 22.7896 44.7933 3.9292
6405 1 24.3613 46.365 5.5009
6406 1 22.7896 44.7933 7.0726
6407 1 24.3613 46.365 8.6443
6408 1 22.7896 44.7933 10.216
6409 1 24.3613 46.365 11.7877
6410 1 22.7896 44.7933 13.3594
6411 1 24.3613 46.365 14.9311
6412 1 22.7896 47.9367 0.7858
6413 1 24.3613 49.5084 2.3575
6414 1 22.7896 47.9367 3.9292
6415 1 24.3613 49.5084 5.5009
6416 1 22.7896 47.9367 7.0726
6417 1 24.3613 49.5084 8.6443
6418 1 22.7896 47.9367 10.216
6419 1 24.3613 49.5084 11.7877
6420 1 22.7896 47.9367 13.3594
6421 1 24.3613 49.5084 14.9311
6422 1 25.933 0.7858 0.7858
6423 1 27.5047 2.3575 2.3575
6424 1 25.933 0.7858 3.9292
6425 1 27.5047 2.3575 5.5009
6426 1 25.933 0.7858 7.0726
6427 1 27.5047 2.3575 8.6443
6428 1 25.933 0.7858 10.216
6429 1 27.5047 2.3575 11.7877
6430 1 25.933 0.7858 13.3594
6431 1 27.5047 2.3575 14.9311
6432 1 25.933 3.9292 0.7858
6433 1 27.5047 5.5009 2.3575
6434 1 25.933 3.9292 3.9292
6435 1 27.5047 5.5009 5.5009
6436 1 25.933 3.9292 7.0726
6437 1 27.5047 5.5009 8.6443
6438 1 25.933 3.9292 10.216
6439 1 27.5047 5.5009 11.7877
6440 1 25.933 3.9292 13.3594
6441 1 27.5047 5.5009 14.9311
6442 1 25.933 7.0726 0.7858
6443 1 27.5047 8.6443 2.3575
6444 1 25.933 7.0726 3.9292
6445 1 27.5047 8.6443 5.5009
6446 1 25.933 7.0726 7.0726
6447 1 27.5047 8.6443 8.6443
6448 1 25.933 7.0726 10.216
6449 1 27.5047 8.6443 11.7877
6450 1 25.933 7.0726 13.3594
6451 1 27.5047 8.6443 14.9311
6452 1 25.933 10.216 0.7858
6453 1 27.5047 11.7877 2.3575
6454 1 25.933 10.216 3.9292
6455 1 27.5047 11.7877 5.5009
6456 1 25.933 10.216 7.0726
6457 1 27.5047 11.7877 8.6443
6458 1 25.933 10.216 10.216
6459 1 27.5047 11.7877 11.7877
6460 1 25.933 10.216 13.3594
6461 1 27.5047 11.7877 14.9311
6462 1 25.933 13.3594 0.7858
6463 1 27.5047 14.9311 2.3575
6464 1 25.933 13.3594 3.9292
6465 1 27.5047 14.9311 5.5009
6466 1 25.933 13.3594 7.0726
6467 1 27.5047 14.9311 8.6443
6468 1 25.933 13.3594 10.216
6469 1 27.5047 14.9311 11.7877
6470 1 25.933 13.3594 13.3594
6471 1 27.5047 14.9311 14.9311
6472 1 25.933 16.5028 0.7858
6473 1 27.5047 18.0745 2.3575
6474 1 25.933 16.5028 3.9292
6475 1 27.5047 18.0745 5.5009
6476 1 25.933 16.5028 7.0726
6477 1 27.5047 18.0745 8.6443
6478 1 25.933 16.5028 10.216
6479 1 27.5047 18.0745 11.7877
6480 1 25.933 16.5028 13.3594
6481 1 27.5047 18.0745 14.9311
6482 1 25.933 19.6462 0.7858
6483 1 27.5047 21.2179 2.3575
6484 1 25.933 19.6462 3.9292
6485 1 27.5047 21.2179 5.5009
6486 1 25.933 19.6462 7.0726
6487 1 27.5047 21.2179 8.6443
6488 1 25.933 19.6462 10.216
6489 1 27.5047 21.2179 11.7877
6490 1 25.933 19.6462 13.3594
6491 1 27.5047 21.2179 14.9311
6492 1 25.933 22.7896 0.7858
6493 1 27.5047 24.3613 2.3575
6494 1 25.933 22.7896 3.9292
6495 1 27.5047 24.3613 5.5009
6496 1 25.933 22.7896 7.0726
6497 1 27.5047 24.3613 8.6443
6498 1 25.933 22.7896 10.216
6499 1 27.5047 24.3613 11.7877
6500 1 25.933 22.7896 13.3594
6501 1 27.5047 24.3613 14.9311
6502 1 25.933 25.933 0.7858
6503 1 27.5047 27.5047 2.3575
6504 1 25.933 25.933 3.9292
6505 1 27.5047 27.5047 5.5009
6506 1 25.933 25.933 7.0726
6507 1 27.5047 27.5047 8.6443
6508 1 25.933 25.933 10.216
6509 1 27.5047 27.5047 11.7877
6510 1 25.933 25.933 13.3594
6511 1 27.5047 27.5047 14.9311
6512 1 25.933 29.0764 0.7858
6513 1 27.5047 30.6481 2.3575
6514 1 25.933 29.0764 3.9292
6515 1 27.5047 30.6481 5.5009
6516 1 25.933 29.0764 7.0726
6517 1 27.5047 30.6481 8.6443
6518 1 25.933 29.0764 10.216
6519 1 27.5047 30.6481 11.7877
6520 1 25.933 29.0764 13.3594
6521 1 27.5047 30.6481 14.9311
6522 1 25.933 32.2197 0.7858
6523 1 27.5047 33.7914 2.3575
6524 1 25.933 32.2197 3.9292
6525 1 27.5047 33.7914 5.5009
6526 1 25.933 32.2197 7.0726
6527 1 27.5047 33.7914 8.6443
6528 1 25.933 32.2197 10.216
6529 1 27.5047 33.7914 11.7877
6530 1 25.933 32.2197 13.3594
6531 1 27.5047 33.7914 14.9311
6532 1 25.933 35.3631 0.7858
6533 1 27.5047 36.9348 2.3575
6534 1 25.933 35.3631 3.9292
6535 1 27.5047 36.9348 5.5009
6536 1 25.933 35.3631 7.0726
6537 1 27.5047 36.9348 8.6443
6538 1 25.933 35.3631 10.216
6539 1 27.5047 36.9348 11.7877
6540 1 25.933 35.3631 13.3594
6541 1 27.5047 36.9348 14.9311
6542 1 25.933 38.5065 0.7858
6543 1 27.5047 40.0782 2.3575
6544 1 25.933 38.5065 3.9292
6545 1 27.5047 40.0782 5.5009
6546 1 25.933 38.5065 7.0726
6547 1 27.5047 40.0782 8.6443
6548 1 25.933 38.5065 10.216
6549 1 27.5047 40.0782 11.7877
6550 1 25.933 38.5065 13.3594
6551 1 27.5047 40.0782 14.9311
6552 1 25.933 41.6499 0.7858
6553 1 27.5047 43.2216 2.3575
6554 1 25.933 41.6499 3.9292
6555 1 27.5047 43.2216 5.5009
6556 1 25.933 41.6499 7.0726
6557 1 27.5047 43.2216 8.6443
6558 1 25.933 41.6499 10.216
6559 1 27.5047 43.2216 11.7877
6560 1 25.933 41.6499 13.3594
6561 1 27.5047 43.2216 14.9311
6562 1 25.933 44.7933 0.7858
6563 1 27.5047 46.365 2.3575
6564 1 25.933 44.7933 3.9292
6565 1 27.5047 46.365 5.5009
6566 1 25.933 44.7933 7.0726
6567 1 27.5047 46.365 8.6443
6568 1 25.933 44.7933 10.216
6569 1 27.5047 46.365 11.7877
6570 1 25.933 44.7933 13.3594
6571 1 27.5047 46.365 14.9311
6572 1 25.933 47.9367 0.7858
6573 1 27.5047 49.5084 2.3575
6574 1 25.933 47.9367 3.9292
6575 1 27.5047 49.5084 5.5009
6576 1 25.933 47.9367 7.0726
6577 1 27.5047 49.5084 8.6443
6578 1 25.933 47.9367 10.216
6579 1 27.5047 49.5084 11.7877
6580 1 25.933 47.9367 13.3594
6581 1 27.5047 49.5084 14.9311
6582 1 29.0764 0.7858 0.7858
6583 1 30.6481 2.3575 2.3575
6584 1 29.0764 0.7858 3.9292
6585 1 30.6481 2.3575 5.5009
6586 1 29.0764 0.7858 7.0726
6587 1 30.6481 2.3575 8.6443
6588 1 29.0764 0.7858 10.216
6589 1 30.6481 2.3575 11.7877
6590 1 29.0764 0.7858 13.3594
6591 1 30.6481 2.3575 14.9311
6592 1 29.0764 3.9292 0.7858
6593 1 30.6481 5.5009 2.3575
6594 1 29.0764 3.9292 3.9292
6595 1 30.6481 5.5009 5.5009
6596 1 29.0764 3.9292 7.0726
6597 1 30.6481 5.5009 8.6443
6598 1 29.0764 3.9292 10.216
6599 1 30.6481 5.5009 11.7877
6600 1 29.0764 3.9292 13.3594
6601 1 30.6481 5.5009 14.9311
6602 1 29.0764 7.0726 0.7858
6603 1 30.6481 8.6443 2.3575
6604 1 29.0764 7.0726 3.9292
6605 1 30.6481 8.6443 5.5009
6606 1 29.0764 7.0726 7.0726
6607 1 30.6481 8.6443 8.6443
6608 1 29.0764 7.0726 10.216
6609 1 30.6481 8.6443 11.7877
6610 1 29.0764 7.0726 13.3594
6611 1 30.6481 8.6443 14.9311
6612 1 29.0764 10.216 0.7858
6613 1 30.6481 11.7877 2.3575
6614 1 29.0764 10.216 3.9292
6615 1 30.6481 11.7877 5.5009
6616 1 29.0764 10.216 7.0726
6617 1 30.6481 11.7877 8.6443
6618 1 29.0764 10.216 10.216
6619 1 30.6481 11.7877 11.7877
6620 1 29.0764 10.216 13.3594
6621 1 30.6481 11.7877 14.9311
6622 1 29.0764 13.3594 0.7858
6623 1 30.6481 14.9311 2.3575
6624 1 29.0764 13.3594 3.9292
6625 1 30.6481 14.9311 5.5009
6626 1 29.0764 13.3594 7.0726
6627 1 30.6481 14.9311 8.6443
6628 1 29.0764 13.3594 10.216
6629 1 30.6481 14.9311 11.7877
6630 1 29.0764 13.3594 13.3594
6631 1 30.6481 14.9311 14.9311
6632 1 29.0764 16.5028 0.7858
6633 1 30.6481 18.0745 2.3575
6634 1 29.0764 16.5028 3.9292
6635 1 30.6481 18.0745 5.5009
6636 1 29.0764 16.5028 7.0726
6637 1 30.6481 18.0745 8.6443
6638 1 29.0764 16.5028 10.216
6639 1 30.6481 18.0745 11.7877
6640 1 29.0764 16.5028 13.3594
6641 1 30.6481 18.0745 14.9311
6642 1 29.0764 19.6462 0.7858
6643 1 30.6481 21.2179 2.3575
6644 1 29.0764 19.6462 3.9292
6645 1 30.6481 21.2179 5.5009
6646 1 29.0764 19.6462 7.0726
6647 1 30.6481 21.2179 8.6443
6648 1 29.0764 19.6462 10.216
6649 1 30.6481 21.2179 11.7877
6650 1 29.0764 19.6462 13.3594
6651 1 30.6481 21.2179 14.9311
6652 1 29.0764 22.7896 0.7858
6653 1 30.6481 24.3613 2.3575
6654 1 29.0764 22.7896 3.9292
6655 1 30.6481 24.3613 5.5009
6656 1 29.0764 22.7896 7.0726
6657 1 30.6481 24.3613 8.6443
6658 1 29.0764 22.7896 10.216
6659 1 30.6481 24.3613 11.7877
6660 1 29.0764 22.7896 13.3594
6661 1 30.6481 24.3613 14.9311
6662 1 29.0764 25.933 0.7858
6663 1 30.6481 27.5047 2.3575
6664 1 29.0764 25.933 3.9292
6665 1 30.6481 27.5047 5.5009
6666 1 29.0764 25.933 7.0726
6667 1 30.6481 27.5047 8.6443
6668 1 29.0764 25.933 10.216
6669 1 30.6481 27.5047 11.7877
6670 1 29.0764 25.933 13.3594
6671 1 30.6481 27.5047 14.9311
6672 1 29.0764 29.0764 0.7858
6673 1 30.6481 30.6481 2.3575
6674 1 29.0764 29.0764 3.9292
6675 1 30.6481 30.6481 5.5009
6676 1 29.0764 29.0764 7.0726
6677 1 30.6481 30.6481 8.6443
6678 1 29.0764 29.0764 10.216
6679 1 30.6481 30.6481 11.7877
6680 1 29.0764 29.0764 13.3594
6681 1 30.6481 30.6481 14.9311
6682 1 29.0764 32.2197 0.7858
6683 1 30.6481 33.7914 2.3575
6684 1 29.0764 32.2197 3.9292
6685 1 30.6481 33.7914 5.5009
6686 1 29.0764 32.2197 7.0726
6687 1 30.6481 33.7914 8.6443
6688 1 29.0764 32.2197 10.216
6689 1 30.6481 33.7914 11.7877
6690 1 29.0764 32.2197 13.3594
6691 1 30.6481 33.7914 14.9311
6692 1 29.0764 35.3631 0.7858
6693 1 30.6481 36.9348 2.3575
6694 1 29.0764 35.3631 3.9292
6695 1 30.6481 36.9348 5.5009
6696 1 29.0764 35.3631 7.0726
6697 1 30.6481 36.9348 8.6443
6698 1 29.0764 35.3631 10.216
6699 1 30.6481 36.9348 11.7877
6700 1 29.0764 35.3631 13.3594
6701 1 30.6481 36.9348 14.9311
6702 1 29.0764 38.5065 0.7858
6703 1 30.6481 40.0782 2.3575
6704 1 29.0764 38.5065 3.9292
6705 1 30.6481 40.0782 5.5009
6706 1 29.0764 38.5065 7.0726
6707 1 30.6481 40.0782 8.6443
6708 1 29.0764 38.5065 10.216
6709 1 30.6481 40.0782 11.7877
6710 1 29.0764 38.5065 13.3594
6711 1 30.6481 40.0782 14.9311
6712 1 29.0764 41.6499 0.7858
6713 1 30.6481 43.2216 2.3575
6714 1 29.0764 41.6499 3.9292
6715 1 30.6481 43.2216 5.5009
6716 1 29.0764 41.6499 7.0726
6717 1 30.6481 43.2216 8.6443
6718 1 29.0764 41.6499 10.216
6719 1 30.6481 43.2216 11.7877
6720 1 29.0764 41.6499 13.3594
6721 1 30.6481 43.2216 14.9311
6722 1 29.0764 44.7933 0.7858
6723 1 30.6481 46.365 2.3575
6724 1 29.0764 44.7933 3.9292
6725 1 30.6481 46.365 5.5009
6726 1 29.0764 44.7933 7.0726
6727 1 30.6481 46.365 8.6443
6728 1 29.0764 44.7933 10.216
6729 1 30.6481 46.365 11.7877
6730 1 29.0764 44.7933 13.3594
6731 1 30.6481 46.365 14.9311
6732 1 29.0764 47.9367 0.7858
6733 1 30.6481 49.5084 2.3575
6734 1 29.0764 47.9367 3.9292
6735 1 30.6481 49.5084 5.5009
6736 1 29.0764 47.9367 7.0726
6737 1 30.6481 49.5084 8.6443
6738 1 29.0764 47.9367 10.216
6739 1 30.6481 49.5084 11.7877
6740 1 29.0764 47.9367 13.3594
6741 1 30.6481 49.5084 14.9311
6742 1 16.5028 0.7858 32.2197
6743 1 18.0745 2.3575 33.7914
6744 1 16.5028 0.7858 35.3631
6745 1 18.0745 2.3575 36.9348
6746 1 16.5028 0.7858 38.5065
6747 1 18.0745 2.3575 40.0782
6748 1 16.5028 0.7858 41.6499
6749 1 18.0745 2.3575 43.2216
6750 1 16.5028 0.7858 44.7933
6751 1 18.0745 2.3575 46.365
6752 1 16.5028 0.7858 47.9367
6753 1 18.0745 2.3575 49.5084
6754 1 16.5028 3.9292 32.2197
6755 1 18.0745 5.5009 33.7914
6756 1 16.5028 3.9292 35.3631
6757 1 18.0745 5.5009 36.9348
6758 1 16.5028 3.9292 38.5065
6759 1 18.0745 5.5009 40.0782
6760 1 16.5028 3.9292 41.6499
6761 1 18.0745 5.5009 43.2216
6762 1 16.5028 3.9292 44.7933
6763 1 18.0745 5.5009 46.365
6764 1 16.5028 3.9292 47.9367
6765 1 18.0745 5.5009 49.5084
6766 1 16.5028 7.0726 32.2197
6767 1 18.0745 8.6443 33.7914
6768 1 16.5028 7.0726 35.3631
6769 1 18.0745 8.6443 36.9348
6770 1 16.5028 7.0726 38.5065
6771 1 18.0745 8.6443 40.0782
6772 1 16.5028 7.0726 41.6499
6773 1 18.0745 8.6443 43.2216
6774 1 16.5028 7.0726 44.7933
6775 1 18.0745 8.6443 46.365
6776 1 16.5028 7.0726 47.9367
6777 1 18.0745 8.6443 49.5084
6778 1 16.5028 10.216 32.2197
6779 1 18.0745 11.7877 33.7914
6780 1 16.5028 10.216 35.3631
6781 1 18.0745 11.7877 36.9348
6782 1 16.5028 10.216 38.5065
6783 1 18.0745 11.7877 40.0782
6784 1 16.5028 10.216 41.6499
6785 1 18.0745 11.7877 43.2216
6786 1 16.5028 10.216 44.7933
6787 1 18.0745 11.7877 46.365
6788 1 16.5028 10.216 47.9367
6789 1 18.0745 11.7877 49.5084
6790 1 16.5028 13.3594 32.2197
6791 1 18.0745 14.9311 33.7914
6792 1 16.5028 13.3594 35.3631
6793 1 18.0745 14.9311 36.9348
6794 1 16.5028 13.3594 38.5065
6795 1 18.0745 14.9311 40.0782
6796 1 16.5028 13.3594 41.6499
6797 1 18.0745 14.9311 43.2216
6798 1 16.5028 13.3594 44.7933
6799 1 18.0745 14.9311 46.365
6800 1 16.5028 13.3594 47.9367
6801 1 18.0745 14.9311 49.5084
6802 1 16.5028 16.5028 32.2197
6803 1 18.0745 18.0745 33.7914
6804 1 16.5028 16.5028 35.3631
6805 1 18.0745 18.0745 36.9348
6806 1 16.5028 16.5028 38.5065
6807 1 18.0745 18.0745 40.0782
6808 1 16.5028 16.5028 41.6499
6809 1 18.0745 18.0745 43.2216
6810 1 16.5028 16.5028 44.7933
6811 1 18.0745 18.0745 46.365
6812 1 16.5028 16.5028 47.9367
6813 1 18.0745 18.0745 49.5084
6814 1 16.5028 19.6462 32.2197
6815 1 18.0745 21.2179 33.7914
6816 1 16.5028 19.6462 35.3631
6817 1 18.0745 21.2179 36.9348
6818 1 16.5028 19.6462 38.5065
6819 1 18.0745 21.2179 40.0782
6820 1 16.5028 19.6462 41.6499
6821 1 18.0745 21.2179 43.2216
6822 1 16.5028 19.6462 44.7933
6823 1 18.0745 21.2179 46.365
6824 1 16.5028 19.6462 47.9367
6825 1 18.0745 21.2179 49.5084
6826 1 16.5028 22.7896 32.2197
6827 1 18.0745 24.3613 33.7914
6828 1 16.5028 22.7896 35.3631
6829 1 18.0745 24.3613 36.9348
6830 1 16.5028 22.7896 38.5065
6831 1 18.0745 24.3613 40.0782
6832 1 16.5028 22.7896 41.6499
6833 1 18.0745 24.3613 43.2216
6834 1 16.5028 22.7896 44.7933
6835 1 18.0745 24.3613 46.365
6836 1 16.5028 22.7896 47.9367
6837 1 18.0745 24.3613 49.5084
6838 1 16.5028 25.933 32.2197
6839 1 18.0745 27.5047 33.7914
6840 1 16.5028 25.933 35.3631
6841 1 18.0745 27.5047 36.9348
6842 1 16.5028 25.933 38.5065
6843 1 18.0745 27.5047 40.0782
6844 1 16.5028 25.933 41.6499
6845 1 18.0745 27.5047 43.2216
6846 1 16.5028 25.933 44.7933
6847 1 18.0745 27.5047 46.365
6848 1 16.5028 25.933 47.9367
6849 1 18.0745 27.5047 49.5084
6850 1 16.5028 29.0764 32.2197
6851 1 18.0745 30.6481 33.7914
6852 1 16.5028 29.0764 35.3631
6853 1 18.0745 30.6481 36.9348
6854 1 16.5028 29.0764 38.5065
6855 1 18.0745 30.6481 40.0782
6856 1 16.5028 29.0764 41.6499
6857 1 18.0745 30.6481 43.2216
6858 1 16.5028 29.0764 44.7933
6859 1 18.0745 30.6481 46.365
6860 1 16.5028 29.0764 47.9367
6861 1 18.0745 30.6481 49.5084
6862 1 16.5028 32.2197 32.2197
6863 1 18.0745 33.7914 33.7914
6864 1 16.5028 32.2197 35.3631
6865 1 18.0745 33.7914 36.9348
6866 1 16.5028 32.2197 38.5065
6867 1 18.0745 33.7914 40.0782
6868 1 16.5028 32.2197 41.6499
6869 1 18.0745 33.7914 43.2216
6870 1 16.5028 32.2197 44.7933
6871 1 18.0745 33.7914 46.365
6872 1 16.5028 32.2197 47.9367
6873 1 18.0745 33.7914 49.5084
6874 1 16.5028 35.3631 32.2197
6875 1 18.0745 36.9348 33.7914
6876 1 16.5028 35.3631 35.3631
6877 1 18.0745 36.9348 36.9348
6878 1 16.5028 35.3631 38.5065
6879 1 18.0745 36.9348 40.0782
6880 1 16.5028 35.3631 41.6499
6881 1 18.0745 36.9348 43.2216
6882 1 16.5028 35.3631 44.7933
6883 1 18.0745 36.9348 46.365
6884 1 16.5028 35.3631 47.9367
6885 1 18.0745 36.9348 49.5084
6886 1 16.5028 38.5065 32.2197
6887 1 18.0745 40.0782 33.7914
6888 1 16.5028 38.5065 35.3631
6889 1 18.0745 40.0782 36.9348
6890 1 16.5028 38.5065 38.5065
6891 1 18.0745 40.0782 40.0782
6892 1 16.5028 38.5065 41.6499
6893 1 18.0745 40.0782 43.2216
6894 1 16.5028 38.5065 44.7933
6895 1 18.0745 40.0782 46.365
6896 1 16.5028 38.5065 47.9367
6897 1 18.0745 40.0782 49.5084
6898 1 16.5028 41.6499 32.2197
6899 1 18.0745 43.2216 33.7914
6900 1 16.5028 41.6499 35.3631
6901 1 18.0745 43.2216 36.9348
6902 1 16.5028 41.6499 38.5065
6903 1 18.0745 43.2216 40.0782
6904 1 16.5028 41.6499 41.6499
6905 1 18.0745 43.2216 43.2216
6906 1 16.5028 41.6499 44.7933
6907 1 18.0745 43.2216 46.365
6908 1 16.5028 41.6499 47.9367
6909 1 18.0745 43.2216 49.5084
6910 1 16.5028 44.7933 32.2197
6911 1 18.0745 46.365 33.7914
6912 1 16.5028 44.7933 35.3631
6913 1 18.0745 46.365 36.9348
6914 1 16.5028 44.7933 38.5065
6915 1 18.0745 46.365 40.0782
6916 1 16.5028 44.7933 41.6499
6917 1 18.0745 46.365 43.2216
6918 1 16.5028 44.7933 44.7933
6919 1 18.0745 46.365 46.365
6920 1 16.5028 44.7933 47.9367
6921 1 18.0745 46.365 49.5084
6922 1 16.5028 47.9367 32.2197
6923 1 18.0745 49.5084 33.7914
6924 1 16.5028 47.9367 35.3631
6925 1 18.0745 49.5084 36.9348
6926 1 16.5028 47.9367 38.5065
6927 1 18.0745 49.5084 40.0782
6928 1 16.5028 47.9367 41.6499
6929 1 18.0745 49.5084 43.2216
6930 1 16.5028 47.9367 44.7933
6931 1 18.0745 49.5084 46.365
6932 1 16.5028 47.9367 47.9367
6933 1 18.0745 49.5084 49.5084
6934 1 19.6462 0.7858 32.2197
6935 1 21.2179 2.3575 33.7914
6936 1 19.6462 0.7858 35.3631
6937 1 21.2179 2.3575 36.9348
6938 1 19.6462 0.7858 38.5065
6939 1 21.2179 2.3575 40.0782
6940 1 19.6462 0.7858 41.6499
6941 1 21.2179 2.3575 43.2216
6942 1 19.6462 0.7858 44.7933
6943 1 21.2179 2.3575 46.365
6944 1 19.6462 0.7858 47.9367
6945 1 21.2179 2.3575 49.5084
6946 1 19.6462 3.9292 32.2197
6947 1 21.2179 5.5009 33.7914
6948 1 19.6462 3.9292 35.3631
6949 1 21.2179 5.5009 36.9348
6950 1 19.6462 3.9292 38.5065
6951 1 21.2179 5.5009 40.0782
6952 1 19.6462 3.9292 41.6499
6953 1 21.2179 5.5009 43.2216
6954 1 19.6462 3.9292 44.7933
6955 1 21.2179 5.5009 46.365
6956 1 19.6462 3.9292 47.9367
6957 1 21.2179 5.5009 49.5084
6958 1 19.6462 7.0726 32.2197
6959 1 21.2179 8.6443 33.7914
6960 1 19.6462 7.0726 35.3631
6961 1 21.2179 8.6443 36.9348
6962 1 19.6462 7.0726 38.5065
6963 1 21.2179 8.6443 40.0782
6964 1 19.6462 7.0726 41.6499
6965 1 21.2179 8.6443 43.2216
6966 1 19.6462 7.0726 44.7933
6967 1 21.2179 8.6443 46.365
6968 1 19.6462 7.0726 47.9367
6969 1 21.2179 8.6443 49.5084
6970 1 19.6462 10.216 32.2197
6971 1 21.2179 11.7877 33.7914
6972 1 19.6462 10.216 35.3631
6973 1 21.2179 11.7877 36.9348
6974 1 19.6462 10.216 38.5065
6975 1 21.2179 11.7877 40.0782
6976 1 19.6462 10.216 41.6499
6977 1 21.2179 11.7877 43.2216
6978 1 19.6462 10.216 44.7933
6979 1 21.2179 11.7877 46.365
6980 1 19.6462 10.216 47.9367
6981 1 21.2179 11.7877 49.5084
6982 1 19.6462 13.3594 32.2197
6983 1 21.2179 14.9311 33.7914
6984 1 19.6462 13.3594 35.3631
6985 1 21.2179 14.9311 36.9348
6986 1 19.6462 13.3594 38.5065
6987 1 21.2179 14.9311 40.0782
6988 1 19.6462 13.3594 41.6499
6989 1 21.2179 14.9311 43.2216
6990 1 19.6462 13.3594 44.7933
6991 1 21.2179 14.9311 46.365
6992 1 19.6462 13.3594 47.9367
6993 1 21.2179 14.9311 49.5084
6994 1 19.6462 16.5028 32.2197
6995 1 21.2179 18.0745 33.7914
6996 1 19.6462 16.5028 35.3631
6997 1 21.2179 18.0745 36.9348
6998 1 19.6462 16.5028 38.5065
6999 1 21.2179 18.0745 40.0782
7000 1 19.6462 16.5028 41.6499
7001 1 21.2179 18.0745 43.2216
7002 1 19.6462 16.5028 44.7933
7003 1 21.2179 18.0745 46.365
7004 1 19.6462 16.5028 47.9367
7005 1 21.2179 18.0745 49.5084
7006 1 19.6462 19.6462 32.2197
7007 1 21.2179 21.2179 33.7914
7008 1 19.6462 19.6462 35.3631
7009 1 21.2179 21.2179 36.9348
7010 1 19.6462 19.6462 38.5065
7011 1 21.2179 21.2179 40.0782
7012 1 19.6462 19.6462 41.6499
7013 1 21.2179 21.2179 43.2216
7014 1 19.6462 19.6462 44.7933
7015 1 21.2179 21.2179 46.365
7016 1 19.6462 19.6462 47.9367
7017 1 21.2179 21.2179 49.5084
7018 1 19.6462 22.7896 32.2197
7019 1 21.2179 24.3613 33.7914
7020 1 19.6462 22.7896 35.3631
7021 1 21.2179 24.3613 36.9348
7022 1 19.6462 22.7896 38.5065
7023 1 21.2179 24.3613 40.0782
7024 1 19.6462 22.7896 41.6499
7025 1 21.2179 24.3613 43.2216
7026 1 19.6462 22.7896 44.7933
7027 1 21.2179 24.3613 46.365
7028 1 19.6462 22.7896 47.9367
7029 1 21.2179 24.3613 49.5084
7030 1 19.6462 25.933 32.2197
7031 1 21.2179 27.5047 33.7914
7032 1 19.6462 25.933 35.3631
7033 1 21.2179 27.5047 36.9348
7034 1 19.6462 25.933 38.5065
7035 1 21.2179 27.5047 40.0782
7036 1 19.6462 25.933 41.6499
7037 1 21.2179 27.5047 43.2216
7038 1 19.6462 25.933 44.7933
7039 1 21.2179 27.5047 46.365
7040 1 19.6462 25.933 47.9367
7041 1 21.2179 27.5047 49.5084
7042 1 19.6462 29.0764 32.2197
7043 1 21.2179 30.6481 33.7914
7044 1 19.6462 29.0764 35.3631
7045 1 21.2179 30.6481 36.9348
7046 1 19.6462 29.0764 38.5065
7047 1 21.2179 30.6481 40.0782
7048 1 19.6462 29.0764 41.6499
7049 1 21.2179 30.6481 43.2216
7050 1 19.6462 29.0764 44.7933
7051 1 21.2179 30.6481 46.365
7052 1 19.6462 29.0764 47.9367
7053 1 21.2179 30.6481 49.5084
7054 1 19.6462 32.2197 32.2197
7055 1 21.2179 33.7914 33.7914
7056 1 19.6462 32.2197 35.3631
7057 1 21.2179 33.7914 36.9348
7058 1 19.6462 32.2197 38.5065
7059 1 21.2179 33.7914 40.0782
7060 1 19.6462 32.2197 41.6499
7061 1 21.2179 33.7914 43.2216
7062 1 19.6462 32.2197 44.7933
7063 1 21.2179 33.7914 46.365
7064 1 19.6462 32.2197 47.9367
7065 1 21.2179 33.7914 49.5084
7066 1 19.6462 35.3631 32.2197
7067 1 21.2179 36.9348 33.7914
7068 1 19.6462 35.3631 35.3631
7069 1 21.2179 36.9348 36.9348
7070 1 19.6462 35.3631 38.5065
7071 1 21.2179 36.9348 40.0782
7072 1 19.6462 35.3631 41.6499
7073 1 21.2179 36.9348 43.2216
7074 1 19.6462 35.3631 44.7933
7075 1 21.2179 36.9348 46.365
7076 1 19.6462 35.3631 47.9367
7077 1 21.2179 36.9348 49.5084
7078 1 19.6462 38.5065 32.2197
7079 1 21.2179 40.0782 33.7914
7080 1 19.6462 38.5065 35.3631
7081 1 21.2179 40.0782 36.9348
7082 1 19.6462 38.5065 38.5065
7083 1 21.2179 40.0782 40.0782
7084 1 19.6462 38.5065 41.6499
7085 1 21.2179 40.0782 43.2216
7086 1 19.6462 38.5065 44.7933
7087 1 21.2179 40.0782 46.365
7088 1 19.6462 38.5065 47.9367
7089 1 21.2179 40.0782 49.5084
7090 1 19.6462 41.6499 32.2197
7091 1 21.2179 43.2216 33.7914
7092 1 19.6462 41.6499 35.3631
7093 1 21.2179 43.2216 36.9348
7094 1 19.6462 41.6499 38.5065
7095 1 21.2179 43.2216 40.0782
7096 1 19.6462 41.6499 41.6499
7097 1 21.2179 43.2216 43.2216
7098 1 19.6462 41.6499 44.7933
7099 1 21.2179 43.2216 46.365
7100 1 19.6462 41.6499 47.9367
7101 1 21.2179 43.2216 49.5084
7102 1 19.6462 44.7933 32.2197
7103 1 21.2179 46.365 33.7914
7104 1 19.6462 44.7933 35.3631
7105 1 21.2179 46.365 36.9348
7106 1 19.6462 44.7933 38.5065
7107 1 21.2179 46.365 40.0782
7108 1 19.6462 44.7933 41.6499
7109 1 21.2179 46.365 43.2216
7110 1 19.6462 44.7933 44.7933
7111 1 21.2179 46.365 46.365
7112 1 19.6462 44.7933 47.9367
7113 1 21.2179 46.365 49.5084
7114 1 19.6462 47.9367 32.2197
7115 1 21.2179 49.5084 33.7914
7116 1 19.6462 47.9367 35.3631
7117 1 21.2179 49.5084 36.9348
7118 1 19.6462 47.9367 38.5065
7119 1 21.2179 49.5084 40.0782
7120 1 19.6462 47.9367 41.6499
7121 1 21.2179 49.5084 43.2216
7122 1 19.6462 47.9367 44.7933
7123 1 21.2179 49.5084 46.365
7124 1 19.6462 47.9367 47.9367
7125 1 21.2179 49.5084 49.5084
7126 1 22.7896 0.7858 32.2197
7127 1 24.3613 2.3575 33.7914
7128 1 22.7896 0.7858 35.3631
7129 1 24.3613 2.3575 36.9348
7130 1 22.7896 0.7858 38.5065
7131 1 24.3613 2.3575 40.0782
7132 1 22.7896 0.7858 41.6499
7133 1 24.3613 2.3575 43.2216
7134 1 22.7896 0.7858 44.7933
7135 1 24.3613 2.3575 46.365
7136 1 22.7896 0.7858 47.9367
7137 1 24.3613 2.3575 49.5084
7138 1 22.7896 3.9292 32.2197
7139 1 24.3613 5.5009 33.7914
7140 1 22.7896 3.9292 35.3631
7141 1 24.3613 5.5009 36.9348
7142 1 22.7896 3.9292 38.5065
7143 1 24.3613 5.5009 40.0782
7144 1 22.7896 3.9292 41.6499
7145 1 24.3613 5.5009 43.2216
7146 1 22.7896 3.9292 44.7933
7147 1 24.3613 5.5009 46.365
7148 1 22.7896 3.9292 47.9367
7149 1 24.3613 5.5009 49.5084
7150 1 22.7896 7.0726 32.2197
7151 1 24.3613 8.6443 33.7914
7152 1 22.7896 7.0726 35.3631
7153 1 24.3613 8.6443 36.9348
7154 1 22.7896 7.0726 38.5065
7155 1 24.3613 8.6443 40.0782
7156 1 22.7896 7.0726 41.6499
7157 1 24.3613 8.6443 43.2216
7158 1 22.7896 7.0726 44.7933
7159 1 24.3613 8.6443 46.365
7160 1 22.7896 7.0726 47.9367
7161 1 24.3613 8.6443 49.5084
7162 1 22.7896 10.216 32.2197
7163 1 24.3613 11.7877 33.7914
7164 1 22.7896 10.216 35.3631
7165 1 24.3613 11.7877 36.9348
7166 1 22.7896 10.216 38.5065
7167 1 24.3613 11.7877 40.0782
7168 1 22.7896 10.216 41.6499
7169 1 24.3613 11.7877 43.2216
7170 1 22.7896 10.216 44.7933
7171 1 24.3613 11.7877 46.365
7172 1 22.7896 10.216 47.9367
7173 1 24.3613 11.7877 49.5084
7174 1 22.7896 13.3594 32.2197
7175 1 24.3613 14.9311 33.7914
7176 1 22.7896 13.3594 35.3631
7177 1 24.3613 14.9311 36.9348
7178 1 22.7896 13.3594 38.5065
7179 1 24.3613 14.9311 40.0782
7180 1 22.7896 13.3594 41.6499
7181 1 24.3613 14.9311 43.2216
7182 1 22.7896 13.3594 44.7933
7183 1 24.3613 14.9311 46.365
7184 1 22.7896 13.3594 47.9367
7185 1 24.3613 14.9311 49.5084
7186 1 22.7896 16.5028 32.2197
7187 1 24.3613 18.0745 33.7914
7188 1 22.7896 16.5028 35.3631
7189 1 24.3613 18.0745 36.9348
7190 1 22.7896 16.5028 38.5065
7191 1 24.3613 18.0745 40.0782
7192 1 22.7896 16.5028 41.6499
7193 1 24.3613 18.0745 43.2216
7194 1 22.7896 16.5028 44.7933
7195 1 24.3613 18.0745 46.365
7196 1 22.7896 16.5028 47.9367
7197 1 24.3613 18.0745 49.5084
7198 1 22.7896 19.6462 32.2197
7199 1 24.3613 21.2179 33.7914
7200 1 22.7896 19.6462 35.3631
7201 1 24.3613 21.2179 36.9348
7202 1 22.7896 19.6462 38.5065
7203 1 24.3613 21.2179 40.0782
7204 1 22.7896 19.6462 41.6499
7205 1 24.3613 21.2179 43.2216
7206 1 22.7896 19.6462 44.7933
7207 1 24.3613 21.2179 46.365
7208 1 22.7896 19.6462 47.9367
7209 1 24.3613 21.2179 49.5084
7210 1 22.7896 22.7896 32.2197
7211 1 24.3613 24.3613 33.7914
7212 1 22.7896 22.7896 35.3631
7213 1 24.3613 24.3613 36.9348
7214 1 22.7896 22.7896 38.5065
7215 1 24.3613 24.3613 40.0782
7216 1 22.7896 22.7896 41.6499
7217 1 24.3613 24.3613 43.2216
7218 1 22.7896 22.7896 44.7933
7219 1 24.3613 24.3613 46.365
7220 1 22.7896 22.7896 47.9367
7221 1 24.3613 24.3613 49.5084
7222 1 22.7896 25.933 32.2197
7223 1 24.3613 27.5047 33.7914
7224 1 22.7896 25.933 35.3631
7225 1 24.3613 27.5047 36.9348
7226 1 22.7896 25.933 38.5065
7227 1 24.3613 27.5047 40.0782
7228 1 22.7896 25.933 41.6499
7229 1 24.3613 27.5047 43.2216
7230 1 22.7896 25.933 44.7933
7231 1 24.3613 27.5047 46.365
7232 1 22.7896 25.933 47.9367
7233 1 24.3613 27.5047 49.5084
7234 1 22.7896 29.0764 32.2197
7235 1 24.3613 30.6481 33.7914
7236 1 22.7896 29.0764 35.3631
7237 1 24.3613 30.6481 36.9348
7238 1 22.7896 29.0764 38.5065
7239 1 24.3613 30.6481 40.0782
7240 1 22.7896 29.0764 41.6499
7241 1 24.3613 30.6481 43.2216
7242 1 22.7896 29.0764 44.7933
7243 1 24.3613 30.6481 46.365
7244 1 22.7896 29.0764 47.9367
7245 1 24.3613 30.6481 49.5084
7246 1 22.7896 32.2197 32.2197
7247 1 24.3613 33.7914 33.7914
7248 1 22.7896 32.2197 35.3631
7249 1 24.3613 33.7914 36.9348
7250 1 22.7896 32.2197 38.5065
7251 1 24.3613 33.7914 40.0782
7252 1 22.7896 32.2197 41.6499
7253 1 24.3613 33.7914 43.2216
7254 1 22.7896 32.2197 44.7933
7255 1 24.3613 33.7914 46.365
7256 1 22.7896 32.2197 47.9367
7257 1 24.3613 33.7914 49.5084
7258 1 22.7896 35.3631 32.2197
7259 1 24.3613 36.9348 33.7914
7260 1 22.7896 35.3631 35.3631
7261 1 24.3613 36.9348 36.9348
7262 1 22.7896 35.3631 38.5065
7263 1 24.3613 36.9348 40.0782
7264 1 22.7896 35.3631 41.6499
7265 1 24.3613 36.9348 43.2216
7266 1 22.7896 35.3631 44.7933
7267 1 24.3613 36.9348 46.365
7268 1 22.7896 35.3631 47.9367
7269 1 24.3613 36.9348 49.5084
7270 1 22.7896 38.5065 32.2197
7271 1 24.3613 40.0782 33.7914
7272 1 22.7896 38.5065 35.3631
7273 1 24.3613 40.0782 36.9348
7274 1 22.7896 38.5065 38.5065
7275 1 24.3613 40.0782 40.0782
7276 1 22.7896 38.5065 41.6499
7277 1 24.3613 40.0782 43.2216
7278 1 22.7896 38.5065 44.7933
7279 1 24.3613 40.0782 46.365
7280 1 22.7896 38.5065 47.9367
7281 1 24.3613 40.0782 49.5084
7282 1 22.7896 41.6499 32.2197
7283 1 24.3613 43.2216 33.7914
7284 1 22.7896 41.6499 35.3631
7285 1 24.3613 43.2216 36.9348
7286 1 22.7896 41.6499 38.5065
7287 1 24.3613 43.2216 40.0782
7288 1 22.7896 41.6499 41.6499
7289 1 24.3613 43.2216 43.2216
7290 1 22.7896 41.6499 44.7933
7291 1 24.3613 43.2216 46.365
7292 1 22.7896 41.6499 47.9367
7293 1 24.3613 43.2216 49.5084
7294 1 22.7896 44.7933 32.2197
7295 1 24.3613 46.365 33.7914
7296 1 22.7896 44.7933 35.3631
7297 1 24.3613 46.365 36.9348
7298 1 22.7896 44.7933 38.5065
7299 1 24.3613 46.365 40.0782
7300 1 22.7896 44.7933 41.6499
7301 1 24.3613 46.365 43.2216
7302 1 22.7896 44.7933 44.7933
7303 1 24.3613 46.365 46.365
7304 1 22.7896 44.7933 47.9367
7305 1 24.3613 46.365 49.5084
7306 1 22.7896 47.9367 32.2197
7307 1 24.3613 49.5084 33.7914
7308 1 22.7896 47.9367 35.3631
7309 1 24.3613 49.5084 36.9348
7310 1 22.7896 47.9367 38.5065
7311 1 24.3613 49.5084 40.0782
7312 1 22.7896 47.9367 41.6499
7313 1 24.3613 49.5084 43.2216
7314 1 22.7896 47.9367 44.7933
7315 1 24.3613 49.5084 46.365
7316 1 22.7896 47.9367 47.9367
7317 1 24.3613 49.5084 49.5084
7318 1 25.933 0.7858 32.2197
7319 1 27.5047 2.3575 33.7914
7320 1 25.933 0.7858 35.3631
7321 1 27.5047 2.3575 36.9348
7322 1 25.933 0.7858 38.5065
7323 1 27.5047 2.3575 40.0782
7324 1 25.933 0.7858 41.6499
7325 1 27.5047 2.3575 43.2216
7326 1 25.933 0.7858 44.7933
7327 1 27.5047 2.3575 46.365
7328 1 25.933 0.7858 47.9367
7329 1 27.5047 2.3575 49.5084
7330 1 25.933 3.9292 32.2197
7331 1 27.5047 5.5009 33.7914
7332 1 25.933 3.9292 35.3631
7333 1 27.5047 5.5009 36.9348
7334 1 25.933 3.9292 38.5065
7335 1 27.5047 5.5009 40.0782
7336 1 25.933 3.9292 41.6499
7337 1 27.5047 5.5009 43.2216
7338 1 25.933 3.9292 44.7933
7339 1 27.5047 5.5009 46.365
7340 1 25.933 3.9292 47.9367
7341 1 27.5047 5.5009 49.5084
7342 1 25.933 7.0726 32.2197
7343 1 27.5047 8.6443 33.7914
7344 1 25.933 7.0726 35.3631
7345 1 27.5047 8.6443 36.9348
7346 1 25.933 7.0726 38.5065
7347 1 27.5047 8.6443 40.0782
7348 1 25.933 7.0726 41.6499
7349 1 27.5047 8.6443 43.2216
7350 1 25.933 7.0726 44.7933
7351 1 27.5047 8.6443 46.365
7352 1 25.933 7.0726 47.9367
7353 1 27.5047 8.6443 49.5084
7354 1 25.933 10.216 32.2197
7355 1 27.5047 11.7877 33.7914
7356 1 25.933 10.216 35.3631
7357 1 27.5047 11.7877 36.9348
7358 1 25.933 10.216 38.5065
7359 1 27.5047 11.7877 40.0782
7360 1 25.933 10.216 41.6499
7361 1 27.5047 11.7877 43.2216
7362 1 25.933 10.216 44.7933
7363 1 27.5047 11.7877 46.365
7364 1 25.933 10.216 47.9367
7365 1 27.5047 11.7877 49.5084
7366 1 25.933 13.3594 32.2197
7367 1 27.5047 14.9311 33.7914
7368 1 25.933 13.3594 35.3631
7369 1 27.5047 14.9311 36.9348
7370 1 25.933 13.3594 38.5065
7371 1 27.5047 14.9311 40.0782
7372 1 25.933 13.3594 41.6499
7373 1 27.5047 14.9311 43.2216
7374 1 25.933 13.3594 44.7933
7375 1 27.5047 14.9311 46.365
7376 1 25.933 13.3594 47.9367
7377 1 27.5047 14.9311 49.5084
7378 1 25.933 16.5028 32.2197
7379 1 27.5047 18.0745 33.7914
7380 1 25.933 16.5028 35.3631
7381 1 27.5047 18.0745 36.9348
7382 1 25.933 16.5028 38.5065
7383 1 27.5047 18.0745 40.0782
7384 1 25.933 16.5028 41.6499
7385 1 27.5047 18.0745 43.2216
7386 1 25.933 16.5028 44.7933
7387 1 27.5047 18.0745 46.365
7388 1 25.933 16.5028 47.9367
7389 1 27.5047 18.0745 49.5084
7390 1 25.933 19.6462 32.2197
7391 1 27.5047 21.2179 33.7914
7392 1 25.933 19.6462 35.3631
7393 1 27.5047 21.2179 36.9348
7394 1 25.933 19.6462 38.5065
7395 1 27.5047 21.2179 40.0782
7396 1 25.933 19.6462 41.6499
7397 1 27.5047 21.2179 43.2216
7398 1 25.933 19.6462 44.7933
7399 1 27.5047 21.2179 46.365
7400 1 25.933 19.6462 47.9367
7401 1 27.5047 21.2179 49.5084
7402 1 25.933 22.7896 32.2197
7403 1 27.5047 24.3613 33.7914
7404 1 25.933 22.7896 35.3631
7405 1 27.5047 24.3613 36.9348
7406 1 25.933 22.7896 38.5065
7407 1 27.5047 24.3613 40.0782
7408 1 25.933 22.7896 41.6499
7409 1 27.5047 24.3613 43.2216
7410 1 25.933 22.7896 44.7933
7411 1 27.5047 24.3613 46.365
7412 1 25.933 22.7896 47.9367
7413 1 27.5047 24.3613 49.5084
7414 1 25.933 25.933 32.2197
7415 1 27.5047 27.5047 33.7914
7416 1 25.933 25.933 35.3631
7417 1 27.5047 27.5047 36.9348
7418 1 25.933 25.933 38.5065
7419 1 27.5047 27.5047 40.0782
7420 1 25.933 25.933 41.6499
7421 1 27.5047 27.5047 43.2216
7422 1 25.933 25.933 44.7933
7423 1 27.5047 27.5047 46.365
7424 1 25.933 25.933 47.9367
7425 1 27.5047 27.5047 49.5084
7426 1 25.933 29.0764 32.2197
7427 1 27.5047 30.6481 33.7914
7428 1 25.933 29.0764 35.3631
7429 1 27.5047 30.6481 36.9348
7430 1 25.933 29.0764 38.5065
7431 1 27.5047 30.6481 40.0782
7432 1 25.933 29.0764 41.6499
7433 1 27.5047 30.6481 43.2216
7434 1 25.933 29.0764 44.7933
7435 1 27.5047 30.6481 46.365
7436 1 25.933 29.0764 47.9367
7437 1 27.5047 30.6481 49.5084
7438 1 25.933 32.2197 32.2197
7439 1 27.5047 33.7914 33.7914
7440 1 25.933 32.2197 35.3631
7441 1 27.5047 33.7914 36.9348
7442 1 25.933 32.2197 38.5065
7443 1 27.5047 33.7914 40.0782
7444 1 25.933 32.2197 41.6499
7445 1 27.5047 33.7914 43.2216
7446 1 25.933 32.2197 44.7933
7447 1 27.5047 33.7914 46.365
7448 1 25.933 32.2197 47.9367
7449 1 27.5047 33.7914 49.5084
7450 1 25.933 35.3631 32.2197
7451 1 27.5047 36.9348 33.7914
7452 1 25.933 35.3631 35.3631
7453 1 27.5047 36.9348 36.9348
7454 1 25.933 35.3631 38.5065
7455 1 27.5047 36.9348 40.0782
7456 1 25.933 35.3631 41.6499
7457 1 27.5047 36.9348 43.2216
7458 1 25.933 35.3631 44.7933
7459 1 27.5047 36.9348 46.365
7460 1 25.933 35.3631 47.9367
7461 1 27.5047 36.9348 49.5084
7462 1 25.933 38.5065 32.2197
7463 1 27.5047 40.0782 33.7914
7464 1 25.933 38.5065 35.3631
7465 1 27.5047 40.0782 36.9348
7466 1 25.933 38.5065 38.5065
7467 1 27.5047 40.0782 40.0782
7468 1 25.933 38.5065 41.6499
7469 1 27.5047 40.0782 43.2216
7470 1 25.933 38.5065 44.7933
7471 1 27.5047 40.0782 46.365
7472 1 25.933 38.5065 47.9367
7473 1 27.5047 40.0782 49.5084
7474 1 25.933 41.6499 32.2197
7475 1 27.5047 43.2216 33.7914
7476 1 25.933 41.6499 35.3631
7477 1 27.5047 43.2216 36.9348
7478 1 25.933 41.6499 38.5065
7479 1 27.5047 43.2216 40.0782
7480 1 25.933 41.6499 41.6499
7481 1 27.5047 43.2216 43.2216
7482 1 25.933 41.6499 44.7933
7483 1 27.5047 43.2216 46.365
7484 1 25.933 41.6499 47.9367
7485 1 27.5047 43.2216 49.5084
7486 1 25.933 44.7933 32.2197
7487 1 27.5047 46.365 33.7914
7488 1 25.933 44.7933 35.3631
7489 1 27.5047 46.365 36.9348
7490 1 25.933 44.7933 38.5065
7491 1 27.5047 46.365 40.0782
7492 1 25.933 44.7933 41.6499
7493 1 27.5047 46.365 43.2216
7494 1 25.933 44.7933 44.7933
7495 1 27.5047 46.365 46.365
7496 1 25.933 44.7933 47.9367
7497 1 27.5047 46.365 49.5084
7498 1 25.933 47.9367 32.2197
7499 1 27.5047 49.5084 33.7914
7500 1 25.933 47.9367 35.3631
7501 1 27.5047 49.5084 36.9348
7502 1 25.933 47.9367 38.5065
7503 1 27.5047 49.5084 40.0782
7504 1 25.933 47.9367 41.6499
7505 1 27.5047 49.5084 43.2216
7506 1 25.933 47.9367 44.7933
7507 1 27.5047 49.5084 46.365
7508 1 25.933 47.9367 47.9367
7509 1 27.5047 49.5084 49.5084
7510 1 29.0764 0.7858 32.2197
7511 1 30.6481 2.3575 33.7914
7512 1 29.0764 0.7858 35.3631
7513 1 30.6481 2.3575 36.9348
7514 1 29.0764 0.7858 38.5065
7515 1 30.6481 2.3575 40.0782
7516 1 29.0764 0.7858 41.6499
7517 1 30.6481 2.3575 43.2216
7518 1 29.0764 0.7858 44.7933
7519 1 30.6481 2.3575 46.365
7520 1 29.0764 0.7858 47.9367
7521 1 30.6481 2.3575 49.5084
7522 1 29.0764 3.9292 32.2197
7523 1 30.6481 5.5009 33.7914
7524 1 29.0764 3.9292 35.3631
7525 1 30.6481 5.5009 36.9348
7526 1 29.0764 3.9292 38.5065
7527 1 30.6481 5.5009 40.0782
7528 1 29.0764 3.9292 41.6499
7529 1 30.6481 5.5009 43.2216
7530 1 29.0764 3.9292 44.7933
7531 1 30.6481 5.5009 46.365
7532 1 29.0764 3.9292 47.9367
7533 1 30.6481 5.5009 49.5084
7534 1 29.0764 7.0726 32.2197
7535 1 30.6481 8.6443 33.7914
7536 1 29.0764 7.0726 35.3631
7537 1 30.6481 8.6443 36.9348
7538 1 29.0764 7.0726 38.5065
7539 1 30.6481 8.6443 40.0782
7540 1 29.0764 7.0726 41.6499
7541 1 30.6481 8.6443 43.2216
7542 1 29.0764 7.0726 44.7933
7543 1 30.6481 8.6443 46.365
7544 1 29.0764 7.0726 47.9367
7545 1 30.6481 8.6443 49.5084
7546 1 29.0764 10.216 32.2197
7547 1 30.6481 11.7877 33.7914
7548 1 29.0764 10.216 35.3631
7549 1 30.6481 11.7877 36.9348
7550 1 29.0764 10.216 38.5065
7551 1 30.6481 11.7877 40.0782
7552 1 29.0764 10.216 41.6499
7553 1 30.6481 11.7877 43.2216
7554 1 29.0764 10.216 44.7933
7555 1 30.6481 11.7877 46.365
7556 1 29.0764 10.216 47.9367
7557 1 30.6481 11.7877 49.5084
7558 1 29.0764 13.3594 32.2197
7559 1 30.6481 14.9311 33.7914
7560 1 29.0764 13.3594 35.3631
7561 1 30.6481 14.9311 36.9348
7562 1 29.0764 13.3594 38.5065
7563 1 30.6481 14.9311 40.0782
7564 1 29.0764 13.3594 41.6499
7565 1 30.6481 14.9311 43.2216
7566 1 29.0764 13.3594 44.7933
7567 1 30.6481 14.9311 46.365
7568 1 29.0764 13.3594 47.9367
7569 1 30.6481 14.9311 49.5084
7570 1 29.0764 16.5028 32.2197
7571 1 30.6481 18.0745 33.7914
7572 1 29.0764 16.5028 35.3631
7573 1 30.6481 18.0745 36.9348
7574 1 29.0764 16.5028 38.5065
7575 1 30.6481 18.0745 40.0782
7576 1 29.0764 16.5028 41.6499
7577 1 30.6481 18.0745 43.2216
7578 1 29.0764 16.5028 44.7933
7579 1 30.6481 18.0745 46.365
7580 1 29.0764 16.5028 47.9367
7581 1 30.6481 18.0745 49.5084
7582 1 29.0764 19.6462 32.2197
7583 1 30.6481 21.2179 33.7914
7584 1 29.0764 19.6462 35.3631
7585 1 30.6481 21.2179 36.9348
7586 1 29.0764 19.6462 38.5065
7587 1 30.6481 21.2179 40.0782
7588 1 29.0764 19.6462 41.6499
7589 1 30.6481 21.2179 43.2216
7590 1 29.0764 19.6462 44.7933
7591 1 30.6481 21.2179 46.365
7592 1 29.0764 19.6462 47.9367
7593 1 30.6481 21.2179 49.5084
7594 1 29.0764 22.7896 32.2197
7595 1 30.6481 24.3613 33.7914
7596 1 29.0764 22.7896 35.3631
7597 1 30.6481 24.3613 36.9348
7598 1 29.0764 22.7896 38.5065
7599 1 30.6481 24.3613 40.0782
7600 1 29.0764 22.7896 41.6499
7601 1 30.6481 24.3613 43.2216
7602 1 29.0764 22.7896 44.7933
7603 1 30.6481 24.3613 46.365
7604 1 29.0764 22.7896 47.9367
7605 1 30.6481 24.3613 49.5084
7606 1 29.0764 25.933 32.2197
7607 1 30.6481 27.5047 33.7914
7608 1 29.0764 25.933 35.3631
7609 1 30.6481 27.5047 36.9348
7610 1 29.0764 25.933 38.5065
7611 1 30.6481 27.5047 40.0782
7612 1 29.0764 25.933 41.6499
7613 1 30.6481 27.5047 43.2216
7614 1 29.0764 25.933 44.7933
7615 1 30.6481 27.5047 46.365
7616 1 29.0764 25.933 47.9367
7617 1 30.6481 27.5047 49.5084
7618 1 29.0764 29.0764 32.2197
7619 1 30.6481 30.6481 33.7914
7620 1 29.0764 29.0764 35.3631
7621 1 30.6481 30.6481 36.9348
7622 1 29.0764 29.0764 38.5065
7623 1 30.6481 30.6481 40.0782
7624 1 29.0764 29.0764 41.6499
7625 1 30.6481 30.6481 43.2216
7626 1 29.0764 29.0764 44.7933
7627 1 30.6481 30.6481 46.365
7628 1 29.0764 29.0764 47.9367
7629 1 30.6481 30.6481 49.5084
7630 1 29.0764 32.2197 32.2197
7631 1 30.6481 33.7914 33.7914
7632 1 29.0764 32.2197 35.3631
7633 1 30.6481 33.7914 36.9348
7634 1 29.0764 32.2197 38.5065
7635 1 30.6481 33.7914 40.0782
7636 1 29.0764 32.2197 41.6499
7637 1 30.6481 33.7914 43.2216
7638 1 29.0764 32.2197 44.7933
7639 1 30.6481 33.7914 46.365
7640 1 29.0764 32.2197 47.9367
7641 1 30.6481 33.7914 49.5084
7642 1 29.0764 35.3631 32.2197
7643 1 30.6481 36.9348 33.7914
7644 1 29.0764 35.3631 35.3631
7645 1 30.6481 36.9348 36.9348
7646 1 29.0764 35.3631 38.5065
7647 1 30.6481 36.9348 40.0782
7648 1 29.0764 35.3631 41.6499
7649 1 30.6481 36.9348 43.2216
7650 1 29.0764 35.3631 44.7933
7651 1 30.6481 36.9348 46.365
7652 1 29.0764 35.3631 47.9367
7653 1 30.6481 36.9348 49.5084
7654 1 29.0764 38.5065 32.2197
7655 1 30.6481 40.0782 33.7914
7656 1 29.0764 38.5065 35.3631
7657 1 30.6481 40.0782 36.9348
7658 1 29.0764 38.5065 38.5065
7659 1 30.6481 40.0782 40.0782
7660 1 29.0764 38.5065 41.6499
7661 1 30.6481 40.0782 43.2216
7662 1 29.0764 38.5065 44.7933
7663 1 30.6481 40.0782 46.365
7664 1 29.0764 38.5065 47.9367
7665 1 30.6481 40.0782 49.5084
7666 1 29.0764 41.6499 32.2197
7667 1 30.6481 43.2216 33.7914
7668 1 29.0764 41.6499 35.3631
7669 1 30.6481 43.2216 36.9348
7670 1 29.0764 41.6499 38.5065
7671 1 30.6481 43.2216 40.0782
7672 1 29.0764 41.6499 41.6499
7673 1 30.6481 43.2216 43.2216
7674 1 29.0764 41.6499 44.7933
7675 1 30.6481 43.2216 46.365
7676 1 29.0764 41.6499 47.9367
7677 1 30.6481 43.2216 49.5084
7678 1 29.0764 44.7933 32.2197
7679 1 30.6481 46.365 33.7914
7680 1 29.0764 44.7933 35.3631
7681 1 30.6481 46.365 36.9348
7682 1 29.0764 44.7933 38.5065
7683 1 30.6481 46.365 40.0782
7684 1 29.0764 44.7933 41.6499
7685 1 30.6481 46.365 43.2216
7686 1 29.0764 44.7933 44.7933
7687 1 30.6481 46.365 46.365
7688 1 29.0764 44.7933 47.9367
7689 1 30.6481 46.365 49.5084
7690 1 29.0764 47.9367 32.2197
7691 1 30.6481 49.5084 33.7914
7692 1 29.0764 47.9367 35.3631
7693 1 30.6481 49.5084 36.9348
7694 1 29.0764 47.9367 38.5065
7695 1 30.6481 49.5084 40.0782
7696 1 29.0764 47.9367 41.6499
7697 1 30.6481 49.5084 43.2216
7698 1 29.0764 47.9367 44.7933
7699 1 30.6481 49.5084 46.365
7700 1 29.0764 47.9367 47.9367
7701 1 30.6481 49.5084 49.5084
7702 1 16.5028 0.7858 16.5028
7703 1 18.0745 2.3575 18.0745
7704 1 16.5028 0.7858 19.6462
7705 1 18.0745 2.3575 21.2179
7706 1 16.5028 0.7858 22.7896
7707 1 18.0745 2.3575 24.3613
7708 1 16.5028 0.7858 25.933
7709 1 18.0745 2.3575 27.5047
7710 1 16.5028 0.7858 29.0764
7711 1 18.0745 2.3575 30.6481
7712 1 16.5028 3.9292 16.5028
7713 1 18.0745 5.5009 18.0745
7714 1 16.5028 3.9292 19.6462
7715 1 18.0745 5.5009 21.2179
7716 1 16.5028 3.9292 22.7896
7717 1 18.0745 5.5009 24.3613
7718 1 16.5028 3.9292 25.933
7719 1 18.0745 5.5009 27.5047
7720 1 16.5028 3.9292 29.0764
7721 1 18.0745 5.5009 30.6481
7722 1 16.5028 7.0726 16.5028
7723 1 18.0745 8.6443 18.0745
7724 1 16.5028 7.0726 19.6462
7725 1 18.0745 8.6443 21.2179
7726 1 16.5028 7.0726 22.7896
7727 1 18.0745 8.6443 24.3613
7728 1 16.5028 7.0726 25.933
7729 1 18.0745 8.6443 27.5047
7730 1 16.5028 7.0726 29.0764
7731 1 18.0745 8.6443 30.6481
7732 1 16.5028 10.216 16.5028
7733 1 18.0745 11.7877 18.0745
7734 1 16.5028 10.216 19.6462
7735 1 18.0745 11.7877 21.2179
7736 1 16.5028 10.216 22.7896
7737 1 18.0745 11.7877 24.3613
7738 1 16.5028 10.216 25.933
7739 1 18.0745 11.7877 27.5047
7740 1 16.5028 10.216 29.0764
7741 1 18.0745 11.7877 30.6481
7742 1 16.5028 13.3594 16.5028
7743 1 18.0745 14.9311 18.0745
7744 1 16.5028 13.3594 19.6462
7745 1 18.0745 14.9311 21.2179
7746 1 16.5028 13.3594 22.7896
7747 1 18.0745 14.9311 24.3613
7748 1 16.5028 13.3594 25.933
7749 1 18.0745 14.9311 27.5047
7750 1 16.5028 13.3594 29.0764
7751 1 18.0745 14.9311 30.6481
7752 1 19.6462 0.7858 16.5028
7753 1 21.2179 2.3575 18.0745
7754 1 19.6462 0.7858 19.6462
7755 1 21.2179 2.3575 21.2179
7756 1 19.6462 0.7858 22.7896
7757 1 21.2179 2.3575 24.3613
7758 1 19.6462 0.7858 25.933
7759 1 21.2179 2.3575 27.5047
7760 1 19.6462 0.7858 29.0764
7761 1 21.2179 2.3575 30.6481
7762 1 19.6462 3.9292 16.5028
7763 1 21.2179 5.5009 18.0745
7764 1 19.6462 3.9292 19.6462
7765 1 21.2179 5.5009 21.2179
7766 1 19.6462 3.9292 22.7896
7767 1 21.2179 5.5009 24.3613
7768 1 19.6462 3.9292 25.933
7769 1 21.2179 5.5009 27.5047
7770 1 19.6462 3.9292 29.0764
7771 1 21.2179 5.5009 30.6481
7772 1 19.6462 7.0726 16.5028
7773 1 21.2179 8.6443 18.0745
7774 1 19.6462 7.0726 19.6462
7775 1 21.2179 8.6443 21.2179
7776 1 19.6462 7.0726 22.7896
7777 1 21.2179 8.6443 24.3613
7778 1 19.6462 7.0726 25.933
7779 1 21.2179 8.6443 27.5047
7780 1 19.6462 7.0726 29.0764
7781 1 21.2179 8.6443 30.6481
7782 1 19.6462 10.216 16.5028
7783 1 21.2179 11.7877 18.0745
7784 1 19.6462 10.216 19.6462
7785 1 21.2179 11.7877 21.2179
7786 1 19.6462 10.216 22.7896
7787 1 21.2179 11.7877 24.3613
7788 1 19.6462 10.216 25.933
7789 1 21.2179 11.7877 27.5047
7790 1 19.6462 10.216 29.0764
7791 1 21.2179 11.7877 30.6481
7792 1 19.6462 13.3594 16.5028
7793 1 21.2179 14.9311 18.0745
7794 1 19.6462 13.3594 19.6462
7795 1 21.2179 14.9311 21.2179
7796 1 19.6462 13.3594 22.7896
7797 1 21.2179 14.9311 24.3613
7798 1 19.6462 13.3594 25.933
7799 1 21.2179 14.9311 27.5047
7800 1 19.6462 13.3594 29.0764
7801 1 21.2179 14.9311 30.6481
7802 1 22.7896 0.7858 16.5028
7803 1 24.3613 2.3575 18.0745
7804 1 22.7896 0.7858 19.6462
7805 1 24.3613 2.3575 21.2179
7806 1 22.7896 0.7858 22.7896
7807 1 24.3613 2.3575 24.3613
7808 1 22.7896 0.7858 25.933
7809 1 24.3613 2.3575 27.5047
7810 1 22.7896 0.7858 29.0764
7811 1 24.3613 2.3575 30.6481
7812 1 22.7896 3.9292 16.5028
7813 1 24.3613 5.5009 18.0745
7814 1 22.7896 3.9292 19.6462
7815 1 24.3613 5.5009 21.2179
7816 1 22.7896 3.9292 22.7896
7817 1 24.3613 5.5009 24.3613
7818 1 22.7896 3.9292 25.933
7819 1 24.3613 5.5009 27.5047
7820 1 22.7896 3.9292 29.0764
7821 1 24.3613 5.5009 30.6481
7822 1 22.7896 7.0726 16.5028
7823 1 24.3613 8.6443 18.0745
7824 1 22.7896 7.0726 19.6462
7825 1 24.3613 8.6443 21.2179
7826 1 22.7896 7.0726 22.7896
7827 1 24.3613 8.6443 24.3613
7828 1 22.7896 7.0726 25.933
7829 1 24.3613 8.6443 27.5047
7830 1 22.7896 7.0726 29.0764
7831 1 24.3613 8.6443 30.6481
7832 1 22.7896 10.216 16.5028
7833 1 24.3613 11.7877 18.0745
7834 1 22.7896 10.216 19.6462
7835 1 24.3613 11.7877 21.2179
7836 1 22.7896 10.216 22.7896
7837 1 24.3613 11.7877 24.3613
7838 1 22.7896 10.216 25.933
7839 1 24.3613 11.7877 27.5047
7840 1 22.7896 10.216 29.0764
7841 1 24.3613 11.7877 30.6481
7842 1 22.7896 13.3594 16.5028
7843 1 24.3613 14.9311 18.0745
7844 1 22.7896 13.3594 19.6462
7845 1 24.3613 14.9311 21.2179
7846 1 22.7896 13.3594 22.7896
7847 1 24.3613 14.9311 24.3613
7848 1 22.7896 13.3594 25.933
7849 1 24.3613 14.9311 27.5047
7850 1 22.7896 13.3594 29.0764
7851 1 24.3613 14.9311 30.6481
7852 1 25.933 0.7858 16.5028
7853 1 27.5047 2.3575 18.0745
7854 1 25.933 0.7858 19.6462
7855 1 27.5047 2.3575 21.2179
7856 1 25.933 0.7858 22.7896
7857 1 27.5047 2.3575 24.3613
7858 1 25.933 0.7858 25.933
7859 1 27.5047 2.3575 27.5047
7860 1 25.933 0.7858 29.0764
7861 1 27.5047 2.3575 30.6481
7862 1 25.933 3.9292 16.5028
7863 1 27.5047 5.5009 18.0745
7864 1 25.933 3.9292 19.6462
7865 1 27.5047 5.5009 21.2179
7866 1 25.933 3.9292 22.7896
7867 1 27.5047 5.5009 24.3613
7868 1 25.933 3.9292 25.933
7869 1 27.5047 5.5009 27.5047
7870 1 25.933 3.9292 29.0764
7871 1 27.5047 5.5009 30.6481
7872 1 25.933 7.0726 16.5028
7873 1 27.5047 8.6443 18.0745
7874 1 25.933 7.0726 19.6462
7875 1 27.5047 8.6443 21.2179
7876 1 25.933 7.0726 22.7896
7877 1 27.5047 8.6443 24.3613
7878 1 25.933 7.0726 25.933
7879 1 27.5047 8.6443 27.5047
7880 1 25.933 7.0726 29.0764
7881 1 27.5047 8.6443 30.6481
7882 1 25.933 10.216 16.5028
7883 1 27.5047 11.7877 18.0745
7884 1 25.933 10.216 19.6462
7885 1 27.5047 11.7877 21.2179
7886 1 25.933 10.216 22.7896
7887 1 27.5047 11.7877 24.3613
7888 1 25.933 10.216 25.933
7889 1 27.5047 11.7877 27.5047
7890 1 25.933 10.216 29.0764
7891 1 27.5047 11.7877 30.6481
7892 1 25.933 13.3594 16.5028
7893 1 27.5047 14.9311 18.0745
7894 1 25.933 13.3594 19.6462
7895 1 27.5047 14.9311 21.2179
7896 1 25.933 13.3594 22.7896
7897 1 27.5047 14.9311 24.3613
7898 1 25.933 13.3594 25.933
7899 1 27.5047 14.9311 27.5047
7900 1 25.933 13.3594 29.0764
7901 1 27.5047 14.9311 30.6481
7902 1 29.0764 0.7858 16.5028
7903 1 30.6481 2.3575 18.0745
7904 1 29.0764 0.7858 19.6462
7905 1 30.6481 2.3575 21.2179
7906 1 29.0764 0.7858 22.7896
7907 1 30.6481 2.3575 24.3613
7908 1 29.0764 0.7858 25.933
7909 1 30.6481 2.3575 27.5047
7910 1 29.0764 0.7858 29.0764
7911 1 30.6481 2.3575 30.6481
7912 1 29.0764 3.9292 16.5028
7913 1 30.6481 5.5009 18.0745
7914 1 29.0764 3.9292 19.6462
7915 1 30.6481 5.5009 21.2179
7916 1 29.0764 3.9292 22.7896
7917 1 30.6481 5.5009 24.3613
7918 1 29.0764 3.9292 25.933
7919 1 30.6481 5.5009 27.5047
7920 1 29.0764 3.9292 29.0764
7921 1 30.6481 5.5009 30.6481
7922 1 29.0764 7.0726 16.5028
7923 1 30.6481 8.6443 18.0745
7924 1 29.0764 7.0726 19.6462
7925 1 30.6481 8.6443 21.2179
7926 1 29.0764 7.0726 22.7896
7927 1 30.6481 8.6443 24.3613
7928 1 29.0764 7.0726 25.933
7929 1 30.6481 8.6443 27.5047
7930 1 29.0764 7.0726 29.0764
7931 1 30.6481 8.6443 30.6481
7932 1 29.0764 10.216 16.5028
7933 1 30.6481 11.7877 18.0745
7934 1 29.0764 10.216 19.6462
7935 1 30.6481 11.7877 21.2179
7936 1 29.0764 10.216 22.7896
7937 1 30.6481 11.7877 24.3613
7938 1 29.0764 10.216 25.933
7939 1 30.6481 11.7877 27.5047
7940 1 29.0764 10.216 29.0764
7941 1 30.6481 11.7877 30.6481
7942 1 29.0764 13.3594 16.5028
7943 1 30.6481 14.9311 18.0745
7944 1 29.0764 13.3594 19.6462
7945 1 30.6481 14.9311 21.2179
7946 1 29.0764 13.3594 22.7896
7947 1 30.6481 14.9311 24.3613
7948 1 29.0764 13.3594 25.933
7949 1 30.6481 14.9311 27.5047
7950 1 29.0764 13.3594 29.0764
7951 1 30.6481 14.9311 30.6481
7952 1 16.5028 35.3631 16.5028
7953 1 18.0745 36.9348 18.0745
7954 1 16.5028 35.3631 19.6462
7955 1 18.0745 36.9348 21.2179
7956 1 16.5028 35.3631 22.7896
7957 1 18.0745 36.9348 24.3613
7958 1 16.5028 35.3631 25.933
7959 1 18.0745 36.9348 27.5047
7960 1 16.5028 35.3631 29.0764
7961 1 18.0745 36.9348 30.6481
7962 1 16.5028 38.5065 16.5028
7963 1 18.0745 40.0782 18.0745
7964 1 16.5028 38.5065 19.6462
7965 1 18.0745 40.0782 21.2179
7966 1 16.5028 38.5065 22.7896
7967 1 18.0745 40.0782 24.3613
7968 1 16.5028 38.5065 25.933
7969 1 18.0745 40.0782 27.5047
7970 1 16.5028 38.5065 29.0764
7971 1 18.0745 40.0782 30.6481
7972 1 16.5028 41.6499 16.5028
7973 1 18.0745 43.2216 18.0745
7974 1 16.5028 41.6499 19.6462
7975 1 18.0745 43.2216 21.2179
7976 1 16.5028 41.6499 22.7896
7977 1 18.0745 43.2216 24.3613
7978 1 16.5028 41.6499 25.933
7979 1 18.0745 43.2216 27.5047
7980 1 16.5028 41.6499 29.0764
7981 1 18.0745 43.2216 30.6481
7982 1 16.5028 44.7933 16.5028
7983 1 18.0745 46.365 18.0745
7984 1 16.5028 44.7933 19.6462
7985 1 18.0745 46.365 21.2179
7986 1 16.5028 44.7933 22.7896
7987 1 18.0745 46.365 24.3613
7988 1 16.5028 44.7933 25.933
7989 1 18.0745 46.365 27.5047
7990 1 16.5028 44.7933 29.0764
7991 1 18.0745 46.365 30.6481
7992 1 16.5028 47.9367 16.5028
7993 1 18.0745 49.5084 18.0745
7994 1 16.5028 47.9367 19.6462
7995 1 18.0745 49.5084 21.2179
7996 1 16.5028 47.9367 22.7896
7997 1 18.0745 49.5084 24.3613
7998 1 16.5028 47.9367 25.933
7999 1 18.0745 49.5084 27.5047
8000 1 16.5028 47.9367 29.0764
8001 1 18.0745 49.5084 30.6481
8002 1 19.6462 35.3631 16.5028
8003 1 21.2179 36.9348 18.0745
8004 1 19.6462 35.3631 19.6462
8005 1 21.2179 36.9348 21.2179
8006 1 19.6462 35.3631 22.7896
8007 1 21.2179 36.9348 24.3613
8008 1 19.6462 35.3631 25.933
8009 1 21.2179 36.9348 27.5047
8010 1 19.6462 35.3631 29.0764
8011 1 21.2179 36.9348 30.6481
8012 1 19.6462 38.5065 16.5028
8013 1 21.2179 40.0782 18.0745
8014 1 19.6462 38.5065 19.6462
8015 1 21.2179 40.0782 21.2179
8016 1 19.6462 38.5065 22.7896
8017 1 21.2179 40.0782 24.3613
8018 1 19.6462 38.5065 25.933
8019 1 21.2179 40.0782 27.5047
8020 1 19.6462 38.5065 29.0764
8021 1 21.2179 40.0782 30.6481
8022 1 19.6462 41.6499 16.5028
8023 1 21.2179 43.2216 18.0745
8024 1 19.6462 41.6499 19.6462
8025 1 21.2179 43.2216 21.2179
8026 1 19.6462 41.6499 22.7896
8027 1 21.2179 43.2216 24.3613
8028 1 19.6462 41.6499 25.933
8029 1 21.2179 43.2216 27.5047
8030 1 19.6462 41.6499 29.0764
8031 1 21.2179 43.2216 30.6481
8032 1 19.6462 44.7933 16.5028
8033 1 21.2179 46.365 18.0745
8034 1 19.6462 44.7933 19.6462
8035 1 21.2179 46.365 21.2179
8036 1 19.6462 44.7933 22.7896
8037 1 21.2179 46.365 24.3613
8038 1 19.6462 44.7933 25.933
8039 1 21.2179 46.365 27.5047
8040 1 19.6462 44.7933 29.0764
8041 1 21.2179 46.365 30.6481
8042 1 19.6462 47.9367 16.5028
8043 1 21.2179 49.5084 18.0745
8044 1 19.6462 47.9367 19.6462
8045 1 21.2179 49.5084 21.2179
8046 1 19.6462 47.9367 22.7896
8047 1 21.2179 49.5084 24.3613
8048 1 19.6462 47.9367 25.933
8049 1 21.2179 49.5084 27.5047
8050 1 19.6462 47.9367 29.0764
8051 1 21.2179 49.5084 30.6481
8052 1 22.7896 35.3631 16.5028
8053 1 24.3613 36.9348 18.0745
8054 1 22.7896 35.3631 19.6462
8055 1 24.3613 36.9348 21.2179
8056 1 22.7896 35.3631 22.7896
8057 1 24.3613 36.9348 24.3613
8058 1 22.7896 35.3631 25.933
8059 1 24.3613 36.9348 27.5047
8060 1 22.7896 35.3631 29.0764
8061 1 24.3613 36.9348 30.6481
8062 1 22.7896 38.5065 16.5028
8063 1 24.3613 40.0782 18.0745
8064 1 22.7896 38.5065 19.6462
8065 1 24.3613 40.0782 21.2179
8066 1 22.7896 38.5065 22.7896
8067 1 24.3613 40.0782 24.3613
8068 1 22.7896 38.5065 25.933
8069 1 24.3613 40.0782 27.5047
8070 1 22.7896 38.5065 29.0764
8071 1 24.3613 40.0782 30.6481
8072 1 22.7896 41.6499 16.5028
8073 1 24.3613 43.2216 18.0745
8074 1 22.7896 41.6499 19.6462
8075 1 24.3613 43.2216 21.2179
8076 1 22.7896 41.6499 22.7896
8077 1 24.3613 43.2216 24.3613
8078 1 22.7896 41.6499 25.933
8079 1 24.3613 43.2216 27.5047
8080 1 22.7896 41.6499 29.0764
8081 1 24.3613 43.2216 30.6481
8082 1 22.7896 44.7933 16.5028
8083 1 24.3613 46.365 18.0745
8084 1 22.7896 44.7933 19.6462
8085 1 24.3613 46.365 21.2179
8086 1 22.7896 44.7933 22.7896
8087 1 24.3613 46.365 24.3613
8088 1 22.7896 44.7933 25.933
8089 1 24.3613 46.365 27.5047
8090 1 22.7896 44.7933 29.0764
8091 1 24.3613 46.365 30.6481
8092 1 22.7896 47.9367 16.5028
8093 1 24.3613 49.5084 18.0745
8094 1 22.7896 47.9367 19.6462
8095 1 24.3613 49.5084 21.2179
8096 1 22.7896 47.9367 22.7896
8097 1 24.3613 49.5084 24.3613
8098 1 22.7896 47.9367 25.933
8099 1 24.3613 49.5084 27.5047
8100 1 22.7896 47.9367 29.0764
8101 1 24.3613 49.5084 30.6481
8102 1 25.933 35.3631 16.5028
8103 1 27.5047 36.9348 18.0745
8104 1 25.933 35.3631 19.6462
8105 1 27.5047 36.9348 21.2179
8106 1 25.933 35.3631 22.7896
8107 1 27.5047 36.9348 24.3613
8108 1 25.933 35.3631 25.933
8109 1 27.5047 36.9348 27.5047
8110 1 25.933 35.3631 29.0764
8111 1 27.5047 36.9348 30.6481
8112 1 25.933 38.5065 16.5028
8113 1 27.5047 40.0782 18.0745
8114 1 25.933 38.5065 19.6462
8115 1 27.5047 40.0782 21.2179
8116 1 25.933 38.5065 22.7896
8117 1 27.5047 40.0782 24.3613
8118 1 25.933 38.5065 25.933
8119 1 27.5047 40.0782 27.5047
8120 1 25.933 38.5065 29.0764
8121 1 27.5047 40.0782 30.6481
8122 1 25.933 41.6499 16.5028
8123 1 27.5047 43.2216 18.0745
8124 1 25.933 41.6499 19.6462
8125 1 27.5047 43.2216 21.2179
8126 1 25.933 41.6499 22.7896
8127 1 27.5047 43.2216 24.3613
8128 1 25.933 41.6499 25.933
8129 1 27.5047 43.2216 27.5047
8130 1 25.933 41.6499 29.0764
8131 1 27.5047 43.2216 30.6481
8132 1 25.933 44.7933 16.5028
8133 1 27.5047 46.365 18.0745
8134 1 25.933 44.7933 19.6462
8135 1 27.5047 46.365 21.2179
8136 1 25.933 44.7933 22.7896
8137 1 27.5047 46.365 24.3613
8138 1 25.933 44.7933 25.933
8139 1 27.5047 46.365 27.5047
8140 1 25.933 44.7933 29.0764
8141 1 27.5047 46.365 30.6481
8142 1 25.933 47.9367 16.5028
8143 1 27.5047 49.5084 18.0745
8144 1 25.933 47.9367 19.6462
8145 1 27.5047 49.5084 21.2179
8146 1 25.933 47.9367 22.7896
8147 1 27.5047 49.5084 24.3613
8148 1 25.933 47.9367 25.933
8149 1 27.5047 49.5084 27.5047
8150 1 25.933 47.9367 29.0764
8151 1 27.5047 49.5084 30.6481
8152 1 29.0764 35.3631 16.5028
8153 1 30.6481 36.9348 18.0745
8154 1 29.0764 35.3631 19.6462
8155 1 30.6481 36.9348 21.2179
8156 1 29.0764 35.3631 22.7896
8157 1 30.6481 36.9348 24.3613
8158 1 29.0764 35.3631 25.933
8159 1 30.6481 36.9348 27.5047
8160 1 29.0764 35.3631 29.0764
8161 1 30.6481 36.9348 30.6481
8162 1 29.0764 38.5065 16.5028
8163 1 30.6481 40.0782 18.0745
8164 1 29.0764 38.5065 19.6462
8165 1 30.6481 40.0782 21.2179
8166 1 29.0764 38.5065 22.7896
8167 1 30.6481 40.0782 24.3613
8168 1 29.0764 38.5065 25.933
8169 1 30.6481 40.0782 27.5047
8170 1 29.0764 38.5065 29.0764
8171 1 30.6481 40.0782 30.6481
8172 1 29.0764 41.6499 16.5028
8173 1 30.6481 43.2216 18.0745
8174 1 29.0764 41.6499 19.6462
8175 1 30.6481 43.2216 21.2179
8176 1 29.0764 41.6499 22.7896
8177 1 30.6481 43.2216 24.3613
8178 1 29.0764 41.6499 25.933
8179 1 30.6481 43.2216 27.5047
8180 1 29.0764 41.6499 29.0764
8181 1 30.6481 43.2216 30.6481
8182 1 29.0764 44.7933 16.5028
8183 1 30.6481 46.365 18.0745
8184 1 29.0764 44.7933 19.6462
8185 1 30.6481 46.365 21.2179
8186 1 29.0764 44.7933 22.7896
8187 1 30.6481 46.365 24.3613
8188 1 29.0764 44.7933 25.933
8189 1 30.6481 46.365 27.5047
8190 1 29.0764 44.7933 29.0764
8191 1 30.6481 46.365 30.6481
8192 1 29.0764 47.9367 16.5028
8193 1 30.6481 49.5084 18.0745
8194 1 29.0764 47.9367 19.6462
8195 1 30.6481 49.5084 21.2179
8196 1 29.0764 47.9367 22.7896
8197 1 30.6481 49.5084 24.3613
8198 1 29.0764 47.9367 25.933
8199 1 30.6481 49.5084 27.5047
8200 1 29.0764 47.9367 29.0764
8201 1 30.6481 49.5084 30.6481
