./desired/DD-Bjorkas/8_4/204_457/cluster.dat


8200 atoms
0 bonds
0 angles
0 dihedrals
0 impropers

2 atom types
0 bond types
0 angle types
0 dihedral types
0 improper types


0.000      50.6432 xlo xhi
0.000      50.6432 ylo yhi
0.000      50.6432 zlo zhi


Atoms

1 1 10.2672 22.9375 13.4347
2 1 11.8507 24.5213 15.0301
3 1 10.2602 22.9343 16.6228
4 1 11.8436 24.5133 18.1976
5 1 10.2465 22.9491 19.7928
6 1 11.8216 24.5356 21.3813
7 1 11.8362 24.5481 24.5472
8 1 10.2337 26.1138 29.3028
9 1 11.8225 24.5287 37.2396
10 1 10.2653 22.949 32.469
11 1 10.2621 26.0984 13.4541
12 1 11.8617 27.6911 15.0404
13 1 10.2419 26.1053 16.6286
14 1 11.8284 27.6918 18.202
15 1 10.235 26.1063 19.7813
16 1 11.8127 27.6954 21.363
17 1 10.2265 26.1114 22.9626
18 1 11.7862 27.7124 24.5325
19 1 10.2264 26.1252 26.1298
20 1 11.7941 27.7075 27.7232
21 1 11.7835 27.7225 30.8923
22 1 13.3994 26.123 35.6487
23 1 13.3848 26.1483 32.4884
24 1 10.187 29.2768 35.649
25 1 10.2562 29.2684 13.4464
26 1 11.8255 30.8457 15.0281
27 1 10.229 29.268 16.6047
28 1 11.8342 30.8569 18.1922
29 1 10.2339 29.2824 19.7696
30 1 11.7977 30.877 21.3426
31 1 10.2042 29.2926 22.9384
32 1 11.7787 30.9048 24.5449
33 1 10.215 29.2948 26.1316
34 1 11.7719 30.8871 27.7127
35 1 11.7897 27.7118 34.0882
36 1 13.3485 29.3078 35.6728
37 1 11.7616 30.8846 34.0717
38 1 11.7823 30.8697 37.2531
39 1 10.266 32.4267 13.4529
40 1 11.8333 34.0194 15.0143
41 1 10.2409 32.4526 16.6146
42 1 11.81 34.0441 18.1788
43 1 10.2252 32.4538 19.7736
44 1 11.7884 34.0439 21.3536
45 1 10.2166 32.4554 22.9473
46 1 11.7831 34.0501 24.5288
47 1 10.1967 32.4554 26.1279
48 1 11.7834 34.0415 27.7175
49 1 10.1949 32.4811 29.3001
50 1 11.7889 34.0544 30.8968
51 1 10.1776 32.4637 32.4807
52 1 11.7844 34.0594 34.0726
53 1 11.7784 34.03 37.2536
54 1 10.2504 35.6029 13.4415
55 1 11.8379 37.193 15.0246
56 1 10.2315 35.6064 16.5997
57 1 11.8204 37.201 18.1995
58 1 10.2317 35.6199 19.7971
59 1 11.8102 37.1993 21.3497
60 1 10.2196 35.6304 22.9532
61 1 10.212 35.6415 26.1287
62 1 10.2059 35.6243 29.3066
63 1 10.1953 35.6334 35.6438
64 1 13.4415 22.9377 13.4708
65 1 15.0096 24.5276 15.0312
66 1 13.431 22.9398 16.6353
67 1 15.0092 24.5263 18.19
68 1 13.4181 22.9366 19.7948
69 1 14.9921 24.5326 21.3635
70 1 13.4077 22.9451 22.9652
71 1 14.9941 24.5534 24.5444
72 1 11.8479 24.5596 27.7048
73 1 18.0273 27.8264 24.4269
74 1 18.1044 24.5431 34.0896
75 1 16.4698 29.389 32.5327
76 1 13.4342 26.0885 13.443
77 1 15.0079 27.6731 15.0396
78 1 13.4202 26.1031 16.6206
79 1 14.9853 27.6852 18.198
80 1 13.4023 26.1128 19.7841
81 1 14.9524 27.7263 21.3404
82 1 13.381 26.1332 22.9481
83 1 13.3576 29.3132 22.928
84 1 13.3961 26.1524 26.1293
85 1 14.9109 27.7716 24.5016
86 1 11.8281 24.5413 30.8998
87 1 13.3252 29.332 29.3065
88 1 10.2571 22.9639 29.2989
89 1 14.9348 27.72 34.102
90 1 13.4199 26.1382 29.3056
91 1 19.6045 29.3965 35.8451
92 1 14.9363 27.7017 37.2582
93 1 18.0606 30.9643 37.2953
94 1 13.4273 29.2689 13.4413
95 1 14.9974 30.857 15.0263
96 1 13.411 29.2691 16.6115
97 1 14.9727 30.8786 18.1725
98 1 13.3893 29.2968 19.7806
99 1 16.5116 32.5127 22.9222
100 1 14.9335 30.9005 21.3301
101 1 14.9072 30.9249 24.4988
102 1 13.3337 29.3287 26.1114
103 1 14.8922 30.9163 27.7043
104 1 11.7648 30.8747 30.9048
105 1 16.4585 29.4076 29.3429
106 1 14.9394 27.7652 30.9283
107 1 14.8972 30.9089 34.1
108 1 14.8887 30.9289 30.9193
109 1 18.1183 34.0701 37.246
110 1 13.421 32.4285 13.4292
111 1 14.988 34.0244 15.0186
112 1 13.4085 32.4417 16.6089
113 1 14.9867 34.0368 18.1674
114 1 13.3794 32.4597 19.769
115 1 14.9496 34.0568 21.3398
116 1 13.3678 32.4784 22.9391
117 1 14.9526 34.0614 24.5252
118 1 13.3507 32.4825 26.1148
119 1 14.923 34.0735 27.7058
120 1 13.3368 32.4855 29.3012
121 1 14.9245 34.0862 30.8955
122 1 13.3387 32.4871 32.4865
123 1 14.9146 34.0804 34.0892
124 1 13.3512 32.4808 35.6776
125 1 14.9381 34.0506 37.2551
126 1 13.4301 35.5867 13.4379
127 1 14.9975 37.1861 15.0137
128 1 13.4158 35.6098 16.6163
129 1 14.9926 37.1929 18.1837
130 1 13.394 35.6317 19.7708
131 1 13.3859 35.6368 22.9438
132 1 13.3743 35.636 26.13
133 1 13.3716 35.6316 29.3101
134 1 13.3629 35.6365 32.4835
135 1 13.3627 35.6405 35.6582
136 1 16.6124 22.9297 13.4672
137 1 18.2006 24.5242 15.0469
138 1 16.6052 22.9471 16.6321
139 1 18.174 24.5234 18.2064
140 1 16.5806 22.954 19.7908
141 1 18.1317 24.5511 21.3604
142 1 16.5602 22.9791 22.952
143 1 18.1378 24.6455 24.5255
144 1 17.9388 24.7987 27.6195
145 1 14.9894 24.5748 30.902
146 1 18.0998 24.6198 30.8873
147 1 18.0698 27.9342 30.9675
148 1 16.5557 22.9247 35.6417
149 1 16.4724 29.3482 35.7208
150 1 16.6029 26.1007 13.4557
151 1 18.1799 27.6869 15.0463
152 1 16.5862 26.1071 16.617
153 1 18.1651 27.6876 18.1824
154 1 16.5571 26.1304 19.7601
155 1 18.1039 27.76 21.332
156 1 16.5275 26.1489 22.9224
157 1 16.4977 29.3537 22.8901
158 1 16.4536 29.3899 26.0729
159 1 16.4778 26.2559 26.095
160 1 19.446 26.4341 29.3309
161 1 20.9847 28.077 31.0099
162 1 20.9152 24.6932 34.2847
163 1 21.3184 27.7011 37.1241
164 1 16.5794 26.1932 32.5191
165 1 16.5912 26.1237 35.6739
166 1 16.5926 29.2555 13.4593
167 1 18.1692 30.8419 15.0239
168 1 16.5814 29.2822 16.6007
169 1 18.152 30.8638 18.1674
170 1 16.5684 29.2957 19.7538
171 1 21.1971 27.8948 24.3106
172 1 18.1365 34.0662 21.3286
173 1 18.0944 30.9222 21.2942
174 1 14.9228 27.7651 27.7143
175 1 19.6576 32.4935 26.1169
176 1 16.5574 26.2654 29.3357
177 1 18.0226 31.0513 30.9378
178 1 19.4666 26.3081 32.5965
179 1 16.4756 32.5158 35.699
180 1 14.9236 30.9038 37.273
181 1 16.5895 32.4427 13.4359
182 1 18.1659 34.0242 15.0224
183 1 16.5821 32.4456 16.6032
184 1 18.1427 34.04 18.1597
185 1 16.5607 32.4814 19.7475
186 1 19.6738 32.5211 22.8959
187 1 18.0756 30.9473 24.4873
188 1 18.1154 34.0667 24.5253
189 1 16.5001 32.52 26.1073
190 1 18.1072 34.0553 27.7056
191 1 16.4826 32.5074 29.2844
192 1 18.1109 34.0019 30.9045
193 1 16.469 32.5258 32.5278
194 1 18.0871 34.0653 34.0715
195 1 19.678 32.5201 35.6942
196 1 21.3176 34.0524 37.2231
197 1 16.5934 35.5973 13.4279
198 1 18.1666 37.1851 15.0262
199 1 16.5748 35.6008 16.5982
200 1 18.1514 37.196 18.1823
201 1 16.5518 35.625 19.7633
202 1 18.148 37.2097 21.3515
203 1 16.5565 35.6435 22.9393
204 1 16.5397 35.6439 26.128
205 1 16.5514 35.6416 29.3018
206 1 16.5445 35.6458 32.4834
207 1 16.5264 35.6399 35.6399
208 1 19.777 22.943 13.4682
209 1 21.3478 24.5132 15.0491
210 1 19.7662 22.9316 16.6458
211 1 21.3602 24.5193 18.2506
212 1 19.7617 22.9485 19.7883
213 1 21.325 24.5535 21.4065
214 1 19.6417 23.5829 28.9586
215 1 20.9169 24.9277 30.9664
216 1 22.9243 22.9858 35.494
217 1 19.4724 26.1915 35.8411
218 1 19.772 26.096 13.4601
219 1 21.3588 27.6679 15.0474
220 1 19.7643 26.1067 16.6242
221 1 21.3424 27.6869 18.2255
222 1 19.7665 26.1335 19.8195
223 1 21.3303 27.7198 21.4386
224 1 19.6618 26.203 22.8853
225 1 19.5545 26.4885 26.0825
226 2 22.6719 26.9244 26.1069
227 2 21.193 25.3596 27.7296
228 1 15.0364 24.6026 27.7073
229 1 21.1187 28.1188 27.8115
230 2 22.7314 24.1497 29.6264
231 2 22.3797 23.5785 32.7833
232 1 14.9644 24.5112 37.2199
233 1 18.0948 24.4731 37.2691
234 1 19.7558 29.2569 13.4474
235 1 21.3382 30.8413 15.0263
236 1 19.7487 29.2621 16.6061
237 1 21.3402 30.8572 18.1823
238 1 19.7318 29.2996 19.772
239 1 21.2632 30.9395 21.2862
240 1 17.9968 27.9826 27.6955
241 1 21.2404 31.0498 24.4881
242 1 18.0347 30.9017 27.6652
243 1 21.2151 30.9565 27.6952
244 1 19.5534 29.5809 29.3512
245 1 21.2397 30.929 30.9962
246 1 18.0751 27.838 34.1931
247 1 19.5635 29.5419 32.6199
248 1 20.9466 27.8387 34.3053
249 1 21.3383 30.9031 37.1498
250 1 18.0499 27.7555 37.3837
251 1 19.7743 32.4287 13.4409
252 1 21.3392 34.0153 15.0298
253 1 19.7397 32.4393 16.5906
254 1 21.3315 34.0412 18.165
255 1 19.7089 32.4788 19.7403
256 1 21.3063 34.0693 21.3435
257 1 19.6322 29.4037 22.8634
258 1 21.2977 33.986 24.5159
259 1 19.6151 29.3791 26.0374
260 1 21.2976 34.0292 27.7143
261 1 19.6621 32.45 29.3189
262 1 21.2878 34.0412 30.8965
263 1 19.6682 32.4615 32.5439
264 1 21.2982 34.0613 34.0706
265 1 18.0225 30.9881 34.1701
266 1 19.7593 35.5874 13.4454
267 1 21.3476 37.1754 15.0121
268 1 19.7567 35.618 16.5899
269 1 21.3356 37.1704 18.1899
270 1 19.7425 35.6299 19.7694
271 1 21.3278 37.196 21.3589
272 1 19.726 35.6245 22.9391
273 1 19.7238 35.6137 26.1193
274 1 19.7001 35.5999 29.3064
275 1 19.7112 35.6215 32.4669
276 1 19.7195 35.6369 35.6491
277 1 22.946 22.9379 13.4662
278 1 22.9339 22.9223 16.6582
279 1 22.9252 22.9036 19.8553
280 1 22.9355 26.0788 13.4709
281 1 22.9449 26.0968 16.6636
282 1 22.9095 26.0923 19.8577
283 1 22.9349 29.2467 13.4602
284 1 22.9295 29.2514 16.6279
285 1 22.9294 32.4187 13.4398
286 1 22.9235 32.4317 16.6093
287 1 22.923 32.4544 19.7456
288 1 21.2495 30.9403 34.2081
289 1 22.9319 35.5928 13.4441
290 1 22.9206 35.6021 16.6089
291 1 22.9081 35.6106 19.7647
292 1 22.9015 35.5966 22.9518
293 1 22.8915 35.6006 32.4615
294 1 22.9135 35.6264 35.6233
295 1 13.3328 29.32 32.5035
296 1 13.426 22.9634 32.4678
297 1 10.2524 22.9649 22.9754
298 1 22.8861 35.5962 26.1207
299 1 14.9829 24.5613 34.0622
300 1 22.9054 26.1395 35.4695
301 1 22.9182 32.4802 35.6288
302 1 14.9745 37.2147 21.3619
303 1 10.1903 35.6236 32.4855
304 1 16.5793 23.0156 29.2958
305 1 10.2145 29.2913 29.3056
306 1 20.9643 24.6486 24.5728
307 1 14.9527 37.2047 24.5173
308 1 16.5904 22.9698 32.4551
309 2 21.8941 23.0922 27.2896
310 1 22.7124 29.3165 32.6742
311 1 22.9106 29.2938 19.7924
312 1 10.2313 22.9322 35.6433
313 1 11.7916 37.1955 24.5482
314 1 21.3081 24.5248 37.1168
315 1 22.9091 32.4272 22.9063
316 1 10.1832 32.4475 35.6693
317 1 22.8949 35.5996 29.286
318 1 22.9178 29.2516 35.5285
319 1 14.968 37.2101 27.7118
320 1 22.8589 32.4879 32.509
321 1 18.1353 37.2122 24.5339
322 1 11.8301 24.5301 34.0684
323 1 10.2286 26.1096 35.6664
324 1 10.2231 26.1285 32.4738
325 1 11.7881 37.2201 27.7163
326 1 21.3171 37.1819 24.5283
327 1 22.8157 29.5573 22.8499
328 1 11.7973 27.6805 37.2346
329 1 22.8026 29.5343 29.3862
330 1 14.9525 37.2166 30.8813
331 1 22.8791 32.4289 26.1228
332 1 22.8734 32.404 29.3328
333 1 18.1324 37.2031 27.7163
334 1 18.1401 37.1899 30.8732
335 1 21.3051 37.1899 30.8818
336 1 22.3405 26.444 32.7221
337 1 10.2702 22.9575 26.1347
338 1 13.4368 22.9754 26.1355
339 1 21.3036 37.1839 27.7083
340 1 10.2051 29.2833 32.5014
341 1 22.647 26.7953 29.5067
342 1 16.6565 22.9671 26.1451
343 1 19.6453 22.9874 22.9327
344 1 13.4313 22.9977 29.3021
345 1 22.9265 26.0658 23.1026
346 1 22.7886 29.5553 26.068
347 1 11.7721 37.2323 30.9043
348 1 19.7361 22.9625 32.4446
349 1 11.7847 37.1964 34.0659
350 1 13.4251 22.9286 35.6342
351 1 19.6525 22.8926 35.68
352 1 22.7893 22.9394 23.0667
353 1 19.5093 23.0262 26.2004
354 1 11.7781 37.2103 37.2427
355 1 21.3132 37.189 37.1982
356 1 18.1259 37.2229 37.2197
357 1 21.3033 37.2058 34.0451
358 1 14.9536 37.2106 34.0592
359 1 14.9596 37.2108 37.2437
360 1 18.1242 37.218 34.0505
361 2 23.1294 24.5116 25.4544
362 1 24.5294 24.5116 15.0765
363 1 24.5115 24.5097 18.2825
364 1 29.2353 26.0683 26.2106
365 1 24.6686 24.5106 33.878
366 1 24.5072 27.6692 15.0649
367 1 24.5014 27.6733 18.2276
368 1 24.4637 27.7293 21.47
369 2 25.2459 26.2 25.3116
370 1 24.3647 28.1294 31.0332
371 1 24.5118 30.8446 15.0381
372 1 24.4981 30.852 18.1896
373 1 24.5242 30.8926 21.3278
374 1 24.4934 30.9317 24.4774
375 1 24.4635 30.8845 31.0397
376 1 24.5123 30.8626 33.9763
377 1 24.5087 30.8392 37.1494
378 1 24.5053 34.004 15.0289
379 1 24.5027 34.02 18.1926
380 1 24.5061 34.0416 21.3512
381 1 24.4879 34.0335 24.5223
382 1 24.4816 34.0174 27.7162
383 1 24.4646 34.0121 30.884
384 1 24.4983 34.0443 34.0296
385 1 24.4912 34.0264 37.1972
386 1 24.5111 37.1779 15.0249
387 1 24.5109 37.181 18.1968
388 1 26.1074 22.9088 13.4832
389 1 27.6919 24.503 15.0837
390 1 26.1142 22.9091 16.6698
391 1 27.6902 24.5183 18.274
392 1 26.1059 22.8802 19.8428
393 1 27.7894 24.5342 21.1979
394 2 26.6756 25.6893 27.102
395 2 25.5523 24.263 29.662
396 1 27.947 24.3961 30.7558
397 1 27.7821 24.4718 34.0234
398 1 26.1372 22.8946 35.5358
399 1 26.1133 26.0818 13.4748
400 1 27.6757 27.657 15.0525
401 1 26.08 26.0888 16.651
402 1 27.6642 27.681 18.2137
403 1 26.083 26.1097 19.8733
404 1 27.6995 27.7014 21.3626
405 1 26.1565 26.0358 22.7959
406 1 27.5778 27.6165 24.583
407 1 24.4332 28.1082 27.7425
408 1 26.1086 29.4756 29.3582
409 1 25.968 26.6841 29.524
410 1 27.9182 27.7753 30.8615
411 1 26.4245 26.0752 32.3138
412 1 27.7578 27.6885 34.0369
413 1 26.1161 26.0793 35.5333
414 1 27.6944 27.6621 37.165
415 1 26.1005 29.2436 13.4554
416 1 27.6839 30.8381 15.0319
417 1 26.1016 29.2414 16.6369
418 1 27.6826 30.8305 18.1958
419 1 26.0807 29.2608 19.7824
420 1 27.6923 30.8675 21.3603
421 1 26.1341 29.3228 22.892
422 1 27.6923 30.858 24.5136
423 1 26.052 29.3155 26.0605
424 1 27.6852 30.8525 27.6773
425 1 24.4889 30.9159 27.7295
426 1 27.7365 30.9255 30.8943
427 1 26.2248 29.299 32.4878
428 1 27.6975 30.8779 34.0364
429 1 26.0969 29.2532 35.5737
430 1 27.6702 30.8379 37.1832
431 1 26.0989 32.4136 13.4494
432 1 27.6777 34.0117 15.0125
433 1 26.093 32.4266 16.6018
434 1 27.6827 34.0087 18.1919
435 1 26.0907 32.447 19.7704
436 1 27.6713 34.0139 21.3636
437 1 26.0864 32.4656 22.9216
438 1 27.6686 34.0192 24.5282
439 1 26.0959 32.461 26.1326
440 1 27.65 34.0134 27.7111
441 1 26.0807 32.388 29.3114
442 1 27.6684 34.0236 30.8623
443 1 26.1043 32.4571 32.47
444 1 27.6757 34.0298 34.0402
445 1 26.0799 32.435 35.6029
446 1 27.6574 34.0041 37.1778
447 1 26.1022 35.5853 13.434
448 1 27.679 37.1621 15.0225
449 1 26.0947 35.5868 16.6023
450 1 27.6664 37.1705 18.1907
451 1 26.0948 35.5967 19.7637
452 1 26.0693 35.5999 22.9508
453 1 26.0671 35.595 26.1129
454 1 26.0778 35.5839 29.2804
455 1 26.0701 35.6127 32.442
456 1 26.0791 35.5905 35.6109
457 1 29.2644 22.9234 13.4727
458 1 30.8549 24.5015 15.0419
459 1 29.2756 22.9222 16.6916
460 1 30.913 24.5429 18.1656
461 1 29.3617 22.9353 19.6245
462 1 30.8837 24.5138 21.3321
463 1 29.344 22.8135 26.0407
464 1 27.7435 24.4632 24.447
465 1 30.8558 24.4175 27.6703
466 1 29.5209 22.6561 29.3379
467 1 30.7995 24.4755 30.8324
468 1 30.8759 24.4817 34.0222
469 1 29.3315 22.8069 32.4667
470 1 27.6889 24.4903 37.1597
471 1 29.2711 26.0753 13.4583
472 1 30.8587 27.6732 15.0215
473 1 29.2733 26.089 16.625
474 1 30.8671 27.685 18.1902
475 1 29.3295 26.1396 19.7597
476 1 30.8632 27.6748 21.3563
477 1 29.2833 26.0911 22.9222
478 1 30.8165 27.6519 24.5515
479 1 27.7038 27.971 27.7166
480 1 30.8481 27.6867 27.6638
481 1 29.177 26.0891 29.1006
482 1 30.7772 27.6606 30.822
483 1 29.2796 26.0657 32.4143
484 1 30.8748 27.6608 34.0108
485 1 29.288 26.0784 35.607
486 1 30.8557 27.6491 37.1752
487 1 29.2627 29.2519 13.4474
488 1 30.848 30.8397 15.0217
489 1 29.2612 29.2641 16.6185
490 1 30.8541 30.8538 18.1911
491 1 29.2741 29.2724 19.7771
492 1 30.8497 30.8363 21.3598
493 1 29.2454 29.2356 22.9589
494 1 30.8501 30.8533 24.5327
495 1 29.2858 29.2715 26.0561
496 1 30.8675 30.859 27.6656
497 1 29.3492 29.3513 29.2886
498 1 30.8766 30.8707 30.8641
499 1 29.3428 29.3003 32.4875
500 1 30.8849 30.8482 34.0275
501 1 29.285 29.2721 35.6311
502 1 30.8497 30.8337 37.1755
503 1 29.2608 32.4201 13.4433
504 1 30.8519 33.9943 15.0364
505 1 29.2652 32.4135 16.6052
506 1 30.8474 34.0015 18.1857
507 1 29.2685 32.426 19.7617
508 1 30.8457 34.0095 21.362
509 1 29.2581 32.4364 22.9534
510 1 30.8329 34.0085 24.5286
511 1 29.2545 32.4243 26.0953
512 1 30.8512 34.0235 27.6864
513 1 29.2581 32.4582 29.2791
514 1 30.8618 34.0216 30.8495
515 1 29.2982 32.454 32.4575
516 1 30.8563 34.0316 34.0094
517 1 29.2789 32.4227 35.6266
518 1 30.8469 34.0063 37.2068
519 1 29.2713 35.5837 13.4447
520 1 30.8485 37.1644 15.028
521 1 29.2682 35.5836 16.6075
522 1 30.8549 37.1707 18.1906
523 1 29.2615 35.5926 19.7677
524 1 29.2553 35.59 22.9418
525 1 29.2535 35.5919 26.1071
526 1 29.247 35.6025 29.2718
527 1 29.267 35.6141 32.4469
528 1 29.2604 35.5923 35.599
529 1 32.4428 22.9089 13.4342
530 1 34.0431 24.5019 15.0113
531 1 32.4736 22.9324 16.6066
532 1 34.0558 24.4969 18.1718
533 1 32.5027 22.9095 19.7421
534 1 34.0336 24.4944 21.3642
535 1 32.4437 22.8604 26.0746
536 1 34.0224 24.4884 24.5115
537 1 27.7905 23.8785 27.996
538 1 34.0002 24.4659 27.6768
539 1 32.3882 22.8626 29.2575
540 1 33.9904 24.485 30.8311
541 1 32.4512 22.9057 32.4461
542 1 34.021 24.4889 34.0082
543 1 32.4594 22.9007 35.6092
544 1 34.0256 24.4884 37.1819
545 1 32.4528 26.0922 13.4517
546 1 34.0255 27.6707 15.0137
547 1 32.456 26.1017 16.6016
548 1 34.0274 27.6838 18.1877
549 1 32.4617 26.1066 19.7723
550 1 32.4523 26.0736 22.9329
551 1 30.8447 24.4826 24.5234
552 1 34.0049 27.6594 24.5253
553 1 32.432 26.0564 26.0979
554 1 34.0147 27.6415 27.6912
555 1 32.4089 26.0641 29.2495
556 1 34.015 27.6422 30.8223
557 1 32.4147 26.0656 32.4246
558 1 34.0186 27.6526 33.9966
559 1 32.4376 26.0651 35.5958
560 1 34.0168 27.657 37.1882
561 1 30.8586 24.4842 37.188
562 1 32.4427 29.2419 13.4425
563 1 34.016 30.8347 15.0322
564 1 32.4475 29.257 16.5969
565 1 34.0271 30.8408 18.19
566 1 32.4479 29.257 19.7821
567 1 34.0267 30.8356 21.3602
568 1 32.4344 29.2359 22.9449
569 1 34.0219 30.8256 24.5192
570 1 32.4282 29.2359 26.0956
571 1 34.0229 30.8381 27.6864
572 1 32.4462 29.2397 29.272
573 1 34.0256 30.8254 30.8438
574 1 32.4411 29.2461 32.4214
575 1 34.0172 30.8194 34.0176
576 1 32.4369 29.2418 35.5981
577 1 34.0317 30.8287 37.1893
578 1 32.4343 32.4201 13.4354
579 1 34.02 34.0076 15.024
580 1 32.4265 32.43 16.6119
581 1 34.016 34.0066 18.1829
582 1 32.4316 32.4123 19.7686
583 1 34.0279 33.9934 21.3556
584 1 32.4285 32.4214 22.9414
585 1 34.008 34.0001 24.5219
586 1 32.4284 32.4278 26.0952
587 1 34.0284 34.0068 27.673
588 1 32.4433 32.4266 29.2529
589 1 34.0235 34.0188 30.8439
590 1 32.4446 32.436 32.4388
591 1 34.0219 34.0049 34.0244
592 1 32.4399 32.4198 35.5985
593 1 34.0114 34.0015 37.181
594 1 32.4293 35.5842 13.4389
595 1 34.0227 37.1636 15.0317
596 1 32.4317 35.5838 16.6127
597 1 34.0161 37.1652 18.1871
598 1 32.4324 35.5818 19.7669
599 1 32.4201 35.5837 22.9308
600 1 32.4353 35.5919 26.1042
601 1 32.4175 35.596 29.2625
602 1 32.4348 35.591 32.4302
603 1 32.4426 35.5868 35.6022
604 1 35.6129 22.9249 13.4211
605 1 37.1938 24.5034 15.0109
606 1 35.627 22.9195 16.6003
607 1 37.2067 24.5128 18.1839
608 1 35.6256 22.9187 19.7542
609 1 37.1947 24.4991 21.3412
610 1 35.6299 22.9028 22.9347
611 1 37.202 24.4905 24.5141
612 1 35.6099 22.8926 26.0916
613 1 37.1813 24.4741 27.6778
614 1 35.5868 22.8804 29.2523
615 1 37.1733 24.4781 30.831
616 1 35.5991 22.8954 32.433
617 1 37.1814 24.4799 34.0129
618 1 35.6104 22.9196 35.61
619 1 37.1897 24.4889 37.1871
620 1 35.6121 26.0779 13.4415
621 1 37.2034 27.6801 15.0186
622 1 35.6194 26.0896 16.5915
623 1 37.2043 27.661 18.1927
624 1 35.6321 26.0841 19.7702
625 1 37.2077 27.6683 21.352
626 1 35.6021 26.0805 22.9413
627 1 37.178 27.6583 24.5251
628 1 35.5982 26.0466 26.098
629 1 37.1776 27.659 27.683
630 1 35.5815 26.0754 29.2555
631 1 37.1742 27.6535 30.8444
632 1 35.5959 26.0725 32.4381
633 1 37.1745 27.664 34.0124
634 1 35.6027 26.0818 35.5917
635 1 37.1856 27.6748 37.186
636 1 35.6039 29.2463 13.4449
637 1 37.192 30.8326 14.9983
638 1 35.6001 29.2546 16.5913
639 1 35.61 29.2521 19.7798
640 1 34.0242 27.6643 21.3652
641 1 37.1821 30.8374 21.3455
642 1 35.6012 29.2514 22.9443
643 1 37.1856 30.8263 24.5268
644 1 35.6033 29.2356 26.09
645 1 37.1922 30.8319 27.6706
646 1 35.5935 29.2423 29.2613
647 1 37.1866 30.8316 30.841
648 1 35.6035 29.2416 32.4241
649 1 37.1851 30.8174 34.0187
650 1 35.6055 29.2392 35.6005
651 1 37.1815 30.828 37.1981
652 1 35.6067 32.4226 13.4395
653 1 37.1894 33.9998 15.0172
654 1 35.6117 32.4108 16.6035
655 1 37.1855 33.9978 18.1886
656 1 35.6038 32.4036 19.7693
657 1 37.1797 34.0082 21.3622
658 1 35.6022 32.4117 22.9361
659 1 37.1739 34.0032 24.521
660 1 35.5977 32.4164 26.0962
661 1 37.1842 33.9988 27.6744
662 1 35.5953 32.4226 29.2631
663 1 37.1869 33.9975 30.8492
664 1 35.6024 32.3999 32.424
665 1 37.1728 34.0091 34.0144
666 1 35.59 32.4107 35.5945
667 1 37.1854 33.9886 37.1805
668 1 35.6036 35.5829 13.44
669 1 37.1848 37.1654 15.0263
670 1 35.6043 35.5817 16.6061
671 1 37.1757 37.1711 18.1938
672 1 35.5916 35.5815 19.7781
673 1 35.5983 35.5756 22.9372
674 1 35.6022 35.5931 26.0955
675 1 35.6052 35.5713 29.2556
676 1 35.5876 35.5819 32.4404
677 1 35.605 35.5797 35.5941
678 1 25.051 23.8484 24.1336
679 1 24.5228 24.4378 21.4468
680 1 26.5293 22.7435 22.6469
681 1 24.3358 28.1295 24.3751
682 1 30.84 37.172 21.3603
683 1 37.1808 37.1656 24.507
684 1 27.6751 37.1848 21.3615
685 1 37.1802 37.1633 21.3546
686 1 34.0173 37.1639 21.349
687 1 34.0164 37.1637 24.5105
688 1 37.1677 37.1579 27.6851
689 1 37.1836 37.1616 30.8421
690 1 34.0092 37.171 27.6737
691 1 30.8321 37.1635 24.5143
692 1 30.8241 37.1706 27.6822
693 1 32.4502 22.8771 22.907
694 1 24.5024 37.1856 21.3483
695 1 27.6679 37.1693 24.5253
696 1 34.0281 37.1741 30.8369
697 1 27.6656 37.1667 27.7083
698 1 30.8296 37.1641 30.8448
699 1 37.1828 30.8422 18.1879
700 2 24.7282 23.2397 27.3341
701 1 24.4945 37.1841 24.5331
702 1 37.1718 37.1568 34.0129
703 1 24.4813 37.1719 27.7034
704 1 34.0206 37.1552 34.0171
705 1 29.3379 22.8947 22.8412
706 1 24.477 37.1785 30.8647
707 1 27.659 37.1841 30.8596
708 1 29.326 22.8906 35.619
709 1 24.4924 27.663 37.0915
710 1 24.5862 27.6312 33.8349
711 1 24.5051 24.5291 37.085
712 1 30.8389 37.1672 34.0379
713 1 37.1782 37.1484 37.2034
714 1 34.009 37.1559 37.1805
715 1 24.4827 37.1926 34.0377
716 1 27.6688 37.1627 37.1981
717 1 30.8459 37.1654 37.1858
718 1 27.6679 37.1758 34.0283
719 1 24.4864 37.1782 37.1913
720 1 26.5665 22.5891 25.9676
721 1 26.5032 22.7907 32.389
722 2 24.3121 22.914 31.5373
723 2 24.0786 25.5519 31.4037
724 2 24.0636 25.511 27.7996
725 1 10.2869 10.2869 13.4521
726 1 11.8585 11.8512 15.0266
727 1 10.2708 10.2836 16.6108
728 1 11.8497 11.8675 18.1953
729 1 10.2725 10.2771 19.7825
730 1 11.8452 11.8817 21.3672
731 1 10.287 10.286 22.9332
732 1 11.8582 11.8619 24.5305
733 1 10.2691 10.2835 26.1046
734 1 11.8607 11.8646 27.6956
735 1 10.2906 10.2854 29.2879
736 1 11.8668 11.8715 30.8591
737 1 13.4542 13.4346 35.6224
738 1 11.8525 11.8579 34.0387
739 1 10.2857 13.4384 13.4383
740 1 11.8618 15.023 15.0441
741 1 10.2702 13.4595 16.6205
742 1 11.8565 15.0228 18.2012
743 1 10.2753 13.4463 19.786
744 1 11.8492 15.0276 21.377
745 1 10.2748 13.4382 22.9529
746 1 11.8498 15.0364 24.5284
747 1 10.2703 13.4451 26.1087
748 1 11.8585 15.0326 27.7126
749 1 11.8545 15.03 30.8717
750 1 10.27 16.6271 29.293
751 1 10.2691 13.4508 32.4591
752 1 13.4324 16.6211 32.4658
753 1 11.8446 15.0425 34.0413
754 1 10.2758 16.6046 13.4567
755 1 11.8644 18.1974 15.0279
756 1 10.2627 16.6089 16.6241
757 1 11.8491 18.2049 18.2147
758 1 10.254 16.6252 19.7834
759 1 11.8684 18.2024 21.3794
760 1 10.2676 16.6207 22.9596
761 1 11.8529 18.1968 24.5445
762 1 10.2606 16.6211 26.1285
763 1 11.8602 18.2098 27.7183
764 1 11.851 18.2058 34.0436
765 1 10.281 19.7715 13.4545
766 1 11.855 21.3497 15.0345
767 1 10.284 19.7782 16.6322
768 1 11.8332 21.3574 18.2175
769 1 10.2759 19.7687 19.7713
770 1 11.8475 21.3689 21.3856
771 1 10.2628 19.7787 22.9686
772 1 10.2855 19.7938 26.1279
773 1 13.4267 19.7885 35.6313
774 1 13.4597 10.2838 35.603
775 1 18.2105 11.8416 37.1896
776 1 13.442 10.2782 13.4411
777 1 15.0272 11.8592 15.0001
778 1 13.4294 10.277 16.6124
779 1 15.0295 11.8487 18.1999
780 1 13.447 10.2664 19.7607
781 1 15.0215 11.8569 21.3505
782 1 13.4479 10.275 22.948
783 1 15.0256 11.8556 24.5145
784 1 13.4332 10.2801 26.1019
785 1 15.024 11.8578 27.6979
786 1 13.4397 10.2738 29.2817
787 1 15.0312 11.8573 30.8658
788 1 13.4459 10.2828 32.4535
789 1 15.0385 11.8551 34.0402
790 1 13.4485 13.4329 13.4461
791 1 15.0174 15.0206 15.0312
792 1 13.4347 13.4469 16.6111
793 1 15.0263 15.0166 18.1913
794 1 13.4319 13.4342 19.7741
795 1 15.0245 15.0118 21.3594
796 1 13.4343 13.4472 22.9449
797 1 15.0133 15.0054 24.5292
798 1 13.4319 13.4346 26.1228
799 1 15.0164 15.0208 27.7075
800 1 13.4328 13.4371 29.2846
801 1 15.0089 15.0198 30.8677
802 1 13.442 13.4515 32.4524
803 1 16.6058 13.4203 32.4392
804 1 18.1775 18.1906 34.008
805 1 15.0252 15.0239 37.2078
806 1 13.4484 16.5995 13.4582
807 1 15.0156 18.1898 15.0413
808 1 13.4457 16.6029 16.6038
809 1 15.0101 18.1934 18.1931
810 1 13.4395 16.6235 19.7922
811 1 14.9989 18.1954 21.3746
812 1 13.4471 16.6259 22.9464
813 1 15.025 18.2107 24.5408
814 1 13.4295 16.622 26.1185
815 1 15.0166 18.2011 27.6929
816 1 13.44 16.6166 29.2934
817 1 15.0079 18.1896 30.8782
818 1 11.8578 18.2089 30.8747
819 1 15.0238 18.2001 34.0271
820 1 15.0267 15.015 34.0443
821 1 11.8596 15.0267 37.2159
822 1 13.4427 19.7681 13.4611
823 1 15.034 21.3608 15.0184
824 1 13.4356 19.7823 16.6182
825 1 15.0117 21.3682 18.2036
826 1 13.4196 19.7782 19.7918
827 1 14.9995 21.3564 21.3716
828 1 13.4395 19.7855 22.9645
829 1 13.4501 19.8029 26.1382
830 1 13.4404 19.8023 29.3063
831 1 13.4339 19.7852 32.4563
832 1 13.4324 16.6049 35.6289
833 1 11.8675 18.1803 37.2181
834 1 19.782 10.2661 35.6163
835 1 16.5998 10.2705 13.4331
836 1 18.1907 11.8562 15.0161
837 1 16.6196 10.281 16.614
838 1 18.1894 11.8449 18.1921
839 1 16.603 10.2686 19.7708
840 1 18.1828 11.8343 21.3334
841 1 16.6113 10.2663 22.9306
842 1 18.1818 11.833 24.5282
843 1 16.6109 10.2797 26.1084
844 1 18.1872 11.8368 27.6917
845 1 16.6005 10.2693 29.2688
846 1 19.7996 10.2675 32.432
847 1 16.6089 10.2696 32.4449
848 1 18.2129 11.8538 34.0294
849 1 16.6192 13.4253 35.6175
850 1 16.6109 13.4308 13.4493
851 1 18.1877 15.0146 15.0316
852 1 16.6028 13.436 16.6147
853 1 18.1897 15.0141 18.196
854 1 16.611 13.4363 19.7523
855 1 18.1595 14.9884 21.3258
856 1 16.5961 13.4188 22.9382
857 1 18.1559 14.9812 24.5138
858 1 16.6016 13.4212 26.0972
859 1 18.181 14.9971 27.7039
860 1 16.593 13.4378 29.2915
861 1 18.1983 15.0105 30.8646
862 1 18.2084 11.8576 30.853
863 1 18.1988 15.0112 34.0313
864 1 15.0283 11.849 37.1969
865 1 18.1946 15.0105 37.2131
866 1 16.6199 16.6183 35.6183
867 1 16.6012 16.6027 13.4433
868 1 18.1946 18.1897 15.0458
869 1 16.616 16.6213 16.6326
870 1 18.1873 18.1986 18.1862
871 1 16.584 16.5998 19.7775
872 1 18.1821 18.1746 21.3423
873 1 16.5863 16.6045 22.9345
874 1 18.1905 18.1386 24.4993
875 1 16.5951 16.6023 26.1104
876 1 18.1203 18.1133 27.6885
877 1 16.589 16.5837 29.2946
878 1 18.1699 18.1549 30.9256
879 1 16.591 16.5846 32.4775
880 1 21.3139 18.1169 34.0805
881 1 19.7548 16.5659 35.6266
882 1 16.5944 19.7715 13.4602
883 1 18.1931 21.3616 15.0435
884 1 16.607 19.7668 16.625
885 1 18.172 21.3539 18.2124
886 1 16.5966 19.7754 19.7829
887 1 18.1487 21.3736 21.3467
888 1 16.6048 19.7659 22.9616
889 1 16.6859 19.7744 26.1462
890 1 16.5731 19.7601 29.2989
891 1 16.6044 19.7963 32.4474
892 1 16.5954 19.7605 35.6196
893 1 22.9632 10.2641 29.2529
894 1 19.778 10.272 13.4362
895 1 21.3507 11.849 15.0162
896 1 19.7832 10.2708 16.5913
897 1 21.3652 11.8447 18.1694
898 1 19.7638 10.2705 19.7657
899 1 21.3662 11.8353 21.3484
900 1 19.7764 10.2592 22.9292
901 1 21.3713 11.8197 24.5116
902 1 19.7881 10.2705 26.0866
903 1 21.3687 11.854 27.6784
904 1 19.7912 10.2726 29.2615
905 1 21.3639 11.8441 30.8501
906 1 21.3662 11.8271 34.0145
907 1 19.7873 13.4356 13.445
908 1 21.3474 15.022 15.0335
909 1 19.7814 13.4394 16.6022
910 1 21.3685 15.0151 18.1885
911 1 19.7823 13.4164 19.7733
912 1 21.3586 14.9999 21.355
913 1 19.7721 13.4081 22.9151
914 1 21.3354 14.9702 24.491
915 1 19.766 13.4106 26.1072
916 1 21.3793 15.0403 27.6571
917 1 19.7976 13.4406 29.2765
918 1 21.3651 14.9853 30.853
919 1 19.7804 13.4076 32.4369
920 1 19.7913 13.4119 35.6267
921 1 21.3736 11.8278 37.1927
922 1 21.3632 14.9884 37.2129
923 1 19.7872 16.5997 13.4542
924 1 21.3672 18.1854 15.0427
925 1 19.7723 16.5946 16.6106
926 1 21.3722 18.1753 18.2218
927 1 19.773 16.598 19.7699
928 1 21.3438 18.18 21.3895
929 1 19.7371 16.5533 22.9015
930 1 21.1258 18.1337 24.4803
931 1 19.7145 16.5235 26.0981
932 1 21.3408 17.9764 27.6226
933 1 19.7543 16.5903 29.3176
934 1 21.3967 18.09 30.9364
935 1 19.7645 16.58 32.4639
936 1 22.9587 19.7235 35.5028
937 1 22.9087 16.5243 35.6544
938 1 18.1839 18.165 37.2063
939 1 19.7736 19.7641 13.4656
940 1 21.3658 21.3472 15.0642
941 1 19.7719 19.7787 16.6232
942 1 21.371 21.3591 18.2361
943 1 19.7684 19.7789 19.7983
944 1 21.31 21.3482 21.4129
945 1 19.6862 19.7416 22.9201
946 1 19.6029 19.6933 26.1181
947 1 19.7395 19.4699 29.2808
948 1 19.8481 19.8134 32.411
949 1 22.9426 10.2599 13.4324
950 1 22.9426 10.2534 16.5784
951 1 22.9468 10.2518 19.7407
952 1 22.9618 10.2431 22.9313
953 1 22.953 10.2575 26.0981
954 1 22.9469 10.255 32.4239
955 1 22.9507 13.4289 13.4268
956 1 22.9562 13.4274 16.5885
957 1 22.9366 13.4092 19.7654
958 1 22.9361 13.4071 22.9261
959 1 22.966 13.4259 26.0847
960 1 22.9685 13.4309 29.2561
961 1 22.948 16.606 13.4537
962 1 22.9516 16.6038 16.6175
963 1 22.9467 16.6023 19.8122
964 1 22.9481 16.5761 23.0087
965 1 22.9769 16.5616 25.9099
966 1 22.9713 16.5231 29.2483
967 1 21.3641 14.9636 34.0379
968 1 22.9518 19.7507 13.4746
969 1 22.9356 19.7633 16.6588
970 1 22.9322 19.7517 19.8645
971 1 22.8421 19.8019 23.1067
972 1 22.9272 19.3427 25.9322
973 1 23.0316 19.3039 29.2435
974 1 11.8458 21.3813 30.8796
975 1 15.0202 18.169 37.2187
976 1 10.2772 16.6131 32.4603
977 1 15.0108 21.3928 30.8635
978 1 10.2781 13.4626 29.2894
979 1 18.1802 21.3665 24.5452
980 1 10.2679 16.6123 35.6315
981 1 15.0285 21.3596 24.5653
982 1 10.2578 19.768 35.6466
983 1 11.86 21.3716 24.5498
984 1 11.8722 21.3798 27.7094
985 1 11.8431 21.3419 37.2295
986 1 18.2668 21.3669 27.8595
987 1 11.8743 11.856 37.2015
988 1 21.0029 21.3878 24.5883
989 1 10.292 10.2917 35.6109
990 1 10.2728 19.7865 29.2864
991 1 15.0419 21.3822 27.7085
992 1 16.6178 10.2894 35.5988
993 1 10.2739 19.7918 32.4662
994 1 18.1766 21.3485 34.0044
995 1 19.7634 19.7281 35.6153
996 1 21.4277 20.7549 27.6259
997 1 22.978 13.417 32.4506
998 1 10.2766 10.2859 32.4411
999 1 10.2813 13.4497 35.6147
1000 1 21.3641 18.1657 37.1842
1001 1 14.9958 21.3492 37.2224
1002 1 18.1502 21.3239 37.2206
1003 1 14.9968 21.3661 34.0342
1004 1 22.9534 13.4053 35.6168
1005 1 21.3525 21.3289 37.0782
1006 1 22.9707 16.5077 32.4869
1007 2 22.2439 21.1906 31.6567
1008 1 11.8528 21.3636 34.0534
1009 1 22.9572 10.2582 35.6131
1010 1 21.2744 21.3871 34.1731
1011 1 18.176 21.3624 30.764
1012 1 23.1313 19.2814 32.6222
1013 2 23.3845 21.8832 29.2031
1014 2 20.7044 21.8109 29.9983
1015 2 23.3822 21.9021 25.4938
1016 1 24.5275 11.8326 15.0025
1017 1 24.533 11.8227 18.1778
1018 1 24.5309 11.8088 21.3285
1019 1 24.542 11.8221 24.495
1020 1 24.5541 11.8394 27.6519
1021 1 24.5519 11.8428 30.8301
1022 1 26.1304 13.3697 35.644
1023 1 24.539 14.9691 37.2122
1024 1 24.5356 15.0078 15.0286
1025 1 24.5256 14.9929 18.1874
1026 1 24.5051 14.97 21.3452
1027 1 24.5721 14.9727 24.4576
1028 1 24.5626 15.0348 27.631
1029 1 24.523 18.1755 15.0573
1030 1 24.5233 18.162 18.2416
1031 1 24.5129 18.1623 21.4488
1032 1 24.7211 18.1353 24.3195
1033 1 24.6477 17.8942 27.5787
1034 1 27.8271 18.0395 34.1079
1035 1 24.5263 21.336 15.0724
1036 1 24.5265 21.3429 18.2605
1037 1 29.2934 10.2295 32.4271
1038 1 26.1101 10.2523 13.4179
1039 1 27.6908 11.8184 14.9854
1040 1 26.1086 10.2538 16.5799
1041 1 27.7044 11.8054 18.1565
1042 1 26.1211 10.2346 19.7339
1043 1 27.7156 11.783 21.3127
1044 1 26.1142 10.2495 22.9144
1045 1 27.7339 11.8277 24.4941
1046 1 26.1233 10.2525 26.0885
1047 1 27.73 11.832 27.6587
1048 1 26.1219 10.2461 29.2464
1049 1 27.7335 11.8141 30.8559
1050 1 26.1263 10.2409 32.4253
1051 1 27.7226 11.809 34.0162
1052 1 29.3072 13.3639 35.6361
1053 1 26.106 13.4312 13.4236
1054 1 27.6953 14.9943 15.0111
1055 1 26.1191 13.4005 16.5862
1056 1 27.7158 14.9638 18.1648
1057 1 26.1015 13.3855 19.7407
1058 1 27.7616 14.9035 21.2764
1059 1 26.1395 13.3668 22.8777
1060 1 27.7537 14.9765 24.4062
1061 1 26.144 13.3979 26.0718
1062 1 27.7462 14.9833 27.6334
1063 1 26.1369 13.4086 29.2392
1064 1 27.7617 14.9316 30.8749
1065 1 26.1402 13.3841 32.4427
1066 1 26.2104 16.4837 35.6939
1067 1 24.5664 15.0023 34.0437
1068 1 27.7183 11.8184 37.2149
1069 1 26.1235 16.5821 13.4486
1070 1 27.7011 18.1627 15.0532
1071 1 26.1067 16.57 16.6202
1072 1 27.6943 18.1077 18.2397
1073 1 26.0916 16.5336 19.8041
1074 1 27.846 18.0266 21.119
1075 1 26.1777 16.4994 22.7726
1076 1 26.4914 19.5878 22.6831
1077 1 26.2189 16.5345 25.9907
1078 1 27.9713 17.8574 27.6256
1079 1 26.2366 16.4988 29.2599
1080 1 29.3735 16.472 32.4763
1081 1 26.2294 16.4684 32.4958
1082 1 29.361 16.5168 35.67
1083 1 26.1162 19.7653 13.4741
1084 1 27.7057 21.3367 15.0982
1085 1 26.114 19.7529 16.6562
1086 1 27.7035 21.3109 18.2538
1087 1 26.1314 19.7311 19.8368
1088 1 27.9694 21.2438 21.1174
1089 1 26.5142 19.3838 25.9591
1090 1 26.3588 19.3261 29.1339
1091 1 27.8496 18.0509 30.9084
1092 1 29.2786 10.2452 13.4176
1093 1 30.8592 11.8214 14.9903
1094 1 29.2879 10.2215 16.5605
1095 1 30.8841 11.7874 18.138
1096 1 29.2847 10.2126 19.7259
1097 1 30.9 11.7901 21.3018
1098 1 29.2978 10.2212 22.895
1099 1 30.9009 11.7877 24.4848
1100 1 29.2915 10.2392 26.0694
1101 1 30.8893 11.814 27.6515
1102 1 29.3059 10.2427 29.2501
1103 1 29.3267 13.3513 32.4471
1104 1 32.5048 16.5394 35.6558
1105 1 32.4587 10.2202 32.4341
1106 1 29.2911 10.2055 35.6051
1107 1 29.2854 13.4156 13.4151
1108 1 30.8808 14.9843 14.9846
1109 1 29.2874 13.3912 16.5587
1110 1 30.9127 14.9324 18.1136
1111 1 29.3173 13.3646 19.7198
1112 1 30.9419 14.9163 21.2553
1113 1 29.3358 13.357 22.8779
1114 1 30.9597 14.9069 24.427
1115 1 29.3317 13.4453 26.0449
1116 1 29.4179 16.3688 26.0137
1117 1 29.323 13.4346 29.2666
1118 1 27.763 14.912 34.0653
1119 1 30.8945 11.7954 34.0252
1120 1 34.0507 18.1534 37.2128
1121 1 27.7375 14.9483 37.2388
1122 1 30.8985 18.128 37.2243
1123 1 29.2833 16.5859 13.4337
1124 1 30.8675 18.151 15.0008
1125 1 29.2821 16.5675 16.5735
1126 1 30.9446 18.1068 18.1226
1127 1 29.3711 16.4734 19.6607
1128 1 30.9593 18.0864 21.2493
1129 1 29.4055 16.4423 22.784
1130 1 30.9598 18.0474 24.4153
1131 1 27.887 17.8992 24.3484
1132 1 30.9029 17.9919 27.6195
1133 1 29.3992 16.3807 29.3025
1134 1 32.5234 16.5064 32.4714
1135 1 30.9231 14.9474 34.0564
1136 1 30.9508 18.0838 34.0774
1137 1 30.8871 14.9668 37.233
1138 1 29.2784 19.7466 13.4692
1139 1 30.8674 21.3218 15.0401
1140 1 29.2943 19.7403 16.6753
1141 1 30.9346 21.3167 18.1447
1142 1 29.3911 19.6727 19.5805
1143 1 30.8572 21.2886 21.2759
1144 1 29.3805 19.601 22.7664
1145 1 30.8553 21.2532 24.44
1146 1 29.3838 19.5211 25.9856
1147 1 29.5105 19.5473 29.265
1148 1 29.4321 19.6054 32.5244
1149 1 29.3235 19.6956 35.6456
1150 1 32.4686 10.2228 35.6209
1151 1 32.4441 10.2416 13.4123
1152 1 34.0475 11.8144 14.9676
1153 1 32.4561 10.2265 16.562
1154 1 34.0611 11.7965 18.1432
1155 1 32.4753 10.2252 19.7191
1156 1 34.0713 11.7971 21.3081
1157 1 32.4806 10.2251 22.8938
1158 1 34.0616 11.8011 24.4778
1159 1 32.4519 10.2379 26.0712
1160 1 34.0511 11.802 27.6597
1161 1 30.8824 11.8009 30.849
1162 1 32.5066 13.3755 29.2524
1163 1 34.0637 11.8037 34.0337
1164 1 35.6398 10.2095 32.4485
1165 1 34.0502 11.8201 37.1927
1166 1 32.4465 13.3958 13.4072
1167 1 34.0458 14.9814 14.9796
1168 1 32.473 13.3881 16.5449
1169 1 34.0725 14.9667 18.1362
1170 1 32.4943 13.3625 19.7129
1171 1 34.0995 14.9546 21.3049
1172 1 32.5123 13.358 22.8799
1173 1 34.1071 14.9507 24.4639
1174 1 32.4962 13.3565 26.0608
1175 1 34.0904 14.9472 27.6644
1176 1 30.9571 14.9066 27.666
1177 1 30.9514 14.9195 30.8755
1178 1 32.4854 13.3823 35.6328
1179 1 35.6348 16.5571 35.6077
1180 1 32.5064 13.3582 32.4334
1181 1 32.4546 16.5744 13.4171
1182 1 34.0387 18.1551 14.9941
1183 1 32.4994 16.5478 16.5426
1184 1 34.0845 18.1316 18.1409
1185 1 32.5142 16.5301 19.7038
1186 1 34.0857 18.1296 21.3038
1187 1 32.5259 16.5215 22.8728
1188 1 34.0702 18.1202 24.4713
1189 1 32.5272 16.5072 26.0432
1190 1 34.0614 18.1107 27.6632
1191 1 32.5177 16.5057 29.2601
1192 1 34.0784 18.1201 30.8403
1193 1 34.0707 14.9519 34.0443
1194 1 34.0959 18.11 34.0508
1195 1 34.046 14.9895 37.2137
1196 1 32.4499 19.7517 13.426
1197 1 34.0448 21.3272 15.0026
1198 1 32.4865 19.7334 16.5711
1199 1 34.066 21.3398 18.1584
1200 1 32.5164 19.7132 19.7266
1201 1 32.4966 19.7138 22.8718
1202 1 32.4715 19.6862 26.0474
1203 1 32.4315 19.6419 29.2281
1204 1 32.5102 19.6812 32.484
1205 1 32.4977 19.7157 35.6378
1206 1 37.2271 11.7995 34.0244
1207 1 35.606 10.2431 13.3874
1208 1 37.2028 11.8087 14.9813
1209 1 35.6315 10.2346 16.5541
1210 1 37.2171 11.8191 18.1448
1211 1 35.6425 10.2229 19.724
1212 1 37.2404 11.8108 21.3053
1213 1 35.6445 10.2204 22.899
1214 1 37.242 11.8191 24.4959
1215 1 35.6515 10.2284 26.0651
1216 1 37.2233 11.8157 27.6576
1217 1 35.6365 10.2374 29.2476
1218 1 35.6471 13.3876 32.4474
1219 1 34.0777 11.8057 30.8557
1220 1 35.6303 13.392 13.378
1221 1 37.2194 14.9951 14.9873
1222 1 35.6472 13.3994 16.5707
1223 1 37.2418 14.9741 18.1472
1224 1 35.6703 13.385 19.7287
1225 1 37.2374 14.9672 21.3103
1226 1 35.6505 13.3912 22.9088
1227 1 37.2345 14.9768 24.4997
1228 1 35.6772 13.3894 26.074
1229 1 35.657 13.3873 29.2564
1230 1 34.0799 14.9432 30.8619
1231 1 35.6533 13.3832 35.6086
1232 1 35.618 16.58 13.4201
1233 1 37.2169 18.155 14.9945
1234 1 35.6404 16.5584 16.5632
1235 1 37.217 18.1494 18.1573
1236 1 35.6639 16.5548 19.733
1237 1 37.2299 18.1558 21.3295
1238 1 35.6665 16.5494 22.8994
1239 1 37.2366 18.1517 24.512
1240 1 35.6635 16.5549 26.0847
1241 1 37.2254 18.1562 27.6756
1242 1 35.6593 16.5495 29.2471
1243 1 37.22 18.1462 30.8556
1244 1 35.6519 16.5497 32.4414
1245 1 35.6257 19.7266 35.6064
1246 1 37.2078 18.1638 37.1923
1247 1 35.6211 19.7483 13.4038
1248 1 37.2047 21.3337 15.0045
1249 1 35.6425 19.7521 16.5888
1250 1 37.2118 21.3293 18.1713
1251 1 35.6537 19.7393 19.7518
1252 1 35.645 19.7379 22.9017
1253 1 35.6246 19.7382 26.085
1254 1 35.6006 19.7269 29.2566
1255 1 35.6272 19.7314 32.433
1256 1 34.0417 21.3203 37.2141
1257 1 30.8715 11.8078 37.2218
1258 1 32.4789 10.2246 29.2359
1259 1 35.6168 10.2522 35.6249
1260 1 37.2208 14.9879 37.1914
1261 1 37.2297 14.9865 34.0305
1262 1 24.5268 21.3123 21.4856
1263 1 34.0522 21.3161 21.3276
1264 1 24.7592 20.5873 27.4413
1265 1 34.0345 21.3028 24.4921
1266 1 25.1203 20.9727 24.2504
1267 1 30.8894 21.1968 27.6125
1268 1 37.2038 21.3245 21.3319
1269 1 37.1786 21.3142 27.6713
1270 1 27.984 21.14 24.3617
1271 1 37.1983 21.33 24.5133
1272 1 37.2117 11.8246 37.1998
1273 1 30.9705 18.0331 30.9005
1274 1 24.8131 20.5012 30.8709
1275 1 37.1839 21.3057 30.841
1276 1 37.229 14.9811 27.6677
1277 1 34.0168 21.2751 27.6623
1278 1 37.1966 21.3266 34.0051
1279 1 37.234 14.9657 30.8407
1280 1 33.9744 21.2898 30.8441
1281 1 26.2654 19.5461 32.6728
1282 1 37.233 11.8004 30.8489
1283 1 37.199 21.3275 37.1952
1284 1 37.2018 18.1456 34.0291
1285 1 26.1174 10.2265 35.605
1286 1 27.7185 18.153 37.2143
1287 1 27.7918 21.2412 34.0729
1288 1 31.0394 21.2166 30.9075
1289 1 30.926 21.2857 34.0566
1290 1 24.5773 15.0069 30.8503
1291 1 30.8763 21.3182 37.21
1292 1 24.5567 11.827 34.0325
1293 1 24.6669 17.8737 30.8956
1294 1 24.621 17.9178 34.1797
1295 1 24.5289 11.828 37.204
1296 1 28.0017 21.0253 27.6247
1297 1 34.0532 21.3106 34.0089
1298 1 27.8992 20.9756 30.8876
1299 1 24.5192 21.3319 37.0987
1300 1 27.6833 21.2968 37.1757
1301 1 24.5489 18.1458 37.1259
1302 1 26.143 19.7207 35.5324
1303 1 24.5157 21.3614 33.8687
1304 1 26.244 22.0634 29.2297
1305 1 0.7913 0.7913 0.7913
1306 1 2.3739 2.3739 2.3739
1307 1 0.7913 0.7913 3.9565
1308 1 2.3739 2.3739 5.5391
1309 1 0.7913 0.7913 7.1217
1310 1 2.3739 2.3739 8.7043
1311 1 0.7913 0.7913 10.2869
1312 1 2.3739 2.3739 11.8695
1313 1 0.7913 0.7913 13.4521
1314 1 2.3739 2.3739 15.0347
1315 1 0.7913 0.7913 16.6173
1316 1 2.3739 2.3739 18.1999
1317 1 0.7913 0.7913 19.7825
1318 1 2.3739 2.3739 21.3651
1319 1 0.7913 0.7913 22.9477
1320 1 2.3739 2.3739 24.5303
1321 1 0.7913 0.7913 26.1129
1322 1 2.3739 2.3739 27.6955
1323 1 0.7913 0.7913 29.2781
1324 1 2.3739 2.3739 30.8607
1325 1 0.7913 0.7913 32.4433
1326 1 2.3739 2.3739 34.0259
1327 1 0.7913 0.7913 35.6085
1328 1 2.3739 2.3739 37.1911
1329 1 0.7913 0.7913 38.7737
1330 1 2.3739 2.3739 40.3563
1331 1 0.7913 0.7913 41.9389
1332 1 2.3739 2.3739 43.5215
1333 1 0.7913 0.7913 45.1041
1334 1 2.3739 2.3739 46.6867
1335 1 0.7913 0.7913 48.2693
1336 1 2.3739 2.3739 49.8519
1337 1 0.7913 3.9565 0.7913
1338 1 2.3739 5.5391 2.3739
1339 1 0.7913 3.9565 3.9565
1340 1 2.3739 5.5391 5.5391
1341 1 0.7913 3.9565 7.1217
1342 1 2.3739 5.5391 8.7043
1343 1 0.7913 3.9565 10.2869
1344 1 2.3739 5.5391 11.8695
1345 1 0.7913 3.9565 13.4521
1346 1 2.3739 5.5391 15.0347
1347 1 0.7913 3.9565 16.6173
1348 1 2.3739 5.5391 18.1999
1349 1 0.7913 3.9565 19.7825
1350 1 2.3739 5.5391 21.3651
1351 1 0.7913 3.9565 22.9477
1352 1 2.3739 5.5391 24.5303
1353 1 0.7913 3.9565 26.1129
1354 1 2.3739 5.5391 27.6955
1355 1 0.7913 3.9565 29.2781
1356 1 2.3739 5.5391 30.8607
1357 1 0.7913 3.9565 32.4433
1358 1 2.3739 5.5391 34.0259
1359 1 0.7913 3.9565 35.6085
1360 1 2.3739 5.5391 37.1911
1361 1 0.7913 3.9565 38.7737
1362 1 2.3739 5.5391 40.3563
1363 1 0.7913 3.9565 41.9389
1364 1 2.3739 5.5391 43.5215
1365 1 0.7913 3.9565 45.1041
1366 1 2.3739 5.5391 46.6867
1367 1 0.7913 3.9565 48.2693
1368 1 2.3739 5.5391 49.8519
1369 1 0.7913 7.1217 0.7913
1370 1 2.3739 8.7043 2.3739
1371 1 0.7913 7.1217 3.9565
1372 1 2.3739 8.7043 5.5391
1373 1 0.7913 7.1217 7.1217
1374 1 2.3739 8.7043 8.7043
1375 1 0.7913 7.1217 10.2869
1376 1 2.3739 8.7043 11.8695
1377 1 0.7913 7.1217 13.4521
1378 1 2.3739 8.7043 15.0347
1379 1 0.7913 7.1217 16.6173
1380 1 2.3739 8.7043 18.1999
1381 1 0.7913 7.1217 19.7825
1382 1 2.3739 8.7043 21.3651
1383 1 0.7913 7.1217 22.9477
1384 1 2.3739 8.7043 24.5303
1385 1 0.7913 7.1217 26.1129
1386 1 2.3739 8.7043 27.6955
1387 1 0.7913 7.1217 29.2781
1388 1 2.3739 8.7043 30.8607
1389 1 0.7913 7.1217 32.4433
1390 1 2.3739 8.7043 34.0259
1391 1 0.7913 7.1217 35.6085
1392 1 2.3739 8.7043 37.1911
1393 1 0.7913 7.1217 38.7737
1394 1 2.3739 8.7043 40.3563
1395 1 0.7913 7.1217 41.9389
1396 1 2.3739 8.7043 43.5215
1397 1 0.7913 7.1217 45.1041
1398 1 2.3739 8.7043 46.6867
1399 1 0.7913 7.1217 48.2693
1400 1 2.3739 8.7043 49.8519
1401 1 0.7913 10.2869 0.7913
1402 1 2.3739 11.8695 2.3739
1403 1 0.7913 10.2869 3.9565
1404 1 2.3739 11.8695 5.5391
1405 1 0.7913 10.2869 7.1217
1406 1 2.3739 11.8695 8.7043
1407 1 0.7913 10.2869 10.2869
1408 1 2.3739 11.8695 11.8695
1409 1 0.7913 10.2869 13.4521
1410 1 2.3739 11.8695 15.0347
1411 1 0.7913 10.2869 16.6173
1412 1 2.3739 11.8695 18.1999
1413 1 0.7913 10.2869 19.7825
1414 1 2.3739 11.8695 21.3651
1415 1 0.7913 10.2869 22.9477
1416 1 2.3739 11.8695 24.5303
1417 1 0.7913 10.2869 26.1129
1418 1 2.3739 11.8695 27.6955
1419 1 0.7913 10.2869 29.2781
1420 1 2.3739 11.8695 30.8607
1421 1 0.7913 10.2869 32.4433
1422 1 2.3739 11.8695 34.0259
1423 1 0.7913 10.2869 35.6085
1424 1 2.3739 11.8695 37.1911
1425 1 0.7913 10.2869 38.7737
1426 1 2.3739 11.8695 40.3563
1427 1 0.7913 10.2869 41.9389
1428 1 2.3739 11.8695 43.5215
1429 1 0.7913 10.2869 45.1041
1430 1 2.3739 11.8695 46.6867
1431 1 0.7913 10.2869 48.2693
1432 1 2.3739 11.8695 49.8519
1433 1 0.7913 13.4521 0.7913
1434 1 2.3739 15.0347 2.3739
1435 1 0.7913 13.4521 3.9565
1436 1 2.3739 15.0347 5.5391
1437 1 0.7913 13.4521 7.1217
1438 1 2.3739 15.0347 8.7043
1439 1 0.7913 13.4521 10.2869
1440 1 2.3739 15.0347 11.8695
1441 1 0.7913 13.4521 13.4521
1442 1 2.3739 15.0347 15.0347
1443 1 0.7913 13.4521 16.6173
1444 1 2.3739 15.0347 18.1999
1445 1 0.7913 13.4521 19.7825
1446 1 2.3739 15.0347 21.3651
1447 1 0.7913 13.4521 22.9477
1448 1 2.3739 15.0347 24.5303
1449 1 0.7913 13.4521 26.1129
1450 1 2.3739 15.0347 27.6955
1451 1 0.7913 13.4521 29.2781
1452 1 2.3739 15.0347 30.8607
1453 1 0.7913 13.4521 32.4433
1454 1 2.3739 15.0347 34.0259
1455 1 0.7913 13.4521 35.6085
1456 1 2.3739 15.0347 37.1911
1457 1 0.7913 13.4521 38.7737
1458 1 2.3739 15.0347 40.3563
1459 1 0.7913 13.4521 41.9389
1460 1 2.3739 15.0347 43.5215
1461 1 0.7913 13.4521 45.1041
1462 1 2.3739 15.0347 46.6867
1463 1 0.7913 13.4521 48.2693
1464 1 2.3739 15.0347 49.8519
1465 1 0.7913 16.6173 0.7913
1466 1 2.3739 18.1999 2.3739
1467 1 0.7913 16.6173 3.9565
1468 1 2.3739 18.1999 5.5391
1469 1 0.7913 16.6173 7.1217
1470 1 2.3739 18.1999 8.7043
1471 1 0.7913 16.6173 10.2869
1472 1 2.3739 18.1999 11.8695
1473 1 0.7913 16.6173 13.4521
1474 1 2.3739 18.1999 15.0347
1475 1 0.7913 16.6173 16.6173
1476 1 2.3739 18.1999 18.1999
1477 1 0.7913 16.6173 19.7825
1478 1 2.3739 18.1999 21.3651
1479 1 0.7913 16.6173 22.9477
1480 1 2.3739 18.1999 24.5303
1481 1 0.7913 16.6173 26.1129
1482 1 2.3739 18.1999 27.6955
1483 1 0.7913 16.6173 29.2781
1484 1 2.3739 18.1999 30.8607
1485 1 0.7913 16.6173 32.4433
1486 1 2.3739 18.1999 34.0259
1487 1 0.7913 16.6173 35.6085
1488 1 2.3739 18.1999 37.1911
1489 1 0.7913 16.6173 38.7737
1490 1 2.3739 18.1999 40.3563
1491 1 0.7913 16.6173 41.9389
1492 1 2.3739 18.1999 43.5215
1493 1 0.7913 16.6173 45.1041
1494 1 2.3739 18.1999 46.6867
1495 1 0.7913 16.6173 48.2693
1496 1 2.3739 18.1999 49.8519
1497 1 0.7913 19.7825 0.7913
1498 1 2.3739 21.3651 2.3739
1499 1 0.7913 19.7825 3.9565
1500 1 2.3739 21.3651 5.5391
1501 1 0.7913 19.7825 7.1217
1502 1 2.3739 21.3651 8.7043
1503 1 0.7913 19.7825 10.2869
1504 1 2.3739 21.3651 11.8695
1505 1 0.7913 19.7825 13.4521
1506 1 2.3739 21.3651 15.0347
1507 1 0.7913 19.7825 16.6173
1508 1 2.3739 21.3651 18.1999
1509 1 0.7913 19.7825 19.7825
1510 1 2.3739 21.3651 21.3651
1511 1 0.7913 19.7825 22.9477
1512 1 2.3739 21.3651 24.5303
1513 1 0.7913 19.7825 26.1129
1514 1 2.3739 21.3651 27.6955
1515 1 0.7913 19.7825 29.2781
1516 1 2.3739 21.3651 30.8607
1517 1 0.7913 19.7825 32.4433
1518 1 2.3739 21.3651 34.0259
1519 1 0.7913 19.7825 35.6085
1520 1 2.3739 21.3651 37.1911
1521 1 0.7913 19.7825 38.7737
1522 1 2.3739 21.3651 40.3563
1523 1 0.7913 19.7825 41.9389
1524 1 2.3739 21.3651 43.5215
1525 1 0.7913 19.7825 45.1041
1526 1 2.3739 21.3651 46.6867
1527 1 0.7913 19.7825 48.2693
1528 1 2.3739 21.3651 49.8519
1529 1 0.7913 22.9477 0.7913
1530 1 2.3739 24.5303 2.3739
1531 1 0.7913 22.9477 3.9565
1532 1 2.3739 24.5303 5.5391
1533 1 0.7913 22.9477 7.1217
1534 1 2.3739 24.5303 8.7043
1535 1 0.7913 22.9477 10.2869
1536 1 2.3739 24.5303 11.8695
1537 1 0.7913 22.9477 13.4521
1538 1 2.3739 24.5303 15.0347
1539 1 0.7913 22.9477 16.6173
1540 1 2.3739 24.5303 18.1999
1541 1 0.7913 22.9477 19.7825
1542 1 2.3739 24.5303 21.3651
1543 1 0.7913 22.9477 22.9477
1544 1 2.3739 24.5303 24.5303
1545 1 0.7913 22.9477 26.1129
1546 1 2.3739 24.5303 27.6955
1547 1 0.7913 22.9477 29.2781
1548 1 2.3739 24.5303 30.8607
1549 1 0.7913 22.9477 32.4433
1550 1 2.3739 24.5303 34.0259
1551 1 0.7913 22.9477 35.6085
1552 1 2.3739 24.5303 37.1911
1553 1 0.7913 22.9477 38.7737
1554 1 2.3739 24.5303 40.3563
1555 1 0.7913 22.9477 41.9389
1556 1 2.3739 24.5303 43.5215
1557 1 0.7913 22.9477 45.1041
1558 1 2.3739 24.5303 46.6867
1559 1 0.7913 22.9477 48.2693
1560 1 2.3739 24.5303 49.8519
1561 1 0.7913 26.1129 0.7913
1562 1 2.3739 27.6955 2.3739
1563 1 0.7913 26.1129 3.9565
1564 1 2.3739 27.6955 5.5391
1565 1 0.7913 26.1129 7.1217
1566 1 2.3739 27.6955 8.7043
1567 1 0.7913 26.1129 10.2869
1568 1 2.3739 27.6955 11.8695
1569 1 0.7913 26.1129 13.4521
1570 1 2.3739 27.6955 15.0347
1571 1 0.7913 26.1129 16.6173
1572 1 2.3739 27.6955 18.1999
1573 1 0.7913 26.1129 19.7825
1574 1 2.3739 27.6955 21.3651
1575 1 0.7913 26.1129 22.9477
1576 1 2.3739 27.6955 24.5303
1577 1 0.7913 26.1129 26.1129
1578 1 2.3739 27.6955 27.6955
1579 1 0.7913 26.1129 29.2781
1580 1 2.3739 27.6955 30.8607
1581 1 0.7913 26.1129 32.4433
1582 1 2.3739 27.6955 34.0259
1583 1 0.7913 26.1129 35.6085
1584 1 2.3739 27.6955 37.1911
1585 1 0.7913 26.1129 38.7737
1586 1 2.3739 27.6955 40.3563
1587 1 0.7913 26.1129 41.9389
1588 1 2.3739 27.6955 43.5215
1589 1 0.7913 26.1129 45.1041
1590 1 2.3739 27.6955 46.6867
1591 1 0.7913 26.1129 48.2693
1592 1 2.3739 27.6955 49.8519
1593 1 0.7913 29.2781 0.7913
1594 1 2.3739 30.8607 2.3739
1595 1 0.7913 29.2781 3.9565
1596 1 2.3739 30.8607 5.5391
1597 1 0.7913 29.2781 7.1217
1598 1 2.3739 30.8607 8.7043
1599 1 0.7913 29.2781 10.2869
1600 1 2.3739 30.8607 11.8695
1601 1 0.7913 29.2781 13.4521
1602 1 2.3739 30.8607 15.0347
1603 1 0.7913 29.2781 16.6173
1604 1 2.3739 30.8607 18.1999
1605 1 0.7913 29.2781 19.7825
1606 1 2.3739 30.8607 21.3651
1607 1 0.7913 29.2781 22.9477
1608 1 2.3739 30.8607 24.5303
1609 1 0.7913 29.2781 26.1129
1610 1 2.3739 30.8607 27.6955
1611 1 0.7913 29.2781 29.2781
1612 1 2.3739 30.8607 30.8607
1613 1 0.7913 29.2781 32.4433
1614 1 2.3739 30.8607 34.0259
1615 1 0.7913 29.2781 35.6085
1616 1 2.3739 30.8607 37.1911
1617 1 0.7913 29.2781 38.7737
1618 1 2.3739 30.8607 40.3563
1619 1 0.7913 29.2781 41.9389
1620 1 2.3739 30.8607 43.5215
1621 1 0.7913 29.2781 45.1041
1622 1 2.3739 30.8607 46.6867
1623 1 0.7913 29.2781 48.2693
1624 1 2.3739 30.8607 49.8519
1625 1 0.7913 32.4433 0.7913
1626 1 2.3739 34.0259 2.3739
1627 1 0.7913 32.4433 3.9565
1628 1 2.3739 34.0259 5.5391
1629 1 0.7913 32.4433 7.1217
1630 1 2.3739 34.0259 8.7043
1631 1 0.7913 32.4433 10.2869
1632 1 2.3739 34.0259 11.8695
1633 1 0.7913 32.4433 13.4521
1634 1 2.3739 34.0259 15.0347
1635 1 0.7913 32.4433 16.6173
1636 1 2.3739 34.0259 18.1999
1637 1 0.7913 32.4433 19.7825
1638 1 2.3739 34.0259 21.3651
1639 1 0.7913 32.4433 22.9477
1640 1 2.3739 34.0259 24.5303
1641 1 0.7913 32.4433 26.1129
1642 1 2.3739 34.0259 27.6955
1643 1 0.7913 32.4433 29.2781
1644 1 2.3739 34.0259 30.8607
1645 1 0.7913 32.4433 32.4433
1646 1 2.3739 34.0259 34.0259
1647 1 0.7913 32.4433 35.6085
1648 1 2.3739 34.0259 37.1911
1649 1 0.7913 32.4433 38.7737
1650 1 2.3739 34.0259 40.3563
1651 1 0.7913 32.4433 41.9389
1652 1 2.3739 34.0259 43.5215
1653 1 0.7913 32.4433 45.1041
1654 1 2.3739 34.0259 46.6867
1655 1 0.7913 32.4433 48.2693
1656 1 2.3739 34.0259 49.8519
1657 1 0.7913 35.6085 0.7913
1658 1 2.3739 37.1911 2.3739
1659 1 0.7913 35.6085 3.9565
1660 1 2.3739 37.1911 5.5391
1661 1 0.7913 35.6085 7.1217
1662 1 2.3739 37.1911 8.7043
1663 1 0.7913 35.6085 10.2869
1664 1 2.3739 37.1911 11.8695
1665 1 0.7913 35.6085 13.4521
1666 1 2.3739 37.1911 15.0347
1667 1 0.7913 35.6085 16.6173
1668 1 2.3739 37.1911 18.1999
1669 1 0.7913 35.6085 19.7825
1670 1 2.3739 37.1911 21.3651
1671 1 0.7913 35.6085 22.9477
1672 1 2.3739 37.1911 24.5303
1673 1 0.7913 35.6085 26.1129
1674 1 2.3739 37.1911 27.6955
1675 1 0.7913 35.6085 29.2781
1676 1 2.3739 37.1911 30.8607
1677 1 0.7913 35.6085 32.4433
1678 1 2.3739 37.1911 34.0259
1679 1 0.7913 35.6085 35.6085
1680 1 2.3739 37.1911 37.1911
1681 1 0.7913 35.6085 38.7737
1682 1 2.3739 37.1911 40.3563
1683 1 0.7913 35.6085 41.9389
1684 1 2.3739 37.1911 43.5215
1685 1 0.7913 35.6085 45.1041
1686 1 2.3739 37.1911 46.6867
1687 1 0.7913 35.6085 48.2693
1688 1 2.3739 37.1911 49.8519
1689 1 0.7913 38.7737 0.7913
1690 1 2.3739 40.3563 2.3739
1691 1 0.7913 38.7737 3.9565
1692 1 2.3739 40.3563 5.5391
1693 1 0.7913 38.7737 7.1217
1694 1 2.3739 40.3563 8.7043
1695 1 0.7913 38.7737 10.2869
1696 1 2.3739 40.3563 11.8695
1697 1 0.7913 38.7737 13.4521
1698 1 2.3739 40.3563 15.0347
1699 1 0.7913 38.7737 16.6173
1700 1 2.3739 40.3563 18.1999
1701 1 0.7913 38.7737 19.7825
1702 1 2.3739 40.3563 21.3651
1703 1 0.7913 38.7737 22.9477
1704 1 2.3739 40.3563 24.5303
1705 1 0.7913 38.7737 26.1129
1706 1 2.3739 40.3563 27.6955
1707 1 0.7913 38.7737 29.2781
1708 1 2.3739 40.3563 30.8607
1709 1 0.7913 38.7737 32.4433
1710 1 2.3739 40.3563 34.0259
1711 1 0.7913 38.7737 35.6085
1712 1 2.3739 40.3563 37.1911
1713 1 0.7913 38.7737 38.7737
1714 1 2.3739 40.3563 40.3563
1715 1 0.7913 38.7737 41.9389
1716 1 2.3739 40.3563 43.5215
1717 1 0.7913 38.7737 45.1041
1718 1 2.3739 40.3563 46.6867
1719 1 0.7913 38.7737 48.2693
1720 1 2.3739 40.3563 49.8519
1721 1 0.7913 41.9389 0.7913
1722 1 2.3739 43.5215 2.3739
1723 1 0.7913 41.9389 3.9565
1724 1 2.3739 43.5215 5.5391
1725 1 0.7913 41.9389 7.1217
1726 1 2.3739 43.5215 8.7043
1727 1 0.7913 41.9389 10.2869
1728 1 2.3739 43.5215 11.8695
1729 1 0.7913 41.9389 13.4521
1730 1 2.3739 43.5215 15.0347
1731 1 0.7913 41.9389 16.6173
1732 1 2.3739 43.5215 18.1999
1733 1 0.7913 41.9389 19.7825
1734 1 2.3739 43.5215 21.3651
1735 1 0.7913 41.9389 22.9477
1736 1 2.3739 43.5215 24.5303
1737 1 0.7913 41.9389 26.1129
1738 1 2.3739 43.5215 27.6955
1739 1 0.7913 41.9389 29.2781
1740 1 2.3739 43.5215 30.8607
1741 1 0.7913 41.9389 32.4433
1742 1 2.3739 43.5215 34.0259
1743 1 0.7913 41.9389 35.6085
1744 1 2.3739 43.5215 37.1911
1745 1 0.7913 41.9389 38.7737
1746 1 2.3739 43.5215 40.3563
1747 1 0.7913 41.9389 41.9389
1748 1 2.3739 43.5215 43.5215
1749 1 0.7913 41.9389 45.1041
1750 1 2.3739 43.5215 46.6867
1751 1 0.7913 41.9389 48.2693
1752 1 2.3739 43.5215 49.8519
1753 1 0.7913 45.1041 0.7913
1754 1 2.3739 46.6867 2.3739
1755 1 0.7913 45.1041 3.9565
1756 1 2.3739 46.6867 5.5391
1757 1 0.7913 45.1041 7.1217
1758 1 2.3739 46.6867 8.7043
1759 1 0.7913 45.1041 10.2869
1760 1 2.3739 46.6867 11.8695
1761 1 0.7913 45.1041 13.4521
1762 1 2.3739 46.6867 15.0347
1763 1 0.7913 45.1041 16.6173
1764 1 2.3739 46.6867 18.1999
1765 1 0.7913 45.1041 19.7825
1766 1 2.3739 46.6867 21.3651
1767 1 0.7913 45.1041 22.9477
1768 1 2.3739 46.6867 24.5303
1769 1 0.7913 45.1041 26.1129
1770 1 2.3739 46.6867 27.6955
1771 1 0.7913 45.1041 29.2781
1772 1 2.3739 46.6867 30.8607
1773 1 0.7913 45.1041 32.4433
1774 1 2.3739 46.6867 34.0259
1775 1 0.7913 45.1041 35.6085
1776 1 2.3739 46.6867 37.1911
1777 1 0.7913 45.1041 38.7737
1778 1 2.3739 46.6867 40.3563
1779 1 0.7913 45.1041 41.9389
1780 1 2.3739 46.6867 43.5215
1781 1 0.7913 45.1041 45.1041
1782 1 2.3739 46.6867 46.6867
1783 1 0.7913 45.1041 48.2693
1784 1 2.3739 46.6867 49.8519
1785 1 0.7913 48.2693 0.7913
1786 1 2.3739 49.8519 2.3739
1787 1 0.7913 48.2693 3.9565
1788 1 2.3739 49.8519 5.5391
1789 1 0.7913 48.2693 7.1217
1790 1 2.3739 49.8519 8.7043
1791 1 0.7913 48.2693 10.2869
1792 1 2.3739 49.8519 11.8695
1793 1 0.7913 48.2693 13.4521
1794 1 2.3739 49.8519 15.0347
1795 1 0.7913 48.2693 16.6173
1796 1 2.3739 49.8519 18.1999
1797 1 0.7913 48.2693 19.7825
1798 1 2.3739 49.8519 21.3651
1799 1 0.7913 48.2693 22.9477
1800 1 2.3739 49.8519 24.5303
1801 1 0.7913 48.2693 26.1129
1802 1 2.3739 49.8519 27.6955
1803 1 0.7913 48.2693 29.2781
1804 1 2.3739 49.8519 30.8607
1805 1 0.7913 48.2693 32.4433
1806 1 2.3739 49.8519 34.0259
1807 1 0.7913 48.2693 35.6085
1808 1 2.3739 49.8519 37.1911
1809 1 0.7913 48.2693 38.7737
1810 1 2.3739 49.8519 40.3563
1811 1 0.7913 48.2693 41.9389
1812 1 2.3739 49.8519 43.5215
1813 1 0.7913 48.2693 45.1041
1814 1 2.3739 49.8519 46.6867
1815 1 0.7913 48.2693 48.2693
1816 1 2.3739 49.8519 49.8519
1817 1 3.9565 0.7913 0.7913
1818 1 5.5391 2.3739 2.3739
1819 1 3.9565 0.7913 3.9565
1820 1 5.5391 2.3739 5.5391
1821 1 3.9565 0.7913 7.1217
1822 1 5.5391 2.3739 8.7043
1823 1 3.9565 0.7913 10.2869
1824 1 5.5391 2.3739 11.8695
1825 1 3.9565 0.7913 13.4521
1826 1 5.5391 2.3739 15.0347
1827 1 3.9565 0.7913 16.6173
1828 1 5.5391 2.3739 18.1999
1829 1 3.9565 0.7913 19.7825
1830 1 5.5391 2.3739 21.3651
1831 1 3.9565 0.7913 22.9477
1832 1 5.5391 2.3739 24.5303
1833 1 3.9565 0.7913 26.1129
1834 1 5.5391 2.3739 27.6955
1835 1 3.9565 0.7913 29.2781
1836 1 5.5391 2.3739 30.8607
1837 1 3.9565 0.7913 32.4433
1838 1 5.5391 2.3739 34.0259
1839 1 3.9565 0.7913 35.6085
1840 1 5.5391 2.3739 37.1911
1841 1 3.9565 0.7913 38.7737
1842 1 5.5391 2.3739 40.3563
1843 1 3.9565 0.7913 41.9389
1844 1 5.5391 2.3739 43.5215
1845 1 3.9565 0.7913 45.1041
1846 1 5.5391 2.3739 46.6867
1847 1 3.9565 0.7913 48.2693
1848 1 5.5391 2.3739 49.8519
1849 1 3.9565 3.9565 0.7913
1850 1 5.5391 5.5391 2.3739
1851 1 3.9565 3.9565 3.9565
1852 1 5.5391 5.5391 5.5391
1853 1 3.9565 3.9565 7.1217
1854 1 5.5391 5.5391 8.7043
1855 1 3.9565 3.9565 10.2869
1856 1 5.5391 5.5391 11.8695
1857 1 3.9565 3.9565 13.4521
1858 1 5.5391 5.5391 15.0347
1859 1 3.9565 3.9565 16.6173
1860 1 5.5391 5.5391 18.1999
1861 1 3.9565 3.9565 19.7825
1862 1 5.5391 5.5391 21.3651
1863 1 3.9565 3.9565 22.9477
1864 1 5.5391 5.5391 24.5303
1865 1 3.9565 3.9565 26.1129
1866 1 5.5391 5.5391 27.6955
1867 1 3.9565 3.9565 29.2781
1868 1 5.5391 5.5391 30.8607
1869 1 3.9565 3.9565 32.4433
1870 1 5.5391 5.5391 34.0259
1871 1 3.9565 3.9565 35.6085
1872 1 5.5391 5.5391 37.1911
1873 1 3.9565 3.9565 38.7737
1874 1 5.5391 5.5391 40.3563
1875 1 3.9565 3.9565 41.9389
1876 1 5.5391 5.5391 43.5215
1877 1 3.9565 3.9565 45.1041
1878 1 5.5391 5.5391 46.6867
1879 1 3.9565 3.9565 48.2693
1880 1 5.5391 5.5391 49.8519
1881 1 3.9565 7.1217 0.7913
1882 1 5.5391 8.7043 2.3739
1883 1 3.9565 7.1217 3.9565
1884 1 5.5391 8.7043 5.5391
1885 1 3.9565 7.1217 7.1217
1886 1 5.5391 8.7043 8.7043
1887 1 3.9565 7.1217 10.2869
1888 1 5.5391 8.7043 11.8695
1889 1 3.9565 7.1217 13.4521
1890 1 5.5391 8.7043 15.0347
1891 1 3.9565 7.1217 16.6173
1892 1 5.5391 8.7043 18.1999
1893 1 3.9565 7.1217 19.7825
1894 1 5.5391 8.7043 21.3651
1895 1 3.9565 7.1217 22.9477
1896 1 5.5391 8.7043 24.5303
1897 1 3.9565 7.1217 26.1129
1898 1 5.5391 8.7043 27.6955
1899 1 3.9565 7.1217 29.2781
1900 1 5.5391 8.7043 30.8607
1901 1 3.9565 7.1217 32.4433
1902 1 5.5391 8.7043 34.0259
1903 1 3.9565 7.1217 35.6085
1904 1 5.5391 8.7043 37.1911
1905 1 3.9565 7.1217 38.7737
1906 1 5.5391 8.7043 40.3563
1907 1 3.9565 7.1217 41.9389
1908 1 5.5391 8.7043 43.5215
1909 1 3.9565 7.1217 45.1041
1910 1 5.5391 8.7043 46.6867
1911 1 3.9565 7.1217 48.2693
1912 1 5.5391 8.7043 49.8519
1913 1 3.9565 10.2869 0.7913
1914 1 5.5391 11.8695 2.3739
1915 1 3.9565 10.2869 3.9565
1916 1 5.5391 11.8695 5.5391
1917 1 3.9565 10.2869 7.1217
1918 1 5.5391 11.8695 8.7043
1919 1 3.9565 10.2869 10.2869
1920 1 5.5391 11.8695 11.8695
1921 1 3.9565 10.2869 13.4521
1922 1 5.5391 11.8695 15.0347
1923 1 3.9565 10.2869 16.6173
1924 1 5.5391 11.8695 18.1999
1925 1 3.9565 10.2869 19.7825
1926 1 5.5391 11.8695 21.3651
1927 1 3.9565 10.2869 22.9477
1928 1 5.5391 11.8695 24.5303
1929 1 3.9565 10.2869 26.1129
1930 1 5.5391 11.8695 27.6955
1931 1 3.9565 10.2869 29.2781
1932 1 5.5391 11.8695 30.8607
1933 1 3.9565 10.2869 32.4433
1934 1 5.5391 11.8695 34.0259
1935 1 3.9565 10.2869 35.6085
1936 1 5.5391 11.8695 37.1911
1937 1 3.9565 10.2869 38.7737
1938 1 5.5391 11.8695 40.3563
1939 1 3.9565 10.2869 41.9389
1940 1 5.5391 11.8695 43.5215
1941 1 3.9565 10.2869 45.1041
1942 1 5.5391 11.8695 46.6867
1943 1 3.9565 10.2869 48.2693
1944 1 5.5391 11.8695 49.8519
1945 1 3.9565 13.4521 0.7913
1946 1 5.5391 15.0347 2.3739
1947 1 3.9565 13.4521 3.9565
1948 1 5.5391 15.0347 5.5391
1949 1 3.9565 13.4521 7.1217
1950 1 5.5391 15.0347 8.7043
1951 1 3.9565 13.4521 10.2869
1952 1 5.5391 15.0347 11.8695
1953 1 3.9565 13.4521 13.4521
1954 1 5.5391 15.0347 15.0347
1955 1 3.9565 13.4521 16.6173
1956 1 5.5391 15.0347 18.1999
1957 1 3.9565 13.4521 19.7825
1958 1 5.5391 15.0347 21.3651
1959 1 3.9565 13.4521 22.9477
1960 1 5.5391 15.0347 24.5303
1961 1 3.9565 13.4521 26.1129
1962 1 5.5391 15.0347 27.6955
1963 1 3.9565 13.4521 29.2781
1964 1 5.5391 15.0347 30.8607
1965 1 3.9565 13.4521 32.4433
1966 1 5.5391 15.0347 34.0259
1967 1 3.9565 13.4521 35.6085
1968 1 5.5391 15.0347 37.1911
1969 1 3.9565 13.4521 38.7737
1970 1 5.5391 15.0347 40.3563
1971 1 3.9565 13.4521 41.9389
1972 1 5.5391 15.0347 43.5215
1973 1 3.9565 13.4521 45.1041
1974 1 5.5391 15.0347 46.6867
1975 1 3.9565 13.4521 48.2693
1976 1 5.5391 15.0347 49.8519
1977 1 3.9565 16.6173 0.7913
1978 1 5.5391 18.1999 2.3739
1979 1 3.9565 16.6173 3.9565
1980 1 5.5391 18.1999 5.5391
1981 1 3.9565 16.6173 7.1217
1982 1 5.5391 18.1999 8.7043
1983 1 3.9565 16.6173 10.2869
1984 1 5.5391 18.1999 11.8695
1985 1 3.9565 16.6173 13.4521
1986 1 5.5391 18.1999 15.0347
1987 1 3.9565 16.6173 16.6173
1988 1 5.5391 18.1999 18.1999
1989 1 3.9565 16.6173 19.7825
1990 1 5.5391 18.1999 21.3651
1991 1 3.9565 16.6173 22.9477
1992 1 5.5391 18.1999 24.5303
1993 1 3.9565 16.6173 26.1129
1994 1 5.5391 18.1999 27.6955
1995 1 3.9565 16.6173 29.2781
1996 1 5.5391 18.1999 30.8607
1997 1 3.9565 16.6173 32.4433
1998 1 5.5391 18.1999 34.0259
1999 1 3.9565 16.6173 35.6085
2000 1 5.5391 18.1999 37.1911
2001 1 3.9565 16.6173 38.7737
2002 1 5.5391 18.1999 40.3563
2003 1 3.9565 16.6173 41.9389
2004 1 5.5391 18.1999 43.5215
2005 1 3.9565 16.6173 45.1041
2006 1 5.5391 18.1999 46.6867
2007 1 3.9565 16.6173 48.2693
2008 1 5.5391 18.1999 49.8519
2009 1 3.9565 19.7825 0.7913
2010 1 5.5391 21.3651 2.3739
2011 1 3.9565 19.7825 3.9565
2012 1 5.5391 21.3651 5.5391
2013 1 3.9565 19.7825 7.1217
2014 1 5.5391 21.3651 8.7043
2015 1 3.9565 19.7825 10.2869
2016 1 5.5391 21.3651 11.8695
2017 1 3.9565 19.7825 13.4521
2018 1 5.5391 21.3651 15.0347
2019 1 3.9565 19.7825 16.6173
2020 1 5.5391 21.3651 18.1999
2021 1 3.9565 19.7825 19.7825
2022 1 5.5391 21.3651 21.3651
2023 1 3.9565 19.7825 22.9477
2024 1 5.5391 21.3651 24.5303
2025 1 3.9565 19.7825 26.1129
2026 1 5.5391 21.3651 27.6955
2027 1 3.9565 19.7825 29.2781
2028 1 5.5391 21.3651 30.8607
2029 1 3.9565 19.7825 32.4433
2030 1 5.5391 21.3651 34.0259
2031 1 3.9565 19.7825 35.6085
2032 1 5.5391 21.3651 37.1911
2033 1 3.9565 19.7825 38.7737
2034 1 5.5391 21.3651 40.3563
2035 1 3.9565 19.7825 41.9389
2036 1 5.5391 21.3651 43.5215
2037 1 3.9565 19.7825 45.1041
2038 1 5.5391 21.3651 46.6867
2039 1 3.9565 19.7825 48.2693
2040 1 5.5391 21.3651 49.8519
2041 1 3.9565 22.9477 0.7913
2042 1 5.5391 24.5303 2.3739
2043 1 3.9565 22.9477 3.9565
2044 1 5.5391 24.5303 5.5391
2045 1 3.9565 22.9477 7.1217
2046 1 5.5391 24.5303 8.7043
2047 1 3.9565 22.9477 10.2869
2048 1 5.5391 24.5303 11.8695
2049 1 3.9565 22.9477 13.4521
2050 1 5.5391 24.5303 15.0347
2051 1 3.9565 22.9477 16.6173
2052 1 5.5391 24.5303 18.1999
2053 1 3.9565 22.9477 19.7825
2054 1 5.5391 24.5303 21.3651
2055 1 3.9565 22.9477 22.9477
2056 1 5.5391 24.5303 24.5303
2057 1 3.9565 22.9477 26.1129
2058 1 5.5391 24.5303 27.6955
2059 1 3.9565 22.9477 29.2781
2060 1 5.5391 24.5303 30.8607
2061 1 3.9565 22.9477 32.4433
2062 1 5.5391 24.5303 34.0259
2063 1 3.9565 22.9477 35.6085
2064 1 5.5391 24.5303 37.1911
2065 1 3.9565 22.9477 38.7737
2066 1 5.5391 24.5303 40.3563
2067 1 3.9565 22.9477 41.9389
2068 1 5.5391 24.5303 43.5215
2069 1 3.9565 22.9477 45.1041
2070 1 5.5391 24.5303 46.6867
2071 1 3.9565 22.9477 48.2693
2072 1 5.5391 24.5303 49.8519
2073 1 3.9565 26.1129 0.7913
2074 1 5.5391 27.6955 2.3739
2075 1 3.9565 26.1129 3.9565
2076 1 5.5391 27.6955 5.5391
2077 1 3.9565 26.1129 7.1217
2078 1 5.5391 27.6955 8.7043
2079 1 3.9565 26.1129 10.2869
2080 1 5.5391 27.6955 11.8695
2081 1 3.9565 26.1129 13.4521
2082 1 5.5391 27.6955 15.0347
2083 1 3.9565 26.1129 16.6173
2084 1 5.5391 27.6955 18.1999
2085 1 3.9565 26.1129 19.7825
2086 1 5.5391 27.6955 21.3651
2087 1 3.9565 26.1129 22.9477
2088 1 5.5391 27.6955 24.5303
2089 1 3.9565 26.1129 26.1129
2090 1 5.5391 27.6955 27.6955
2091 1 3.9565 26.1129 29.2781
2092 1 5.5391 27.6955 30.8607
2093 1 3.9565 26.1129 32.4433
2094 1 5.5391 27.6955 34.0259
2095 1 3.9565 26.1129 35.6085
2096 1 5.5391 27.6955 37.1911
2097 1 3.9565 26.1129 38.7737
2098 1 5.5391 27.6955 40.3563
2099 1 3.9565 26.1129 41.9389
2100 1 5.5391 27.6955 43.5215
2101 1 3.9565 26.1129 45.1041
2102 1 5.5391 27.6955 46.6867
2103 1 3.9565 26.1129 48.2693
2104 1 5.5391 27.6955 49.8519
2105 1 3.9565 29.2781 0.7913
2106 1 5.5391 30.8607 2.3739
2107 1 3.9565 29.2781 3.9565
2108 1 5.5391 30.8607 5.5391
2109 1 3.9565 29.2781 7.1217
2110 1 5.5391 30.8607 8.7043
2111 1 3.9565 29.2781 10.2869
2112 1 5.5391 30.8607 11.8695
2113 1 3.9565 29.2781 13.4521
2114 1 5.5391 30.8607 15.0347
2115 1 3.9565 29.2781 16.6173
2116 1 5.5391 30.8607 18.1999
2117 1 3.9565 29.2781 19.7825
2118 1 5.5391 30.8607 21.3651
2119 1 3.9565 29.2781 22.9477
2120 1 5.5391 30.8607 24.5303
2121 1 3.9565 29.2781 26.1129
2122 1 5.5391 30.8607 27.6955
2123 1 3.9565 29.2781 29.2781
2124 1 5.5391 30.8607 30.8607
2125 1 3.9565 29.2781 32.4433
2126 1 5.5391 30.8607 34.0259
2127 1 3.9565 29.2781 35.6085
2128 1 5.5391 30.8607 37.1911
2129 1 3.9565 29.2781 38.7737
2130 1 5.5391 30.8607 40.3563
2131 1 3.9565 29.2781 41.9389
2132 1 5.5391 30.8607 43.5215
2133 1 3.9565 29.2781 45.1041
2134 1 5.5391 30.8607 46.6867
2135 1 3.9565 29.2781 48.2693
2136 1 5.5391 30.8607 49.8519
2137 1 3.9565 32.4433 0.7913
2138 1 5.5391 34.0259 2.3739
2139 1 3.9565 32.4433 3.9565
2140 1 5.5391 34.0259 5.5391
2141 1 3.9565 32.4433 7.1217
2142 1 5.5391 34.0259 8.7043
2143 1 3.9565 32.4433 10.2869
2144 1 5.5391 34.0259 11.8695
2145 1 3.9565 32.4433 13.4521
2146 1 5.5391 34.0259 15.0347
2147 1 3.9565 32.4433 16.6173
2148 1 5.5391 34.0259 18.1999
2149 1 3.9565 32.4433 19.7825
2150 1 5.5391 34.0259 21.3651
2151 1 3.9565 32.4433 22.9477
2152 1 5.5391 34.0259 24.5303
2153 1 3.9565 32.4433 26.1129
2154 1 5.5391 34.0259 27.6955
2155 1 3.9565 32.4433 29.2781
2156 1 5.5391 34.0259 30.8607
2157 1 3.9565 32.4433 32.4433
2158 1 5.5391 34.0259 34.0259
2159 1 3.9565 32.4433 35.6085
2160 1 5.5391 34.0259 37.1911
2161 1 3.9565 32.4433 38.7737
2162 1 5.5391 34.0259 40.3563
2163 1 3.9565 32.4433 41.9389
2164 1 5.5391 34.0259 43.5215
2165 1 3.9565 32.4433 45.1041
2166 1 5.5391 34.0259 46.6867
2167 1 3.9565 32.4433 48.2693
2168 1 5.5391 34.0259 49.8519
2169 1 3.9565 35.6085 0.7913
2170 1 5.5391 37.1911 2.3739
2171 1 3.9565 35.6085 3.9565
2172 1 5.5391 37.1911 5.5391
2173 1 3.9565 35.6085 7.1217
2174 1 5.5391 37.1911 8.7043
2175 1 3.9565 35.6085 10.2869
2176 1 5.5391 37.1911 11.8695
2177 1 3.9565 35.6085 13.4521
2178 1 5.5391 37.1911 15.0347
2179 1 3.9565 35.6085 16.6173
2180 1 5.5391 37.1911 18.1999
2181 1 3.9565 35.6085 19.7825
2182 1 5.5391 37.1911 21.3651
2183 1 3.9565 35.6085 22.9477
2184 1 5.5391 37.1911 24.5303
2185 1 3.9565 35.6085 26.1129
2186 1 5.5391 37.1911 27.6955
2187 1 3.9565 35.6085 29.2781
2188 1 5.5391 37.1911 30.8607
2189 1 3.9565 35.6085 32.4433
2190 1 5.5391 37.1911 34.0259
2191 1 3.9565 35.6085 35.6085
2192 1 5.5391 37.1911 37.1911
2193 1 3.9565 35.6085 38.7737
2194 1 5.5391 37.1911 40.3563
2195 1 3.9565 35.6085 41.9389
2196 1 5.5391 37.1911 43.5215
2197 1 3.9565 35.6085 45.1041
2198 1 5.5391 37.1911 46.6867
2199 1 3.9565 35.6085 48.2693
2200 1 5.5391 37.1911 49.8519
2201 1 3.9565 38.7737 0.7913
2202 1 5.5391 40.3563 2.3739
2203 1 3.9565 38.7737 3.9565
2204 1 5.5391 40.3563 5.5391
2205 1 3.9565 38.7737 7.1217
2206 1 5.5391 40.3563 8.7043
2207 1 3.9565 38.7737 10.2869
2208 1 5.5391 40.3563 11.8695
2209 1 3.9565 38.7737 13.4521
2210 1 5.5391 40.3563 15.0347
2211 1 3.9565 38.7737 16.6173
2212 1 5.5391 40.3563 18.1999
2213 1 3.9565 38.7737 19.7825
2214 1 5.5391 40.3563 21.3651
2215 1 3.9565 38.7737 22.9477
2216 1 5.5391 40.3563 24.5303
2217 1 3.9565 38.7737 26.1129
2218 1 5.5391 40.3563 27.6955
2219 1 3.9565 38.7737 29.2781
2220 1 5.5391 40.3563 30.8607
2221 1 3.9565 38.7737 32.4433
2222 1 5.5391 40.3563 34.0259
2223 1 3.9565 38.7737 35.6085
2224 1 5.5391 40.3563 37.1911
2225 1 3.9565 38.7737 38.7737
2226 1 5.5391 40.3563 40.3563
2227 1 3.9565 38.7737 41.9389
2228 1 5.5391 40.3563 43.5215
2229 1 3.9565 38.7737 45.1041
2230 1 5.5391 40.3563 46.6867
2231 1 3.9565 38.7737 48.2693
2232 1 5.5391 40.3563 49.8519
2233 1 3.9565 41.9389 0.7913
2234 1 5.5391 43.5215 2.3739
2235 1 3.9565 41.9389 3.9565
2236 1 5.5391 43.5215 5.5391
2237 1 3.9565 41.9389 7.1217
2238 1 5.5391 43.5215 8.7043
2239 1 3.9565 41.9389 10.2869
2240 1 5.5391 43.5215 11.8695
2241 1 3.9565 41.9389 13.4521
2242 1 5.5391 43.5215 15.0347
2243 1 3.9565 41.9389 16.6173
2244 1 5.5391 43.5215 18.1999
2245 1 3.9565 41.9389 19.7825
2246 1 5.5391 43.5215 21.3651
2247 1 3.9565 41.9389 22.9477
2248 1 5.5391 43.5215 24.5303
2249 1 3.9565 41.9389 26.1129
2250 1 5.5391 43.5215 27.6955
2251 1 3.9565 41.9389 29.2781
2252 1 5.5391 43.5215 30.8607
2253 1 3.9565 41.9389 32.4433
2254 1 5.5391 43.5215 34.0259
2255 1 3.9565 41.9389 35.6085
2256 1 5.5391 43.5215 37.1911
2257 1 3.9565 41.9389 38.7737
2258 1 5.5391 43.5215 40.3563
2259 1 3.9565 41.9389 41.9389
2260 1 5.5391 43.5215 43.5215
2261 1 3.9565 41.9389 45.1041
2262 1 5.5391 43.5215 46.6867
2263 1 3.9565 41.9389 48.2693
2264 1 5.5391 43.5215 49.8519
2265 1 3.9565 45.1041 0.7913
2266 1 5.5391 46.6867 2.3739
2267 1 3.9565 45.1041 3.9565
2268 1 5.5391 46.6867 5.5391
2269 1 3.9565 45.1041 7.1217
2270 1 5.5391 46.6867 8.7043
2271 1 3.9565 45.1041 10.2869
2272 1 5.5391 46.6867 11.8695
2273 1 3.9565 45.1041 13.4521
2274 1 5.5391 46.6867 15.0347
2275 1 3.9565 45.1041 16.6173
2276 1 5.5391 46.6867 18.1999
2277 1 3.9565 45.1041 19.7825
2278 1 5.5391 46.6867 21.3651
2279 1 3.9565 45.1041 22.9477
2280 1 5.5391 46.6867 24.5303
2281 1 3.9565 45.1041 26.1129
2282 1 5.5391 46.6867 27.6955
2283 1 3.9565 45.1041 29.2781
2284 1 5.5391 46.6867 30.8607
2285 1 3.9565 45.1041 32.4433
2286 1 5.5391 46.6867 34.0259
2287 1 3.9565 45.1041 35.6085
2288 1 5.5391 46.6867 37.1911
2289 1 3.9565 45.1041 38.7737
2290 1 5.5391 46.6867 40.3563
2291 1 3.9565 45.1041 41.9389
2292 1 5.5391 46.6867 43.5215
2293 1 3.9565 45.1041 45.1041
2294 1 5.5391 46.6867 46.6867
2295 1 3.9565 45.1041 48.2693
2296 1 5.5391 46.6867 49.8519
2297 1 3.9565 48.2693 0.7913
2298 1 5.5391 49.8519 2.3739
2299 1 3.9565 48.2693 3.9565
2300 1 5.5391 49.8519 5.5391
2301 1 3.9565 48.2693 7.1217
2302 1 5.5391 49.8519 8.7043
2303 1 3.9565 48.2693 10.2869
2304 1 5.5391 49.8519 11.8695
2305 1 3.9565 48.2693 13.4521
2306 1 5.5391 49.8519 15.0347
2307 1 3.9565 48.2693 16.6173
2308 1 5.5391 49.8519 18.1999
2309 1 3.9565 48.2693 19.7825
2310 1 5.5391 49.8519 21.3651
2311 1 3.9565 48.2693 22.9477
2312 1 5.5391 49.8519 24.5303
2313 1 3.9565 48.2693 26.1129
2314 1 5.5391 49.8519 27.6955
2315 1 3.9565 48.2693 29.2781
2316 1 5.5391 49.8519 30.8607
2317 1 3.9565 48.2693 32.4433
2318 1 5.5391 49.8519 34.0259
2319 1 3.9565 48.2693 35.6085
2320 1 5.5391 49.8519 37.1911
2321 1 3.9565 48.2693 38.7737
2322 1 5.5391 49.8519 40.3563
2323 1 3.9565 48.2693 41.9389
2324 1 5.5391 49.8519 43.5215
2325 1 3.9565 48.2693 45.1041
2326 1 5.5391 49.8519 46.6867
2327 1 3.9565 48.2693 48.2693
2328 1 5.5391 49.8519 49.8519
2329 1 7.1217 0.7913 0.7913
2330 1 8.7043 2.3739 2.3739
2331 1 7.1217 0.7913 3.9565
2332 1 8.7043 2.3739 5.5391
2333 1 7.1217 0.7913 7.1217
2334 1 8.7043 2.3739 8.7043
2335 1 7.1217 0.7913 10.2869
2336 1 8.7043 2.3739 11.8695
2337 1 7.1217 0.7913 13.4521
2338 1 8.7043 2.3739 15.0347
2339 1 7.1217 0.7913 16.6173
2340 1 8.7043 2.3739 18.1999
2341 1 7.1217 0.7913 19.7825
2342 1 8.7043 2.3739 21.3651
2343 1 7.1217 0.7913 22.9477
2344 1 8.7043 2.3739 24.5303
2345 1 7.1217 0.7913 26.1129
2346 1 8.7043 2.3739 27.6955
2347 1 7.1217 0.7913 29.2781
2348 1 8.7043 2.3739 30.8607
2349 1 7.1217 0.7913 32.4433
2350 1 8.7043 2.3739 34.0259
2351 1 7.1217 0.7913 35.6085
2352 1 8.7043 2.3739 37.1911
2353 1 7.1217 0.7913 38.7737
2354 1 8.7043 2.3739 40.3563
2355 1 7.1217 0.7913 41.9389
2356 1 8.7043 2.3739 43.5215
2357 1 7.1217 0.7913 45.1041
2358 1 8.7043 2.3739 46.6867
2359 1 7.1217 0.7913 48.2693
2360 1 8.7043 2.3739 49.8519
2361 1 7.1217 3.9565 0.7913
2362 1 8.7043 5.5391 2.3739
2363 1 7.1217 3.9565 3.9565
2364 1 8.7043 5.5391 5.5391
2365 1 7.1217 3.9565 7.1217
2366 1 8.7043 5.5391 8.7043
2367 1 7.1217 3.9565 10.2869
2368 1 8.7043 5.5391 11.8695
2369 1 7.1217 3.9565 13.4521
2370 1 8.7043 5.5391 15.0347
2371 1 7.1217 3.9565 16.6173
2372 1 8.7043 5.5391 18.1999
2373 1 7.1217 3.9565 19.7825
2374 1 8.7043 5.5391 21.3651
2375 1 7.1217 3.9565 22.9477
2376 1 8.7043 5.5391 24.5303
2377 1 7.1217 3.9565 26.1129
2378 1 8.7043 5.5391 27.6955
2379 1 7.1217 3.9565 29.2781
2380 1 8.7043 5.5391 30.8607
2381 1 7.1217 3.9565 32.4433
2382 1 8.7043 5.5391 34.0259
2383 1 7.1217 3.9565 35.6085
2384 1 8.7043 5.5391 37.1911
2385 1 7.1217 3.9565 38.7737
2386 1 8.7043 5.5391 40.3563
2387 1 7.1217 3.9565 41.9389
2388 1 8.7043 5.5391 43.5215
2389 1 7.1217 3.9565 45.1041
2390 1 8.7043 5.5391 46.6867
2391 1 7.1217 3.9565 48.2693
2392 1 8.7043 5.5391 49.8519
2393 1 7.1217 7.1217 0.7913
2394 1 8.7043 8.7043 2.3739
2395 1 7.1217 7.1217 3.9565
2396 1 8.7043 8.7043 5.5391
2397 1 7.1217 7.1217 7.1217
2398 1 8.7043 8.7043 8.7043
2399 1 7.1217 7.1217 10.2869
2400 1 8.7043 8.7043 11.8695
2401 1 7.1217 7.1217 13.4521
2402 1 8.7043 8.7043 15.0347
2403 1 7.1217 7.1217 16.6173
2404 1 8.7043 8.7043 18.1999
2405 1 7.1217 7.1217 19.7825
2406 1 8.7043 8.7043 21.3651
2407 1 7.1217 7.1217 22.9477
2408 1 8.7043 8.7043 24.5303
2409 1 7.1217 7.1217 26.1129
2410 1 8.7043 8.7043 27.6955
2411 1 7.1217 7.1217 29.2781
2412 1 8.7043 8.7043 30.8607
2413 1 7.1217 7.1217 32.4433
2414 1 8.7043 8.7043 34.0259
2415 1 7.1217 7.1217 35.6085
2416 1 8.7043 8.7043 37.1911
2417 1 7.1217 7.1217 38.7737
2418 1 8.7043 8.7043 40.3563
2419 1 7.1217 7.1217 41.9389
2420 1 8.7043 8.7043 43.5215
2421 1 7.1217 7.1217 45.1041
2422 1 8.7043 8.7043 46.6867
2423 1 7.1217 7.1217 48.2693
2424 1 8.7043 8.7043 49.8519
2425 1 7.1217 10.2869 0.7913
2426 1 8.7043 11.8695 2.3739
2427 1 7.1217 10.2869 3.9565
2428 1 8.7043 11.8695 5.5391
2429 1 7.1217 10.2869 7.1217
2430 1 8.7043 11.8695 8.7043
2431 1 7.1217 10.2869 10.2869
2432 1 8.7043 11.8695 11.8695
2433 1 7.1217 10.2869 13.4521
2434 1 8.7043 11.8695 15.0347
2435 1 7.1217 10.2869 16.6173
2436 1 8.7043 11.8695 18.1999
2437 1 7.1217 10.2869 19.7825
2438 1 8.7043 11.8695 21.3651
2439 1 7.1217 10.2869 22.9477
2440 1 8.7043 11.8695 24.5303
2441 1 7.1217 10.2869 26.1129
2442 1 8.7043 11.8695 27.6955
2443 1 7.1217 10.2869 29.2781
2444 1 8.7043 11.8695 30.8607
2445 1 7.1217 10.2869 32.4433
2446 1 8.7043 11.8695 34.0259
2447 1 7.1217 10.2869 35.6085
2448 1 8.7043 11.8695 37.1911
2449 1 7.1217 10.2869 38.7737
2450 1 8.7043 11.8695 40.3563
2451 1 7.1217 10.2869 41.9389
2452 1 8.7043 11.8695 43.5215
2453 1 7.1217 10.2869 45.1041
2454 1 8.7043 11.8695 46.6867
2455 1 7.1217 10.2869 48.2693
2456 1 8.7043 11.8695 49.8519
2457 1 7.1217 13.4521 0.7913
2458 1 8.7043 15.0347 2.3739
2459 1 7.1217 13.4521 3.9565
2460 1 8.7043 15.0347 5.5391
2461 1 7.1217 13.4521 7.1217
2462 1 8.7043 15.0347 8.7043
2463 1 7.1217 13.4521 10.2869
2464 1 8.7043 15.0347 11.8695
2465 1 7.1217 13.4521 13.4521
2466 1 8.7043 15.0347 15.0347
2467 1 7.1217 13.4521 16.6173
2468 1 8.7043 15.0347 18.1999
2469 1 7.1217 13.4521 19.7825
2470 1 8.7043 15.0347 21.3651
2471 1 7.1217 13.4521 22.9477
2472 1 8.7043 15.0347 24.5303
2473 1 7.1217 13.4521 26.1129
2474 1 8.7043 15.0347 27.6955
2475 1 7.1217 13.4521 29.2781
2476 1 8.7043 15.0347 30.8607
2477 1 7.1217 13.4521 32.4433
2478 1 8.7043 15.0347 34.0259
2479 1 7.1217 13.4521 35.6085
2480 1 8.7043 15.0347 37.1911
2481 1 7.1217 13.4521 38.7737
2482 1 8.7043 15.0347 40.3563
2483 1 7.1217 13.4521 41.9389
2484 1 8.7043 15.0347 43.5215
2485 1 7.1217 13.4521 45.1041
2486 1 8.7043 15.0347 46.6867
2487 1 7.1217 13.4521 48.2693
2488 1 8.7043 15.0347 49.8519
2489 1 7.1217 16.6173 0.7913
2490 1 8.7043 18.1999 2.3739
2491 1 7.1217 16.6173 3.9565
2492 1 8.7043 18.1999 5.5391
2493 1 7.1217 16.6173 7.1217
2494 1 8.7043 18.1999 8.7043
2495 1 7.1217 16.6173 10.2869
2496 1 8.7043 18.1999 11.8695
2497 1 7.1217 16.6173 13.4521
2498 1 8.7043 18.1999 15.0347
2499 1 7.1217 16.6173 16.6173
2500 1 8.7043 18.1999 18.1999
2501 1 7.1217 16.6173 19.7825
2502 1 8.7043 18.1999 21.3651
2503 1 7.1217 16.6173 22.9477
2504 1 8.7043 18.1999 24.5303
2505 1 7.1217 16.6173 26.1129
2506 1 8.7043 18.1999 27.6955
2507 1 7.1217 16.6173 29.2781
2508 1 8.7043 18.1999 30.8607
2509 1 7.1217 16.6173 32.4433
2510 1 8.7043 18.1999 34.0259
2511 1 7.1217 16.6173 35.6085
2512 1 8.7043 18.1999 37.1911
2513 1 7.1217 16.6173 38.7737
2514 1 8.7043 18.1999 40.3563
2515 1 7.1217 16.6173 41.9389
2516 1 8.7043 18.1999 43.5215
2517 1 7.1217 16.6173 45.1041
2518 1 8.7043 18.1999 46.6867
2519 1 7.1217 16.6173 48.2693
2520 1 8.7043 18.1999 49.8519
2521 1 7.1217 19.7825 0.7913
2522 1 8.7043 21.3651 2.3739
2523 1 7.1217 19.7825 3.9565
2524 1 8.7043 21.3651 5.5391
2525 1 7.1217 19.7825 7.1217
2526 1 8.7043 21.3651 8.7043
2527 1 7.1217 19.7825 10.2869
2528 1 8.7043 21.3651 11.8695
2529 1 7.1217 19.7825 13.4521
2530 1 8.7043 21.3651 15.0347
2531 1 7.1217 19.7825 16.6173
2532 1 8.7043 21.3651 18.1999
2533 1 7.1217 19.7825 19.7825
2534 1 8.7043 21.3651 21.3651
2535 1 7.1217 19.7825 22.9477
2536 1 8.7043 21.3651 24.5303
2537 1 7.1217 19.7825 26.1129
2538 1 8.7043 21.3651 27.6955
2539 1 7.1217 19.7825 29.2781
2540 1 8.7043 21.3651 30.8607
2541 1 7.1217 19.7825 32.4433
2542 1 8.7043 21.3651 34.0259
2543 1 7.1217 19.7825 35.6085
2544 1 8.7043 21.3651 37.1911
2545 1 7.1217 19.7825 38.7737
2546 1 8.7043 21.3651 40.3563
2547 1 7.1217 19.7825 41.9389
2548 1 8.7043 21.3651 43.5215
2549 1 7.1217 19.7825 45.1041
2550 1 8.7043 21.3651 46.6867
2551 1 7.1217 19.7825 48.2693
2552 1 8.7043 21.3651 49.8519
2553 1 7.1217 22.9477 0.7913
2554 1 8.7043 24.5303 2.3739
2555 1 7.1217 22.9477 3.9565
2556 1 8.7043 24.5303 5.5391
2557 1 7.1217 22.9477 7.1217
2558 1 8.7043 24.5303 8.7043
2559 1 7.1217 22.9477 10.2869
2560 1 8.7043 24.5303 11.8695
2561 1 7.1217 22.9477 13.4521
2562 1 8.7043 24.5303 15.0347
2563 1 7.1217 22.9477 16.6173
2564 1 8.7043 24.5303 18.1999
2565 1 7.1217 22.9477 19.7825
2566 1 8.7043 24.5303 21.3651
2567 1 7.1217 22.9477 22.9477
2568 1 8.7043 24.5303 24.5303
2569 1 7.1217 22.9477 26.1129
2570 1 8.7043 24.5303 27.6955
2571 1 7.1217 22.9477 29.2781
2572 1 8.7043 24.5303 30.8607
2573 1 7.1217 22.9477 32.4433
2574 1 8.7043 24.5303 34.0259
2575 1 7.1217 22.9477 35.6085
2576 1 8.7043 24.5303 37.1911
2577 1 7.1217 22.9477 38.7737
2578 1 8.7043 24.5303 40.3563
2579 1 7.1217 22.9477 41.9389
2580 1 8.7043 24.5303 43.5215
2581 1 7.1217 22.9477 45.1041
2582 1 8.7043 24.5303 46.6867
2583 1 7.1217 22.9477 48.2693
2584 1 8.7043 24.5303 49.8519
2585 1 7.1217 26.1129 0.7913
2586 1 8.7043 27.6955 2.3739
2587 1 7.1217 26.1129 3.9565
2588 1 8.7043 27.6955 5.5391
2589 1 7.1217 26.1129 7.1217
2590 1 8.7043 27.6955 8.7043
2591 1 7.1217 26.1129 10.2869
2592 1 8.7043 27.6955 11.8695
2593 1 7.1217 26.1129 13.4521
2594 1 8.7043 27.6955 15.0347
2595 1 7.1217 26.1129 16.6173
2596 1 8.7043 27.6955 18.1999
2597 1 7.1217 26.1129 19.7825
2598 1 8.7043 27.6955 21.3651
2599 1 7.1217 26.1129 22.9477
2600 1 8.7043 27.6955 24.5303
2601 1 7.1217 26.1129 26.1129
2602 1 8.7043 27.6955 27.6955
2603 1 7.1217 26.1129 29.2781
2604 1 8.7043 27.6955 30.8607
2605 1 7.1217 26.1129 32.4433
2606 1 8.7043 27.6955 34.0259
2607 1 7.1217 26.1129 35.6085
2608 1 8.7043 27.6955 37.1911
2609 1 7.1217 26.1129 38.7737
2610 1 8.7043 27.6955 40.3563
2611 1 7.1217 26.1129 41.9389
2612 1 8.7043 27.6955 43.5215
2613 1 7.1217 26.1129 45.1041
2614 1 8.7043 27.6955 46.6867
2615 1 7.1217 26.1129 48.2693
2616 1 8.7043 27.6955 49.8519
2617 1 7.1217 29.2781 0.7913
2618 1 8.7043 30.8607 2.3739
2619 1 7.1217 29.2781 3.9565
2620 1 8.7043 30.8607 5.5391
2621 1 7.1217 29.2781 7.1217
2622 1 8.7043 30.8607 8.7043
2623 1 7.1217 29.2781 10.2869
2624 1 8.7043 30.8607 11.8695
2625 1 7.1217 29.2781 13.4521
2626 1 8.7043 30.8607 15.0347
2627 1 7.1217 29.2781 16.6173
2628 1 8.7043 30.8607 18.1999
2629 1 7.1217 29.2781 19.7825
2630 1 8.7043 30.8607 21.3651
2631 1 7.1217 29.2781 22.9477
2632 1 8.7043 30.8607 24.5303
2633 1 7.1217 29.2781 26.1129
2634 1 8.7043 30.8607 27.6955
2635 1 7.1217 29.2781 29.2781
2636 1 8.7043 30.8607 30.8607
2637 1 7.1217 29.2781 32.4433
2638 1 8.7043 30.8607 34.0259
2639 1 7.1217 29.2781 35.6085
2640 1 8.7043 30.8607 37.1911
2641 1 7.1217 29.2781 38.7737
2642 1 8.7043 30.8607 40.3563
2643 1 7.1217 29.2781 41.9389
2644 1 8.7043 30.8607 43.5215
2645 1 7.1217 29.2781 45.1041
2646 1 8.7043 30.8607 46.6867
2647 1 7.1217 29.2781 48.2693
2648 1 8.7043 30.8607 49.8519
2649 1 7.1217 32.4433 0.7913
2650 1 8.7043 34.0259 2.3739
2651 1 7.1217 32.4433 3.9565
2652 1 8.7043 34.0259 5.5391
2653 1 7.1217 32.4433 7.1217
2654 1 8.7043 34.0259 8.7043
2655 1 7.1217 32.4433 10.2869
2656 1 8.7043 34.0259 11.8695
2657 1 7.1217 32.4433 13.4521
2658 1 8.7043 34.0259 15.0347
2659 1 7.1217 32.4433 16.6173
2660 1 8.7043 34.0259 18.1999
2661 1 7.1217 32.4433 19.7825
2662 1 8.7043 34.0259 21.3651
2663 1 7.1217 32.4433 22.9477
2664 1 8.7043 34.0259 24.5303
2665 1 7.1217 32.4433 26.1129
2666 1 8.7043 34.0259 27.6955
2667 1 7.1217 32.4433 29.2781
2668 1 8.7043 34.0259 30.8607
2669 1 7.1217 32.4433 32.4433
2670 1 8.7043 34.0259 34.0259
2671 1 7.1217 32.4433 35.6085
2672 1 8.7043 34.0259 37.1911
2673 1 7.1217 32.4433 38.7737
2674 1 8.7043 34.0259 40.3563
2675 1 7.1217 32.4433 41.9389
2676 1 8.7043 34.0259 43.5215
2677 1 7.1217 32.4433 45.1041
2678 1 8.7043 34.0259 46.6867
2679 1 7.1217 32.4433 48.2693
2680 1 8.7043 34.0259 49.8519
2681 1 7.1217 35.6085 0.7913
2682 1 8.7043 37.1911 2.3739
2683 1 7.1217 35.6085 3.9565
2684 1 8.7043 37.1911 5.5391
2685 1 7.1217 35.6085 7.1217
2686 1 8.7043 37.1911 8.7043
2687 1 7.1217 35.6085 10.2869
2688 1 8.7043 37.1911 11.8695
2689 1 7.1217 35.6085 13.4521
2690 1 8.7043 37.1911 15.0347
2691 1 7.1217 35.6085 16.6173
2692 1 8.7043 37.1911 18.1999
2693 1 7.1217 35.6085 19.7825
2694 1 8.7043 37.1911 21.3651
2695 1 7.1217 35.6085 22.9477
2696 1 8.7043 37.1911 24.5303
2697 1 7.1217 35.6085 26.1129
2698 1 8.7043 37.1911 27.6955
2699 1 7.1217 35.6085 29.2781
2700 1 8.7043 37.1911 30.8607
2701 1 7.1217 35.6085 32.4433
2702 1 8.7043 37.1911 34.0259
2703 1 7.1217 35.6085 35.6085
2704 1 8.7043 37.1911 37.1911
2705 1 7.1217 35.6085 38.7737
2706 1 8.7043 37.1911 40.3563
2707 1 7.1217 35.6085 41.9389
2708 1 8.7043 37.1911 43.5215
2709 1 7.1217 35.6085 45.1041
2710 1 8.7043 37.1911 46.6867
2711 1 7.1217 35.6085 48.2693
2712 1 8.7043 37.1911 49.8519
2713 1 7.1217 38.7737 0.7913
2714 1 8.7043 40.3563 2.3739
2715 1 7.1217 38.7737 3.9565
2716 1 8.7043 40.3563 5.5391
2717 1 7.1217 38.7737 7.1217
2718 1 8.7043 40.3563 8.7043
2719 1 7.1217 38.7737 10.2869
2720 1 8.7043 40.3563 11.8695
2721 1 7.1217 38.7737 13.4521
2722 1 8.7043 40.3563 15.0347
2723 1 7.1217 38.7737 16.6173
2724 1 8.7043 40.3563 18.1999
2725 1 7.1217 38.7737 19.7825
2726 1 8.7043 40.3563 21.3651
2727 1 7.1217 38.7737 22.9477
2728 1 8.7043 40.3563 24.5303
2729 1 7.1217 38.7737 26.1129
2730 1 8.7043 40.3563 27.6955
2731 1 7.1217 38.7737 29.2781
2732 1 8.7043 40.3563 30.8607
2733 1 7.1217 38.7737 32.4433
2734 1 8.7043 40.3563 34.0259
2735 1 7.1217 38.7737 35.6085
2736 1 8.7043 40.3563 37.1911
2737 1 7.1217 38.7737 38.7737
2738 1 8.7043 40.3563 40.3563
2739 1 7.1217 38.7737 41.9389
2740 1 8.7043 40.3563 43.5215
2741 1 7.1217 38.7737 45.1041
2742 1 8.7043 40.3563 46.6867
2743 1 7.1217 38.7737 48.2693
2744 1 8.7043 40.3563 49.8519
2745 1 7.1217 41.9389 0.7913
2746 1 8.7043 43.5215 2.3739
2747 1 7.1217 41.9389 3.9565
2748 1 8.7043 43.5215 5.5391
2749 1 7.1217 41.9389 7.1217
2750 1 8.7043 43.5215 8.7043
2751 1 7.1217 41.9389 10.2869
2752 1 8.7043 43.5215 11.8695
2753 1 7.1217 41.9389 13.4521
2754 1 8.7043 43.5215 15.0347
2755 1 7.1217 41.9389 16.6173
2756 1 8.7043 43.5215 18.1999
2757 1 7.1217 41.9389 19.7825
2758 1 8.7043 43.5215 21.3651
2759 1 7.1217 41.9389 22.9477
2760 1 8.7043 43.5215 24.5303
2761 1 7.1217 41.9389 26.1129
2762 1 8.7043 43.5215 27.6955
2763 1 7.1217 41.9389 29.2781
2764 1 8.7043 43.5215 30.8607
2765 1 7.1217 41.9389 32.4433
2766 1 8.7043 43.5215 34.0259
2767 1 7.1217 41.9389 35.6085
2768 1 8.7043 43.5215 37.1911
2769 1 7.1217 41.9389 38.7737
2770 1 8.7043 43.5215 40.3563
2771 1 7.1217 41.9389 41.9389
2772 1 8.7043 43.5215 43.5215
2773 1 7.1217 41.9389 45.1041
2774 1 8.7043 43.5215 46.6867
2775 1 7.1217 41.9389 48.2693
2776 1 8.7043 43.5215 49.8519
2777 1 7.1217 45.1041 0.7913
2778 1 8.7043 46.6867 2.3739
2779 1 7.1217 45.1041 3.9565
2780 1 8.7043 46.6867 5.5391
2781 1 7.1217 45.1041 7.1217
2782 1 8.7043 46.6867 8.7043
2783 1 7.1217 45.1041 10.2869
2784 1 8.7043 46.6867 11.8695
2785 1 7.1217 45.1041 13.4521
2786 1 8.7043 46.6867 15.0347
2787 1 7.1217 45.1041 16.6173
2788 1 8.7043 46.6867 18.1999
2789 1 7.1217 45.1041 19.7825
2790 1 8.7043 46.6867 21.3651
2791 1 7.1217 45.1041 22.9477
2792 1 8.7043 46.6867 24.5303
2793 1 7.1217 45.1041 26.1129
2794 1 8.7043 46.6867 27.6955
2795 1 7.1217 45.1041 29.2781
2796 1 8.7043 46.6867 30.8607
2797 1 7.1217 45.1041 32.4433
2798 1 8.7043 46.6867 34.0259
2799 1 7.1217 45.1041 35.6085
2800 1 8.7043 46.6867 37.1911
2801 1 7.1217 45.1041 38.7737
2802 1 8.7043 46.6867 40.3563
2803 1 7.1217 45.1041 41.9389
2804 1 8.7043 46.6867 43.5215
2805 1 7.1217 45.1041 45.1041
2806 1 8.7043 46.6867 46.6867
2807 1 7.1217 45.1041 48.2693
2808 1 8.7043 46.6867 49.8519
2809 1 7.1217 48.2693 0.7913
2810 1 8.7043 49.8519 2.3739
2811 1 7.1217 48.2693 3.9565
2812 1 8.7043 49.8519 5.5391
2813 1 7.1217 48.2693 7.1217
2814 1 8.7043 49.8519 8.7043
2815 1 7.1217 48.2693 10.2869
2816 1 8.7043 49.8519 11.8695
2817 1 7.1217 48.2693 13.4521
2818 1 8.7043 49.8519 15.0347
2819 1 7.1217 48.2693 16.6173
2820 1 8.7043 49.8519 18.1999
2821 1 7.1217 48.2693 19.7825
2822 1 8.7043 49.8519 21.3651
2823 1 7.1217 48.2693 22.9477
2824 1 8.7043 49.8519 24.5303
2825 1 7.1217 48.2693 26.1129
2826 1 8.7043 49.8519 27.6955
2827 1 7.1217 48.2693 29.2781
2828 1 8.7043 49.8519 30.8607
2829 1 7.1217 48.2693 32.4433
2830 1 8.7043 49.8519 34.0259
2831 1 7.1217 48.2693 35.6085
2832 1 8.7043 49.8519 37.1911
2833 1 7.1217 48.2693 38.7737
2834 1 8.7043 49.8519 40.3563
2835 1 7.1217 48.2693 41.9389
2836 1 8.7043 49.8519 43.5215
2837 1 7.1217 48.2693 45.1041
2838 1 8.7043 49.8519 46.6867
2839 1 7.1217 48.2693 48.2693
2840 1 8.7043 49.8519 49.8519
2841 1 38.7737 0.7913 0.7913
2842 1 40.3563 2.3739 2.3739
2843 1 38.7737 0.7913 3.9565
2844 1 40.3563 2.3739 5.5391
2845 1 38.7737 0.7913 7.1217
2846 1 40.3563 2.3739 8.7043
2847 1 38.7737 0.7913 10.2869
2848 1 40.3563 2.3739 11.8695
2849 1 38.7737 0.7913 13.4521
2850 1 40.3563 2.3739 15.0347
2851 1 38.7737 0.7913 16.6173
2852 1 40.3563 2.3739 18.1999
2853 1 38.7737 0.7913 19.7825
2854 1 40.3563 2.3739 21.3651
2855 1 38.7737 0.7913 22.9477
2856 1 40.3563 2.3739 24.5303
2857 1 38.7737 0.7913 26.1129
2858 1 40.3563 2.3739 27.6955
2859 1 38.7737 0.7913 29.2781
2860 1 40.3563 2.3739 30.8607
2861 1 38.7737 0.7913 32.4433
2862 1 40.3563 2.3739 34.0259
2863 1 38.7737 0.7913 35.6085
2864 1 40.3563 2.3739 37.1911
2865 1 38.7737 0.7913 38.7737
2866 1 40.3563 2.3739 40.3563
2867 1 38.7737 0.7913 41.9389
2868 1 40.3563 2.3739 43.5215
2869 1 38.7737 0.7913 45.1041
2870 1 40.3563 2.3739 46.6867
2871 1 38.7737 0.7913 48.2693
2872 1 40.3563 2.3739 49.8519
2873 1 38.7737 3.9565 0.7913
2874 1 40.3563 5.5391 2.3739
2875 1 38.7737 3.9565 3.9565
2876 1 40.3563 5.5391 5.5391
2877 1 38.7737 3.9565 7.1217
2878 1 40.3563 5.5391 8.7043
2879 1 38.7737 3.9565 10.2869
2880 1 40.3563 5.5391 11.8695
2881 1 38.7737 3.9565 13.4521
2882 1 40.3563 5.5391 15.0347
2883 1 38.7737 3.9565 16.6173
2884 1 40.3563 5.5391 18.1999
2885 1 38.7737 3.9565 19.7825
2886 1 40.3563 5.5391 21.3651
2887 1 38.7737 3.9565 22.9477
2888 1 40.3563 5.5391 24.5303
2889 1 38.7737 3.9565 26.1129
2890 1 40.3563 5.5391 27.6955
2891 1 38.7737 3.9565 29.2781
2892 1 40.3563 5.5391 30.8607
2893 1 38.7737 3.9565 32.4433
2894 1 40.3563 5.5391 34.0259
2895 1 38.7737 3.9565 35.6085
2896 1 40.3563 5.5391 37.1911
2897 1 38.7737 3.9565 38.7737
2898 1 40.3563 5.5391 40.3563
2899 1 38.7737 3.9565 41.9389
2900 1 40.3563 5.5391 43.5215
2901 1 38.7737 3.9565 45.1041
2902 1 40.3563 5.5391 46.6867
2903 1 38.7737 3.9565 48.2693
2904 1 40.3563 5.5391 49.8519
2905 1 38.7737 7.1217 0.7913
2906 1 40.3563 8.7043 2.3739
2907 1 38.7737 7.1217 3.9565
2908 1 40.3563 8.7043 5.5391
2909 1 38.7737 7.1217 7.1217
2910 1 40.3563 8.7043 8.7043
2911 1 38.7737 7.1217 10.2869
2912 1 40.3563 8.7043 11.8695
2913 1 38.7737 7.1217 13.4521
2914 1 40.3563 8.7043 15.0347
2915 1 38.7737 7.1217 16.6173
2916 1 40.3563 8.7043 18.1999
2917 1 38.7737 7.1217 19.7825
2918 1 40.3563 8.7043 21.3651
2919 1 38.7737 7.1217 22.9477
2920 1 40.3563 8.7043 24.5303
2921 1 38.7737 7.1217 26.1129
2922 1 40.3563 8.7043 27.6955
2923 1 38.7737 7.1217 29.2781
2924 1 40.3563 8.7043 30.8607
2925 1 38.7737 7.1217 32.4433
2926 1 40.3563 8.7043 34.0259
2927 1 38.7737 7.1217 35.6085
2928 1 40.3563 8.7043 37.1911
2929 1 38.7737 7.1217 38.7737
2930 1 40.3563 8.7043 40.3563
2931 1 38.7737 7.1217 41.9389
2932 1 40.3563 8.7043 43.5215
2933 1 38.7737 7.1217 45.1041
2934 1 40.3563 8.7043 46.6867
2935 1 38.7737 7.1217 48.2693
2936 1 40.3563 8.7043 49.8519
2937 1 38.7737 10.2869 0.7913
2938 1 40.3563 11.8695 2.3739
2939 1 38.7737 10.2869 3.9565
2940 1 40.3563 11.8695 5.5391
2941 1 38.7737 10.2869 7.1217
2942 1 40.3563 11.8695 8.7043
2943 1 38.7737 10.2869 10.2869
2944 1 40.3563 11.8695 11.8695
2945 1 38.7737 10.2869 13.4521
2946 1 40.3563 11.8695 15.0347
2947 1 38.7737 10.2869 16.6173
2948 1 40.3563 11.8695 18.1999
2949 1 38.7737 10.2869 19.7825
2950 1 40.3563 11.8695 21.3651
2951 1 38.7737 10.2869 22.9477
2952 1 40.3563 11.8695 24.5303
2953 1 38.7737 10.2869 26.1129
2954 1 40.3563 11.8695 27.6955
2955 1 38.7737 10.2869 29.2781
2956 1 40.3563 11.8695 30.8607
2957 1 38.7737 10.2869 32.4433
2958 1 40.3563 11.8695 34.0259
2959 1 38.7737 10.2869 35.6085
2960 1 40.3563 11.8695 37.1911
2961 1 38.7737 10.2869 38.7737
2962 1 40.3563 11.8695 40.3563
2963 1 38.7737 10.2869 41.9389
2964 1 40.3563 11.8695 43.5215
2965 1 38.7737 10.2869 45.1041
2966 1 40.3563 11.8695 46.6867
2967 1 38.7737 10.2869 48.2693
2968 1 40.3563 11.8695 49.8519
2969 1 38.7737 13.4521 0.7913
2970 1 40.3563 15.0347 2.3739
2971 1 38.7737 13.4521 3.9565
2972 1 40.3563 15.0347 5.5391
2973 1 38.7737 13.4521 7.1217
2974 1 40.3563 15.0347 8.7043
2975 1 38.7737 13.4521 10.2869
2976 1 40.3563 15.0347 11.8695
2977 1 38.7737 13.4521 13.4521
2978 1 40.3563 15.0347 15.0347
2979 1 38.7737 13.4521 16.6173
2980 1 40.3563 15.0347 18.1999
2981 1 38.7737 13.4521 19.7825
2982 1 40.3563 15.0347 21.3651
2983 1 38.7737 13.4521 22.9477
2984 1 40.3563 15.0347 24.5303
2985 1 38.7737 13.4521 26.1129
2986 1 40.3563 15.0347 27.6955
2987 1 38.7737 13.4521 29.2781
2988 1 40.3563 15.0347 30.8607
2989 1 38.7737 13.4521 32.4433
2990 1 40.3563 15.0347 34.0259
2991 1 38.7737 13.4521 35.6085
2992 1 40.3563 15.0347 37.1911
2993 1 38.7737 13.4521 38.7737
2994 1 40.3563 15.0347 40.3563
2995 1 38.7737 13.4521 41.9389
2996 1 40.3563 15.0347 43.5215
2997 1 38.7737 13.4521 45.1041
2998 1 40.3563 15.0347 46.6867
2999 1 38.7737 13.4521 48.2693
3000 1 40.3563 15.0347 49.8519
3001 1 38.7737 16.6173 0.7913
3002 1 40.3563 18.1999 2.3739
3003 1 38.7737 16.6173 3.9565
3004 1 40.3563 18.1999 5.5391
3005 1 38.7737 16.6173 7.1217
3006 1 40.3563 18.1999 8.7043
3007 1 38.7737 16.6173 10.2869
3008 1 40.3563 18.1999 11.8695
3009 1 38.7737 16.6173 13.4521
3010 1 40.3563 18.1999 15.0347
3011 1 38.7737 16.6173 16.6173
3012 1 40.3563 18.1999 18.1999
3013 1 38.7737 16.6173 19.7825
3014 1 40.3563 18.1999 21.3651
3015 1 38.7737 16.6173 22.9477
3016 1 40.3563 18.1999 24.5303
3017 1 38.7737 16.6173 26.1129
3018 1 40.3563 18.1999 27.6955
3019 1 38.7737 16.6173 29.2781
3020 1 40.3563 18.1999 30.8607
3021 1 38.7737 16.6173 32.4433
3022 1 40.3563 18.1999 34.0259
3023 1 38.7737 16.6173 35.6085
3024 1 40.3563 18.1999 37.1911
3025 1 38.7737 16.6173 38.7737
3026 1 40.3563 18.1999 40.3563
3027 1 38.7737 16.6173 41.9389
3028 1 40.3563 18.1999 43.5215
3029 1 38.7737 16.6173 45.1041
3030 1 40.3563 18.1999 46.6867
3031 1 38.7737 16.6173 48.2693
3032 1 40.3563 18.1999 49.8519
3033 1 38.7737 19.7825 0.7913
3034 1 40.3563 21.3651 2.3739
3035 1 38.7737 19.7825 3.9565
3036 1 40.3563 21.3651 5.5391
3037 1 38.7737 19.7825 7.1217
3038 1 40.3563 21.3651 8.7043
3039 1 38.7737 19.7825 10.2869
3040 1 40.3563 21.3651 11.8695
3041 1 38.7737 19.7825 13.4521
3042 1 40.3563 21.3651 15.0347
3043 1 38.7737 19.7825 16.6173
3044 1 40.3563 21.3651 18.1999
3045 1 38.7737 19.7825 19.7825
3046 1 40.3563 21.3651 21.3651
3047 1 38.7737 19.7825 22.9477
3048 1 40.3563 21.3651 24.5303
3049 1 38.7737 19.7825 26.1129
3050 1 40.3563 21.3651 27.6955
3051 1 38.7737 19.7825 29.2781
3052 1 40.3563 21.3651 30.8607
3053 1 38.7737 19.7825 32.4433
3054 1 40.3563 21.3651 34.0259
3055 1 38.7737 19.7825 35.6085
3056 1 40.3563 21.3651 37.1911
3057 1 38.7737 19.7825 38.7737
3058 1 40.3563 21.3651 40.3563
3059 1 38.7737 19.7825 41.9389
3060 1 40.3563 21.3651 43.5215
3061 1 38.7737 19.7825 45.1041
3062 1 40.3563 21.3651 46.6867
3063 1 38.7737 19.7825 48.2693
3064 1 40.3563 21.3651 49.8519
3065 1 38.7737 22.9477 0.7913
3066 1 40.3563 24.5303 2.3739
3067 1 38.7737 22.9477 3.9565
3068 1 40.3563 24.5303 5.5391
3069 1 38.7737 22.9477 7.1217
3070 1 40.3563 24.5303 8.7043
3071 1 38.7737 22.9477 10.2869
3072 1 40.3563 24.5303 11.8695
3073 1 38.7737 22.9477 13.4521
3074 1 40.3563 24.5303 15.0347
3075 1 38.7737 22.9477 16.6173
3076 1 40.3563 24.5303 18.1999
3077 1 38.7737 22.9477 19.7825
3078 1 40.3563 24.5303 21.3651
3079 1 38.7737 22.9477 22.9477
3080 1 40.3563 24.5303 24.5303
3081 1 38.7737 22.9477 26.1129
3082 1 40.3563 24.5303 27.6955
3083 1 38.7737 22.9477 29.2781
3084 1 40.3563 24.5303 30.8607
3085 1 38.7737 22.9477 32.4433
3086 1 40.3563 24.5303 34.0259
3087 1 38.7737 22.9477 35.6085
3088 1 40.3563 24.5303 37.1911
3089 1 38.7737 22.9477 38.7737
3090 1 40.3563 24.5303 40.3563
3091 1 38.7737 22.9477 41.9389
3092 1 40.3563 24.5303 43.5215
3093 1 38.7737 22.9477 45.1041
3094 1 40.3563 24.5303 46.6867
3095 1 38.7737 22.9477 48.2693
3096 1 40.3563 24.5303 49.8519
3097 1 38.7737 26.1129 0.7913
3098 1 40.3563 27.6955 2.3739
3099 1 38.7737 26.1129 3.9565
3100 1 40.3563 27.6955 5.5391
3101 1 38.7737 26.1129 7.1217
3102 1 40.3563 27.6955 8.7043
3103 1 38.7737 26.1129 10.2869
3104 1 40.3563 27.6955 11.8695
3105 1 38.7737 26.1129 13.4521
3106 1 40.3563 27.6955 15.0347
3107 1 38.7737 26.1129 16.6173
3108 1 40.3563 27.6955 18.1999
3109 1 38.7737 26.1129 19.7825
3110 1 40.3563 27.6955 21.3651
3111 1 38.7737 26.1129 22.9477
3112 1 40.3563 27.6955 24.5303
3113 1 38.7737 26.1129 26.1129
3114 1 40.3563 27.6955 27.6955
3115 1 38.7737 26.1129 29.2781
3116 1 40.3563 27.6955 30.8607
3117 1 38.7737 26.1129 32.4433
3118 1 40.3563 27.6955 34.0259
3119 1 38.7737 26.1129 35.6085
3120 1 40.3563 27.6955 37.1911
3121 1 38.7737 26.1129 38.7737
3122 1 40.3563 27.6955 40.3563
3123 1 38.7737 26.1129 41.9389
3124 1 40.3563 27.6955 43.5215
3125 1 38.7737 26.1129 45.1041
3126 1 40.3563 27.6955 46.6867
3127 1 38.7737 26.1129 48.2693
3128 1 40.3563 27.6955 49.8519
3129 1 38.7737 29.2781 0.7913
3130 1 40.3563 30.8607 2.3739
3131 1 38.7737 29.2781 3.9565
3132 1 40.3563 30.8607 5.5391
3133 1 38.7737 29.2781 7.1217
3134 1 40.3563 30.8607 8.7043
3135 1 38.7737 29.2781 10.2869
3136 1 40.3563 30.8607 11.8695
3137 1 38.7737 29.2781 13.4521
3138 1 40.3563 30.8607 15.0347
3139 1 38.7737 29.2781 16.6173
3140 1 40.3563 30.8607 18.1999
3141 1 38.7737 29.2781 19.7825
3142 1 40.3563 30.8607 21.3651
3143 1 38.7737 29.2781 22.9477
3144 1 40.3563 30.8607 24.5303
3145 1 38.7737 29.2781 26.1129
3146 1 40.3563 30.8607 27.6955
3147 1 38.7737 29.2781 29.2781
3148 1 40.3563 30.8607 30.8607
3149 1 38.7737 29.2781 32.4433
3150 1 40.3563 30.8607 34.0259
3151 1 38.7737 29.2781 35.6085
3152 1 40.3563 30.8607 37.1911
3153 1 38.7737 29.2781 38.7737
3154 1 40.3563 30.8607 40.3563
3155 1 38.7737 29.2781 41.9389
3156 1 40.3563 30.8607 43.5215
3157 1 38.7737 29.2781 45.1041
3158 1 40.3563 30.8607 46.6867
3159 1 38.7737 29.2781 48.2693
3160 1 40.3563 30.8607 49.8519
3161 1 38.7737 32.4433 0.7913
3162 1 40.3563 34.0259 2.3739
3163 1 38.7737 32.4433 3.9565
3164 1 40.3563 34.0259 5.5391
3165 1 38.7737 32.4433 7.1217
3166 1 40.3563 34.0259 8.7043
3167 1 38.7737 32.4433 10.2869
3168 1 40.3563 34.0259 11.8695
3169 1 38.7737 32.4433 13.4521
3170 1 40.3563 34.0259 15.0347
3171 1 38.7737 32.4433 16.6173
3172 1 40.3563 34.0259 18.1999
3173 1 38.7737 32.4433 19.7825
3174 1 40.3563 34.0259 21.3651
3175 1 38.7737 32.4433 22.9477
3176 1 40.3563 34.0259 24.5303
3177 1 38.7737 32.4433 26.1129
3178 1 40.3563 34.0259 27.6955
3179 1 38.7737 32.4433 29.2781
3180 1 40.3563 34.0259 30.8607
3181 1 38.7737 32.4433 32.4433
3182 1 40.3563 34.0259 34.0259
3183 1 38.7737 32.4433 35.6085
3184 1 40.3563 34.0259 37.1911
3185 1 38.7737 32.4433 38.7737
3186 1 40.3563 34.0259 40.3563
3187 1 38.7737 32.4433 41.9389
3188 1 40.3563 34.0259 43.5215
3189 1 38.7737 32.4433 45.1041
3190 1 40.3563 34.0259 46.6867
3191 1 38.7737 32.4433 48.2693
3192 1 40.3563 34.0259 49.8519
3193 1 38.7737 35.6085 0.7913
3194 1 40.3563 37.1911 2.3739
3195 1 38.7737 35.6085 3.9565
3196 1 40.3563 37.1911 5.5391
3197 1 38.7737 35.6085 7.1217
3198 1 40.3563 37.1911 8.7043
3199 1 38.7737 35.6085 10.2869
3200 1 40.3563 37.1911 11.8695
3201 1 38.7737 35.6085 13.4521
3202 1 40.3563 37.1911 15.0347
3203 1 38.7737 35.6085 16.6173
3204 1 40.3563 37.1911 18.1999
3205 1 38.7737 35.6085 19.7825
3206 1 40.3563 37.1911 21.3651
3207 1 38.7737 35.6085 22.9477
3208 1 40.3563 37.1911 24.5303
3209 1 38.7737 35.6085 26.1129
3210 1 40.3563 37.1911 27.6955
3211 1 38.7737 35.6085 29.2781
3212 1 40.3563 37.1911 30.8607
3213 1 38.7737 35.6085 32.4433
3214 1 40.3563 37.1911 34.0259
3215 1 38.7737 35.6085 35.6085
3216 1 40.3563 37.1911 37.1911
3217 1 38.7737 35.6085 38.7737
3218 1 40.3563 37.1911 40.3563
3219 1 38.7737 35.6085 41.9389
3220 1 40.3563 37.1911 43.5215
3221 1 38.7737 35.6085 45.1041
3222 1 40.3563 37.1911 46.6867
3223 1 38.7737 35.6085 48.2693
3224 1 40.3563 37.1911 49.8519
3225 1 38.7737 38.7737 0.7913
3226 1 40.3563 40.3563 2.3739
3227 1 38.7737 38.7737 3.9565
3228 1 40.3563 40.3563 5.5391
3229 1 38.7737 38.7737 7.1217
3230 1 40.3563 40.3563 8.7043
3231 1 38.7737 38.7737 10.2869
3232 1 40.3563 40.3563 11.8695
3233 1 38.7737 38.7737 13.4521
3234 1 40.3563 40.3563 15.0347
3235 1 38.7737 38.7737 16.6173
3236 1 40.3563 40.3563 18.1999
3237 1 38.7737 38.7737 19.7825
3238 1 40.3563 40.3563 21.3651
3239 1 38.7737 38.7737 22.9477
3240 1 40.3563 40.3563 24.5303
3241 1 38.7737 38.7737 26.1129
3242 1 40.3563 40.3563 27.6955
3243 1 38.7737 38.7737 29.2781
3244 1 40.3563 40.3563 30.8607
3245 1 38.7737 38.7737 32.4433
3246 1 40.3563 40.3563 34.0259
3247 1 38.7737 38.7737 35.6085
3248 1 40.3563 40.3563 37.1911
3249 1 38.7737 38.7737 38.7737
3250 1 40.3563 40.3563 40.3563
3251 1 38.7737 38.7737 41.9389
3252 1 40.3563 40.3563 43.5215
3253 1 38.7737 38.7737 45.1041
3254 1 40.3563 40.3563 46.6867
3255 1 38.7737 38.7737 48.2693
3256 1 40.3563 40.3563 49.8519
3257 1 38.7737 41.9389 0.7913
3258 1 40.3563 43.5215 2.3739
3259 1 38.7737 41.9389 3.9565
3260 1 40.3563 43.5215 5.5391
3261 1 38.7737 41.9389 7.1217
3262 1 40.3563 43.5215 8.7043
3263 1 38.7737 41.9389 10.2869
3264 1 40.3563 43.5215 11.8695
3265 1 38.7737 41.9389 13.4521
3266 1 40.3563 43.5215 15.0347
3267 1 38.7737 41.9389 16.6173
3268 1 40.3563 43.5215 18.1999
3269 1 38.7737 41.9389 19.7825
3270 1 40.3563 43.5215 21.3651
3271 1 38.7737 41.9389 22.9477
3272 1 40.3563 43.5215 24.5303
3273 1 38.7737 41.9389 26.1129
3274 1 40.3563 43.5215 27.6955
3275 1 38.7737 41.9389 29.2781
3276 1 40.3563 43.5215 30.8607
3277 1 38.7737 41.9389 32.4433
3278 1 40.3563 43.5215 34.0259
3279 1 38.7737 41.9389 35.6085
3280 1 40.3563 43.5215 37.1911
3281 1 38.7737 41.9389 38.7737
3282 1 40.3563 43.5215 40.3563
3283 1 38.7737 41.9389 41.9389
3284 1 40.3563 43.5215 43.5215
3285 1 38.7737 41.9389 45.1041
3286 1 40.3563 43.5215 46.6867
3287 1 38.7737 41.9389 48.2693
3288 1 40.3563 43.5215 49.8519
3289 1 38.7737 45.1041 0.7913
3290 1 40.3563 46.6867 2.3739
3291 1 38.7737 45.1041 3.9565
3292 1 40.3563 46.6867 5.5391
3293 1 38.7737 45.1041 7.1217
3294 1 40.3563 46.6867 8.7043
3295 1 38.7737 45.1041 10.2869
3296 1 40.3563 46.6867 11.8695
3297 1 38.7737 45.1041 13.4521
3298 1 40.3563 46.6867 15.0347
3299 1 38.7737 45.1041 16.6173
3300 1 40.3563 46.6867 18.1999
3301 1 38.7737 45.1041 19.7825
3302 1 40.3563 46.6867 21.3651
3303 1 38.7737 45.1041 22.9477
3304 1 40.3563 46.6867 24.5303
3305 1 38.7737 45.1041 26.1129
3306 1 40.3563 46.6867 27.6955
3307 1 38.7737 45.1041 29.2781
3308 1 40.3563 46.6867 30.8607
3309 1 38.7737 45.1041 32.4433
3310 1 40.3563 46.6867 34.0259
3311 1 38.7737 45.1041 35.6085
3312 1 40.3563 46.6867 37.1911
3313 1 38.7737 45.1041 38.7737
3314 1 40.3563 46.6867 40.3563
3315 1 38.7737 45.1041 41.9389
3316 1 40.3563 46.6867 43.5215
3317 1 38.7737 45.1041 45.1041
3318 1 40.3563 46.6867 46.6867
3319 1 38.7737 45.1041 48.2693
3320 1 40.3563 46.6867 49.8519
3321 1 38.7737 48.2693 0.7913
3322 1 40.3563 49.8519 2.3739
3323 1 38.7737 48.2693 3.9565
3324 1 40.3563 49.8519 5.5391
3325 1 38.7737 48.2693 7.1217
3326 1 40.3563 49.8519 8.7043
3327 1 38.7737 48.2693 10.2869
3328 1 40.3563 49.8519 11.8695
3329 1 38.7737 48.2693 13.4521
3330 1 40.3563 49.8519 15.0347
3331 1 38.7737 48.2693 16.6173
3332 1 40.3563 49.8519 18.1999
3333 1 38.7737 48.2693 19.7825
3334 1 40.3563 49.8519 21.3651
3335 1 38.7737 48.2693 22.9477
3336 1 40.3563 49.8519 24.5303
3337 1 38.7737 48.2693 26.1129
3338 1 40.3563 49.8519 27.6955
3339 1 38.7737 48.2693 29.2781
3340 1 40.3563 49.8519 30.8607
3341 1 38.7737 48.2693 32.4433
3342 1 40.3563 49.8519 34.0259
3343 1 38.7737 48.2693 35.6085
3344 1 40.3563 49.8519 37.1911
3345 1 38.7737 48.2693 38.7737
3346 1 40.3563 49.8519 40.3563
3347 1 38.7737 48.2693 41.9389
3348 1 40.3563 49.8519 43.5215
3349 1 38.7737 48.2693 45.1041
3350 1 40.3563 49.8519 46.6867
3351 1 38.7737 48.2693 48.2693
3352 1 40.3563 49.8519 49.8519
3353 1 41.9389 0.7913 0.7913
3354 1 43.5215 2.3739 2.3739
3355 1 41.9389 0.7913 3.9565
3356 1 43.5215 2.3739 5.5391
3357 1 41.9389 0.7913 7.1217
3358 1 43.5215 2.3739 8.7043
3359 1 41.9389 0.7913 10.2869
3360 1 43.5215 2.3739 11.8695
3361 1 41.9389 0.7913 13.4521
3362 1 43.5215 2.3739 15.0347
3363 1 41.9389 0.7913 16.6173
3364 1 43.5215 2.3739 18.1999
3365 1 41.9389 0.7913 19.7825
3366 1 43.5215 2.3739 21.3651
3367 1 41.9389 0.7913 22.9477
3368 1 43.5215 2.3739 24.5303
3369 1 41.9389 0.7913 26.1129
3370 1 43.5215 2.3739 27.6955
3371 1 41.9389 0.7913 29.2781
3372 1 43.5215 2.3739 30.8607
3373 1 41.9389 0.7913 32.4433
3374 1 43.5215 2.3739 34.0259
3375 1 41.9389 0.7913 35.6085
3376 1 43.5215 2.3739 37.1911
3377 1 41.9389 0.7913 38.7737
3378 1 43.5215 2.3739 40.3563
3379 1 41.9389 0.7913 41.9389
3380 1 43.5215 2.3739 43.5215
3381 1 41.9389 0.7913 45.1041
3382 1 43.5215 2.3739 46.6867
3383 1 41.9389 0.7913 48.2693
3384 1 43.5215 2.3739 49.8519
3385 1 41.9389 3.9565 0.7913
3386 1 43.5215 5.5391 2.3739
3387 1 41.9389 3.9565 3.9565
3388 1 43.5215 5.5391 5.5391
3389 1 41.9389 3.9565 7.1217
3390 1 43.5215 5.5391 8.7043
3391 1 41.9389 3.9565 10.2869
3392 1 43.5215 5.5391 11.8695
3393 1 41.9389 3.9565 13.4521
3394 1 43.5215 5.5391 15.0347
3395 1 41.9389 3.9565 16.6173
3396 1 43.5215 5.5391 18.1999
3397 1 41.9389 3.9565 19.7825
3398 1 43.5215 5.5391 21.3651
3399 1 41.9389 3.9565 22.9477
3400 1 43.5215 5.5391 24.5303
3401 1 41.9389 3.9565 26.1129
3402 1 43.5215 5.5391 27.6955
3403 1 41.9389 3.9565 29.2781
3404 1 43.5215 5.5391 30.8607
3405 1 41.9389 3.9565 32.4433
3406 1 43.5215 5.5391 34.0259
3407 1 41.9389 3.9565 35.6085
3408 1 43.5215 5.5391 37.1911
3409 1 41.9389 3.9565 38.7737
3410 1 43.5215 5.5391 40.3563
3411 1 41.9389 3.9565 41.9389
3412 1 43.5215 5.5391 43.5215
3413 1 41.9389 3.9565 45.1041
3414 1 43.5215 5.5391 46.6867
3415 1 41.9389 3.9565 48.2693
3416 1 43.5215 5.5391 49.8519
3417 1 41.9389 7.1217 0.7913
3418 1 43.5215 8.7043 2.3739
3419 1 41.9389 7.1217 3.9565
3420 1 43.5215 8.7043 5.5391
3421 1 41.9389 7.1217 7.1217
3422 1 43.5215 8.7043 8.7043
3423 1 41.9389 7.1217 10.2869
3424 1 43.5215 8.7043 11.8695
3425 1 41.9389 7.1217 13.4521
3426 1 43.5215 8.7043 15.0347
3427 1 41.9389 7.1217 16.6173
3428 1 43.5215 8.7043 18.1999
3429 1 41.9389 7.1217 19.7825
3430 1 43.5215 8.7043 21.3651
3431 1 41.9389 7.1217 22.9477
3432 1 43.5215 8.7043 24.5303
3433 1 41.9389 7.1217 26.1129
3434 1 43.5215 8.7043 27.6955
3435 1 41.9389 7.1217 29.2781
3436 1 43.5215 8.7043 30.8607
3437 1 41.9389 7.1217 32.4433
3438 1 43.5215 8.7043 34.0259
3439 1 41.9389 7.1217 35.6085
3440 1 43.5215 8.7043 37.1911
3441 1 41.9389 7.1217 38.7737
3442 1 43.5215 8.7043 40.3563
3443 1 41.9389 7.1217 41.9389
3444 1 43.5215 8.7043 43.5215
3445 1 41.9389 7.1217 45.1041
3446 1 43.5215 8.7043 46.6867
3447 1 41.9389 7.1217 48.2693
3448 1 43.5215 8.7043 49.8519
3449 1 41.9389 10.2869 0.7913
3450 1 43.5215 11.8695 2.3739
3451 1 41.9389 10.2869 3.9565
3452 1 43.5215 11.8695 5.5391
3453 1 41.9389 10.2869 7.1217
3454 1 43.5215 11.8695 8.7043
3455 1 41.9389 10.2869 10.2869
3456 1 43.5215 11.8695 11.8695
3457 1 41.9389 10.2869 13.4521
3458 1 43.5215 11.8695 15.0347
3459 1 41.9389 10.2869 16.6173
3460 1 43.5215 11.8695 18.1999
3461 1 41.9389 10.2869 19.7825
3462 1 43.5215 11.8695 21.3651
3463 1 41.9389 10.2869 22.9477
3464 1 43.5215 11.8695 24.5303
3465 1 41.9389 10.2869 26.1129
3466 1 43.5215 11.8695 27.6955
3467 1 41.9389 10.2869 29.2781
3468 1 43.5215 11.8695 30.8607
3469 1 41.9389 10.2869 32.4433
3470 1 43.5215 11.8695 34.0259
3471 1 41.9389 10.2869 35.6085
3472 1 43.5215 11.8695 37.1911
3473 1 41.9389 10.2869 38.7737
3474 1 43.5215 11.8695 40.3563
3475 1 41.9389 10.2869 41.9389
3476 1 43.5215 11.8695 43.5215
3477 1 41.9389 10.2869 45.1041
3478 1 43.5215 11.8695 46.6867
3479 1 41.9389 10.2869 48.2693
3480 1 43.5215 11.8695 49.8519
3481 1 41.9389 13.4521 0.7913
3482 1 43.5215 15.0347 2.3739
3483 1 41.9389 13.4521 3.9565
3484 1 43.5215 15.0347 5.5391
3485 1 41.9389 13.4521 7.1217
3486 1 43.5215 15.0347 8.7043
3487 1 41.9389 13.4521 10.2869
3488 1 43.5215 15.0347 11.8695
3489 1 41.9389 13.4521 13.4521
3490 1 43.5215 15.0347 15.0347
3491 1 41.9389 13.4521 16.6173
3492 1 43.5215 15.0347 18.1999
3493 1 41.9389 13.4521 19.7825
3494 1 43.5215 15.0347 21.3651
3495 1 41.9389 13.4521 22.9477
3496 1 43.5215 15.0347 24.5303
3497 1 41.9389 13.4521 26.1129
3498 1 43.5215 15.0347 27.6955
3499 1 41.9389 13.4521 29.2781
3500 1 43.5215 15.0347 30.8607
3501 1 41.9389 13.4521 32.4433
3502 1 43.5215 15.0347 34.0259
3503 1 41.9389 13.4521 35.6085
3504 1 43.5215 15.0347 37.1911
3505 1 41.9389 13.4521 38.7737
3506 1 43.5215 15.0347 40.3563
3507 1 41.9389 13.4521 41.9389
3508 1 43.5215 15.0347 43.5215
3509 1 41.9389 13.4521 45.1041
3510 1 43.5215 15.0347 46.6867
3511 1 41.9389 13.4521 48.2693
3512 1 43.5215 15.0347 49.8519
3513 1 41.9389 16.6173 0.7913
3514 1 43.5215 18.1999 2.3739
3515 1 41.9389 16.6173 3.9565
3516 1 43.5215 18.1999 5.5391
3517 1 41.9389 16.6173 7.1217
3518 1 43.5215 18.1999 8.7043
3519 1 41.9389 16.6173 10.2869
3520 1 43.5215 18.1999 11.8695
3521 1 41.9389 16.6173 13.4521
3522 1 43.5215 18.1999 15.0347
3523 1 41.9389 16.6173 16.6173
3524 1 43.5215 18.1999 18.1999
3525 1 41.9389 16.6173 19.7825
3526 1 43.5215 18.1999 21.3651
3527 1 41.9389 16.6173 22.9477
3528 1 43.5215 18.1999 24.5303
3529 1 41.9389 16.6173 26.1129
3530 1 43.5215 18.1999 27.6955
3531 1 41.9389 16.6173 29.2781
3532 1 43.5215 18.1999 30.8607
3533 1 41.9389 16.6173 32.4433
3534 1 43.5215 18.1999 34.0259
3535 1 41.9389 16.6173 35.6085
3536 1 43.5215 18.1999 37.1911
3537 1 41.9389 16.6173 38.7737
3538 1 43.5215 18.1999 40.3563
3539 1 41.9389 16.6173 41.9389
3540 1 43.5215 18.1999 43.5215
3541 1 41.9389 16.6173 45.1041
3542 1 43.5215 18.1999 46.6867
3543 1 41.9389 16.6173 48.2693
3544 1 43.5215 18.1999 49.8519
3545 1 41.9389 19.7825 0.7913
3546 1 43.5215 21.3651 2.3739
3547 1 41.9389 19.7825 3.9565
3548 1 43.5215 21.3651 5.5391
3549 1 41.9389 19.7825 7.1217
3550 1 43.5215 21.3651 8.7043
3551 1 41.9389 19.7825 10.2869
3552 1 43.5215 21.3651 11.8695
3553 1 41.9389 19.7825 13.4521
3554 1 43.5215 21.3651 15.0347
3555 1 41.9389 19.7825 16.6173
3556 1 43.5215 21.3651 18.1999
3557 1 41.9389 19.7825 19.7825
3558 1 43.5215 21.3651 21.3651
3559 1 41.9389 19.7825 22.9477
3560 1 43.5215 21.3651 24.5303
3561 1 41.9389 19.7825 26.1129
3562 1 43.5215 21.3651 27.6955
3563 1 41.9389 19.7825 29.2781
3564 1 43.5215 21.3651 30.8607
3565 1 41.9389 19.7825 32.4433
3566 1 43.5215 21.3651 34.0259
3567 1 41.9389 19.7825 35.6085
3568 1 43.5215 21.3651 37.1911
3569 1 41.9389 19.7825 38.7737
3570 1 43.5215 21.3651 40.3563
3571 1 41.9389 19.7825 41.9389
3572 1 43.5215 21.3651 43.5215
3573 1 41.9389 19.7825 45.1041
3574 1 43.5215 21.3651 46.6867
3575 1 41.9389 19.7825 48.2693
3576 1 43.5215 21.3651 49.8519
3577 1 41.9389 22.9477 0.7913
3578 1 43.5215 24.5303 2.3739
3579 1 41.9389 22.9477 3.9565
3580 1 43.5215 24.5303 5.5391
3581 1 41.9389 22.9477 7.1217
3582 1 43.5215 24.5303 8.7043
3583 1 41.9389 22.9477 10.2869
3584 1 43.5215 24.5303 11.8695
3585 1 41.9389 22.9477 13.4521
3586 1 43.5215 24.5303 15.0347
3587 1 41.9389 22.9477 16.6173
3588 1 43.5215 24.5303 18.1999
3589 1 41.9389 22.9477 19.7825
3590 1 43.5215 24.5303 21.3651
3591 1 41.9389 22.9477 22.9477
3592 1 43.5215 24.5303 24.5303
3593 1 41.9389 22.9477 26.1129
3594 1 43.5215 24.5303 27.6955
3595 1 41.9389 22.9477 29.2781
3596 1 43.5215 24.5303 30.8607
3597 1 41.9389 22.9477 32.4433
3598 1 43.5215 24.5303 34.0259
3599 1 41.9389 22.9477 35.6085
3600 1 43.5215 24.5303 37.1911
3601 1 41.9389 22.9477 38.7737
3602 1 43.5215 24.5303 40.3563
3603 1 41.9389 22.9477 41.9389
3604 1 43.5215 24.5303 43.5215
3605 1 41.9389 22.9477 45.1041
3606 1 43.5215 24.5303 46.6867
3607 1 41.9389 22.9477 48.2693
3608 1 43.5215 24.5303 49.8519
3609 1 41.9389 26.1129 0.7913
3610 1 43.5215 27.6955 2.3739
3611 1 41.9389 26.1129 3.9565
3612 1 43.5215 27.6955 5.5391
3613 1 41.9389 26.1129 7.1217
3614 1 43.5215 27.6955 8.7043
3615 1 41.9389 26.1129 10.2869
3616 1 43.5215 27.6955 11.8695
3617 1 41.9389 26.1129 13.4521
3618 1 43.5215 27.6955 15.0347
3619 1 41.9389 26.1129 16.6173
3620 1 43.5215 27.6955 18.1999
3621 1 41.9389 26.1129 19.7825
3622 1 43.5215 27.6955 21.3651
3623 1 41.9389 26.1129 22.9477
3624 1 43.5215 27.6955 24.5303
3625 1 41.9389 26.1129 26.1129
3626 1 43.5215 27.6955 27.6955
3627 1 41.9389 26.1129 29.2781
3628 1 43.5215 27.6955 30.8607
3629 1 41.9389 26.1129 32.4433
3630 1 43.5215 27.6955 34.0259
3631 1 41.9389 26.1129 35.6085
3632 1 43.5215 27.6955 37.1911
3633 1 41.9389 26.1129 38.7737
3634 1 43.5215 27.6955 40.3563
3635 1 41.9389 26.1129 41.9389
3636 1 43.5215 27.6955 43.5215
3637 1 41.9389 26.1129 45.1041
3638 1 43.5215 27.6955 46.6867
3639 1 41.9389 26.1129 48.2693
3640 1 43.5215 27.6955 49.8519
3641 1 41.9389 29.2781 0.7913
3642 1 43.5215 30.8607 2.3739
3643 1 41.9389 29.2781 3.9565
3644 1 43.5215 30.8607 5.5391
3645 1 41.9389 29.2781 7.1217
3646 1 43.5215 30.8607 8.7043
3647 1 41.9389 29.2781 10.2869
3648 1 43.5215 30.8607 11.8695
3649 1 41.9389 29.2781 13.4521
3650 1 43.5215 30.8607 15.0347
3651 1 41.9389 29.2781 16.6173
3652 1 43.5215 30.8607 18.1999
3653 1 41.9389 29.2781 19.7825
3654 1 43.5215 30.8607 21.3651
3655 1 41.9389 29.2781 22.9477
3656 1 43.5215 30.8607 24.5303
3657 1 41.9389 29.2781 26.1129
3658 1 43.5215 30.8607 27.6955
3659 1 41.9389 29.2781 29.2781
3660 1 43.5215 30.8607 30.8607
3661 1 41.9389 29.2781 32.4433
3662 1 43.5215 30.8607 34.0259
3663 1 41.9389 29.2781 35.6085
3664 1 43.5215 30.8607 37.1911
3665 1 41.9389 29.2781 38.7737
3666 1 43.5215 30.8607 40.3563
3667 1 41.9389 29.2781 41.9389
3668 1 43.5215 30.8607 43.5215
3669 1 41.9389 29.2781 45.1041
3670 1 43.5215 30.8607 46.6867
3671 1 41.9389 29.2781 48.2693
3672 1 43.5215 30.8607 49.8519
3673 1 41.9389 32.4433 0.7913
3674 1 43.5215 34.0259 2.3739
3675 1 41.9389 32.4433 3.9565
3676 1 43.5215 34.0259 5.5391
3677 1 41.9389 32.4433 7.1217
3678 1 43.5215 34.0259 8.7043
3679 1 41.9389 32.4433 10.2869
3680 1 43.5215 34.0259 11.8695
3681 1 41.9389 32.4433 13.4521
3682 1 43.5215 34.0259 15.0347
3683 1 41.9389 32.4433 16.6173
3684 1 43.5215 34.0259 18.1999
3685 1 41.9389 32.4433 19.7825
3686 1 43.5215 34.0259 21.3651
3687 1 41.9389 32.4433 22.9477
3688 1 43.5215 34.0259 24.5303
3689 1 41.9389 32.4433 26.1129
3690 1 43.5215 34.0259 27.6955
3691 1 41.9389 32.4433 29.2781
3692 1 43.5215 34.0259 30.8607
3693 1 41.9389 32.4433 32.4433
3694 1 43.5215 34.0259 34.0259
3695 1 41.9389 32.4433 35.6085
3696 1 43.5215 34.0259 37.1911
3697 1 41.9389 32.4433 38.7737
3698 1 43.5215 34.0259 40.3563
3699 1 41.9389 32.4433 41.9389
3700 1 43.5215 34.0259 43.5215
3701 1 41.9389 32.4433 45.1041
3702 1 43.5215 34.0259 46.6867
3703 1 41.9389 32.4433 48.2693
3704 1 43.5215 34.0259 49.8519
3705 1 41.9389 35.6085 0.7913
3706 1 43.5215 37.1911 2.3739
3707 1 41.9389 35.6085 3.9565
3708 1 43.5215 37.1911 5.5391
3709 1 41.9389 35.6085 7.1217
3710 1 43.5215 37.1911 8.7043
3711 1 41.9389 35.6085 10.2869
3712 1 43.5215 37.1911 11.8695
3713 1 41.9389 35.6085 13.4521
3714 1 43.5215 37.1911 15.0347
3715 1 41.9389 35.6085 16.6173
3716 1 43.5215 37.1911 18.1999
3717 1 41.9389 35.6085 19.7825
3718 1 43.5215 37.1911 21.3651
3719 1 41.9389 35.6085 22.9477
3720 1 43.5215 37.1911 24.5303
3721 1 41.9389 35.6085 26.1129
3722 1 43.5215 37.1911 27.6955
3723 1 41.9389 35.6085 29.2781
3724 1 43.5215 37.1911 30.8607
3725 1 41.9389 35.6085 32.4433
3726 1 43.5215 37.1911 34.0259
3727 1 41.9389 35.6085 35.6085
3728 1 43.5215 37.1911 37.1911
3729 1 41.9389 35.6085 38.7737
3730 1 43.5215 37.1911 40.3563
3731 1 41.9389 35.6085 41.9389
3732 1 43.5215 37.1911 43.5215
3733 1 41.9389 35.6085 45.1041
3734 1 43.5215 37.1911 46.6867
3735 1 41.9389 35.6085 48.2693
3736 1 43.5215 37.1911 49.8519
3737 1 41.9389 38.7737 0.7913
3738 1 43.5215 40.3563 2.3739
3739 1 41.9389 38.7737 3.9565
3740 1 43.5215 40.3563 5.5391
3741 1 41.9389 38.7737 7.1217
3742 1 43.5215 40.3563 8.7043
3743 1 41.9389 38.7737 10.2869
3744 1 43.5215 40.3563 11.8695
3745 1 41.9389 38.7737 13.4521
3746 1 43.5215 40.3563 15.0347
3747 1 41.9389 38.7737 16.6173
3748 1 43.5215 40.3563 18.1999
3749 1 41.9389 38.7737 19.7825
3750 1 43.5215 40.3563 21.3651
3751 1 41.9389 38.7737 22.9477
3752 1 43.5215 40.3563 24.5303
3753 1 41.9389 38.7737 26.1129
3754 1 43.5215 40.3563 27.6955
3755 1 41.9389 38.7737 29.2781
3756 1 43.5215 40.3563 30.8607
3757 1 41.9389 38.7737 32.4433
3758 1 43.5215 40.3563 34.0259
3759 1 41.9389 38.7737 35.6085
3760 1 43.5215 40.3563 37.1911
3761 1 41.9389 38.7737 38.7737
3762 1 43.5215 40.3563 40.3563
3763 1 41.9389 38.7737 41.9389
3764 1 43.5215 40.3563 43.5215
3765 1 41.9389 38.7737 45.1041
3766 1 43.5215 40.3563 46.6867
3767 1 41.9389 38.7737 48.2693
3768 1 43.5215 40.3563 49.8519
3769 1 41.9389 41.9389 0.7913
3770 1 43.5215 43.5215 2.3739
3771 1 41.9389 41.9389 3.9565
3772 1 43.5215 43.5215 5.5391
3773 1 41.9389 41.9389 7.1217
3774 1 43.5215 43.5215 8.7043
3775 1 41.9389 41.9389 10.2869
3776 1 43.5215 43.5215 11.8695
3777 1 41.9389 41.9389 13.4521
3778 1 43.5215 43.5215 15.0347
3779 1 41.9389 41.9389 16.6173
3780 1 43.5215 43.5215 18.1999
3781 1 41.9389 41.9389 19.7825
3782 1 43.5215 43.5215 21.3651
3783 1 41.9389 41.9389 22.9477
3784 1 43.5215 43.5215 24.5303
3785 1 41.9389 41.9389 26.1129
3786 1 43.5215 43.5215 27.6955
3787 1 41.9389 41.9389 29.2781
3788 1 43.5215 43.5215 30.8607
3789 1 41.9389 41.9389 32.4433
3790 1 43.5215 43.5215 34.0259
3791 1 41.9389 41.9389 35.6085
3792 1 43.5215 43.5215 37.1911
3793 1 41.9389 41.9389 38.7737
3794 1 43.5215 43.5215 40.3563
3795 1 41.9389 41.9389 41.9389
3796 1 43.5215 43.5215 43.5215
3797 1 41.9389 41.9389 45.1041
3798 1 43.5215 43.5215 46.6867
3799 1 41.9389 41.9389 48.2693
3800 1 43.5215 43.5215 49.8519
3801 1 41.9389 45.1041 0.7913
3802 1 43.5215 46.6867 2.3739
3803 1 41.9389 45.1041 3.9565
3804 1 43.5215 46.6867 5.5391
3805 1 41.9389 45.1041 7.1217
3806 1 43.5215 46.6867 8.7043
3807 1 41.9389 45.1041 10.2869
3808 1 43.5215 46.6867 11.8695
3809 1 41.9389 45.1041 13.4521
3810 1 43.5215 46.6867 15.0347
3811 1 41.9389 45.1041 16.6173
3812 1 43.5215 46.6867 18.1999
3813 1 41.9389 45.1041 19.7825
3814 1 43.5215 46.6867 21.3651
3815 1 41.9389 45.1041 22.9477
3816 1 43.5215 46.6867 24.5303
3817 1 41.9389 45.1041 26.1129
3818 1 43.5215 46.6867 27.6955
3819 1 41.9389 45.1041 29.2781
3820 1 43.5215 46.6867 30.8607
3821 1 41.9389 45.1041 32.4433
3822 1 43.5215 46.6867 34.0259
3823 1 41.9389 45.1041 35.6085
3824 1 43.5215 46.6867 37.1911
3825 1 41.9389 45.1041 38.7737
3826 1 43.5215 46.6867 40.3563
3827 1 41.9389 45.1041 41.9389
3828 1 43.5215 46.6867 43.5215
3829 1 41.9389 45.1041 45.1041
3830 1 43.5215 46.6867 46.6867
3831 1 41.9389 45.1041 48.2693
3832 1 43.5215 46.6867 49.8519
3833 1 41.9389 48.2693 0.7913
3834 1 43.5215 49.8519 2.3739
3835 1 41.9389 48.2693 3.9565
3836 1 43.5215 49.8519 5.5391
3837 1 41.9389 48.2693 7.1217
3838 1 43.5215 49.8519 8.7043
3839 1 41.9389 48.2693 10.2869
3840 1 43.5215 49.8519 11.8695
3841 1 41.9389 48.2693 13.4521
3842 1 43.5215 49.8519 15.0347
3843 1 41.9389 48.2693 16.6173
3844 1 43.5215 49.8519 18.1999
3845 1 41.9389 48.2693 19.7825
3846 1 43.5215 49.8519 21.3651
3847 1 41.9389 48.2693 22.9477
3848 1 43.5215 49.8519 24.5303
3849 1 41.9389 48.2693 26.1129
3850 1 43.5215 49.8519 27.6955
3851 1 41.9389 48.2693 29.2781
3852 1 43.5215 49.8519 30.8607
3853 1 41.9389 48.2693 32.4433
3854 1 43.5215 49.8519 34.0259
3855 1 41.9389 48.2693 35.6085
3856 1 43.5215 49.8519 37.1911
3857 1 41.9389 48.2693 38.7737
3858 1 43.5215 49.8519 40.3563
3859 1 41.9389 48.2693 41.9389
3860 1 43.5215 49.8519 43.5215
3861 1 41.9389 48.2693 45.1041
3862 1 43.5215 49.8519 46.6867
3863 1 41.9389 48.2693 48.2693
3864 1 43.5215 49.8519 49.8519
3865 1 45.1041 0.7913 0.7913
3866 1 46.6867 2.3739 2.3739
3867 1 45.1041 0.7913 3.9565
3868 1 46.6867 2.3739 5.5391
3869 1 45.1041 0.7913 7.1217
3870 1 46.6867 2.3739 8.7043
3871 1 45.1041 0.7913 10.2869
3872 1 46.6867 2.3739 11.8695
3873 1 45.1041 0.7913 13.4521
3874 1 46.6867 2.3739 15.0347
3875 1 45.1041 0.7913 16.6173
3876 1 46.6867 2.3739 18.1999
3877 1 45.1041 0.7913 19.7825
3878 1 46.6867 2.3739 21.3651
3879 1 45.1041 0.7913 22.9477
3880 1 46.6867 2.3739 24.5303
3881 1 45.1041 0.7913 26.1129
3882 1 46.6867 2.3739 27.6955
3883 1 45.1041 0.7913 29.2781
3884 1 46.6867 2.3739 30.8607
3885 1 45.1041 0.7913 32.4433
3886 1 46.6867 2.3739 34.0259
3887 1 45.1041 0.7913 35.6085
3888 1 46.6867 2.3739 37.1911
3889 1 45.1041 0.7913 38.7737
3890 1 46.6867 2.3739 40.3563
3891 1 45.1041 0.7913 41.9389
3892 1 46.6867 2.3739 43.5215
3893 1 45.1041 0.7913 45.1041
3894 1 46.6867 2.3739 46.6867
3895 1 45.1041 0.7913 48.2693
3896 1 46.6867 2.3739 49.8519
3897 1 45.1041 3.9565 0.7913
3898 1 46.6867 5.5391 2.3739
3899 1 45.1041 3.9565 3.9565
3900 1 46.6867 5.5391 5.5391
3901 1 45.1041 3.9565 7.1217
3902 1 46.6867 5.5391 8.7043
3903 1 45.1041 3.9565 10.2869
3904 1 46.6867 5.5391 11.8695
3905 1 45.1041 3.9565 13.4521
3906 1 46.6867 5.5391 15.0347
3907 1 45.1041 3.9565 16.6173
3908 1 46.6867 5.5391 18.1999
3909 1 45.1041 3.9565 19.7825
3910 1 46.6867 5.5391 21.3651
3911 1 45.1041 3.9565 22.9477
3912 1 46.6867 5.5391 24.5303
3913 1 45.1041 3.9565 26.1129
3914 1 46.6867 5.5391 27.6955
3915 1 45.1041 3.9565 29.2781
3916 1 46.6867 5.5391 30.8607
3917 1 45.1041 3.9565 32.4433
3918 1 46.6867 5.5391 34.0259
3919 1 45.1041 3.9565 35.6085
3920 1 46.6867 5.5391 37.1911
3921 1 45.1041 3.9565 38.7737
3922 1 46.6867 5.5391 40.3563
3923 1 45.1041 3.9565 41.9389
3924 1 46.6867 5.5391 43.5215
3925 1 45.1041 3.9565 45.1041
3926 1 46.6867 5.5391 46.6867
3927 1 45.1041 3.9565 48.2693
3928 1 46.6867 5.5391 49.8519
3929 1 45.1041 7.1217 0.7913
3930 1 46.6867 8.7043 2.3739
3931 1 45.1041 7.1217 3.9565
3932 1 46.6867 8.7043 5.5391
3933 1 45.1041 7.1217 7.1217
3934 1 46.6867 8.7043 8.7043
3935 1 45.1041 7.1217 10.2869
3936 1 46.6867 8.7043 11.8695
3937 1 45.1041 7.1217 13.4521
3938 1 46.6867 8.7043 15.0347
3939 1 45.1041 7.1217 16.6173
3940 1 46.6867 8.7043 18.1999
3941 1 45.1041 7.1217 19.7825
3942 1 46.6867 8.7043 21.3651
3943 1 45.1041 7.1217 22.9477
3944 1 46.6867 8.7043 24.5303
3945 1 45.1041 7.1217 26.1129
3946 1 46.6867 8.7043 27.6955
3947 1 45.1041 7.1217 29.2781
3948 1 46.6867 8.7043 30.8607
3949 1 45.1041 7.1217 32.4433
3950 1 46.6867 8.7043 34.0259
3951 1 45.1041 7.1217 35.6085
3952 1 46.6867 8.7043 37.1911
3953 1 45.1041 7.1217 38.7737
3954 1 46.6867 8.7043 40.3563
3955 1 45.1041 7.1217 41.9389
3956 1 46.6867 8.7043 43.5215
3957 1 45.1041 7.1217 45.1041
3958 1 46.6867 8.7043 46.6867
3959 1 45.1041 7.1217 48.2693
3960 1 46.6867 8.7043 49.8519
3961 1 45.1041 10.2869 0.7913
3962 1 46.6867 11.8695 2.3739
3963 1 45.1041 10.2869 3.9565
3964 1 46.6867 11.8695 5.5391
3965 1 45.1041 10.2869 7.1217
3966 1 46.6867 11.8695 8.7043
3967 1 45.1041 10.2869 10.2869
3968 1 46.6867 11.8695 11.8695
3969 1 45.1041 10.2869 13.4521
3970 1 46.6867 11.8695 15.0347
3971 1 45.1041 10.2869 16.6173
3972 1 46.6867 11.8695 18.1999
3973 1 45.1041 10.2869 19.7825
3974 1 46.6867 11.8695 21.3651
3975 1 45.1041 10.2869 22.9477
3976 1 46.6867 11.8695 24.5303
3977 1 45.1041 10.2869 26.1129
3978 1 46.6867 11.8695 27.6955
3979 1 45.1041 10.2869 29.2781
3980 1 46.6867 11.8695 30.8607
3981 1 45.1041 10.2869 32.4433
3982 1 46.6867 11.8695 34.0259
3983 1 45.1041 10.2869 35.6085
3984 1 46.6867 11.8695 37.1911
3985 1 45.1041 10.2869 38.7737
3986 1 46.6867 11.8695 40.3563
3987 1 45.1041 10.2869 41.9389
3988 1 46.6867 11.8695 43.5215
3989 1 45.1041 10.2869 45.1041
3990 1 46.6867 11.8695 46.6867
3991 1 45.1041 10.2869 48.2693
3992 1 46.6867 11.8695 49.8519
3993 1 45.1041 13.4521 0.7913
3994 1 46.6867 15.0347 2.3739
3995 1 45.1041 13.4521 3.9565
3996 1 46.6867 15.0347 5.5391
3997 1 45.1041 13.4521 7.1217
3998 1 46.6867 15.0347 8.7043
3999 1 45.1041 13.4521 10.2869
4000 1 46.6867 15.0347 11.8695
4001 1 45.1041 13.4521 13.4521
4002 1 46.6867 15.0347 15.0347
4003 1 45.1041 13.4521 16.6173
4004 1 46.6867 15.0347 18.1999
4005 1 45.1041 13.4521 19.7825
4006 1 46.6867 15.0347 21.3651
4007 1 45.1041 13.4521 22.9477
4008 1 46.6867 15.0347 24.5303
4009 1 45.1041 13.4521 26.1129
4010 1 46.6867 15.0347 27.6955
4011 1 45.1041 13.4521 29.2781
4012 1 46.6867 15.0347 30.8607
4013 1 45.1041 13.4521 32.4433
4014 1 46.6867 15.0347 34.0259
4015 1 45.1041 13.4521 35.6085
4016 1 46.6867 15.0347 37.1911
4017 1 45.1041 13.4521 38.7737
4018 1 46.6867 15.0347 40.3563
4019 1 45.1041 13.4521 41.9389
4020 1 46.6867 15.0347 43.5215
4021 1 45.1041 13.4521 45.1041
4022 1 46.6867 15.0347 46.6867
4023 1 45.1041 13.4521 48.2693
4024 1 46.6867 15.0347 49.8519
4025 1 45.1041 16.6173 0.7913
4026 1 46.6867 18.1999 2.3739
4027 1 45.1041 16.6173 3.9565
4028 1 46.6867 18.1999 5.5391
4029 1 45.1041 16.6173 7.1217
4030 1 46.6867 18.1999 8.7043
4031 1 45.1041 16.6173 10.2869
4032 1 46.6867 18.1999 11.8695
4033 1 45.1041 16.6173 13.4521
4034 1 46.6867 18.1999 15.0347
4035 1 45.1041 16.6173 16.6173
4036 1 46.6867 18.1999 18.1999
4037 1 45.1041 16.6173 19.7825
4038 1 46.6867 18.1999 21.3651
4039 1 45.1041 16.6173 22.9477
4040 1 46.6867 18.1999 24.5303
4041 1 45.1041 16.6173 26.1129
4042 1 46.6867 18.1999 27.6955
4043 1 45.1041 16.6173 29.2781
4044 1 46.6867 18.1999 30.8607
4045 1 45.1041 16.6173 32.4433
4046 1 46.6867 18.1999 34.0259
4047 1 45.1041 16.6173 35.6085
4048 1 46.6867 18.1999 37.1911
4049 1 45.1041 16.6173 38.7737
4050 1 46.6867 18.1999 40.3563
4051 1 45.1041 16.6173 41.9389
4052 1 46.6867 18.1999 43.5215
4053 1 45.1041 16.6173 45.1041
4054 1 46.6867 18.1999 46.6867
4055 1 45.1041 16.6173 48.2693
4056 1 46.6867 18.1999 49.8519
4057 1 45.1041 19.7825 0.7913
4058 1 46.6867 21.3651 2.3739
4059 1 45.1041 19.7825 3.9565
4060 1 46.6867 21.3651 5.5391
4061 1 45.1041 19.7825 7.1217
4062 1 46.6867 21.3651 8.7043
4063 1 45.1041 19.7825 10.2869
4064 1 46.6867 21.3651 11.8695
4065 1 45.1041 19.7825 13.4521
4066 1 46.6867 21.3651 15.0347
4067 1 45.1041 19.7825 16.6173
4068 1 46.6867 21.3651 18.1999
4069 1 45.1041 19.7825 19.7825
4070 1 46.6867 21.3651 21.3651
4071 1 45.1041 19.7825 22.9477
4072 1 46.6867 21.3651 24.5303
4073 1 45.1041 19.7825 26.1129
4074 1 46.6867 21.3651 27.6955
4075 1 45.1041 19.7825 29.2781
4076 1 46.6867 21.3651 30.8607
4077 1 45.1041 19.7825 32.4433
4078 1 46.6867 21.3651 34.0259
4079 1 45.1041 19.7825 35.6085
4080 1 46.6867 21.3651 37.1911
4081 1 45.1041 19.7825 38.7737
4082 1 46.6867 21.3651 40.3563
4083 1 45.1041 19.7825 41.9389
4084 1 46.6867 21.3651 43.5215
4085 1 45.1041 19.7825 45.1041
4086 1 46.6867 21.3651 46.6867
4087 1 45.1041 19.7825 48.2693
4088 1 46.6867 21.3651 49.8519
4089 1 45.1041 22.9477 0.7913
4090 1 46.6867 24.5303 2.3739
4091 1 45.1041 22.9477 3.9565
4092 1 46.6867 24.5303 5.5391
4093 1 45.1041 22.9477 7.1217
4094 1 46.6867 24.5303 8.7043
4095 1 45.1041 22.9477 10.2869
4096 1 46.6867 24.5303 11.8695
4097 1 45.1041 22.9477 13.4521
4098 1 46.6867 24.5303 15.0347
4099 1 45.1041 22.9477 16.6173
4100 1 46.6867 24.5303 18.1999
4101 1 45.1041 22.9477 19.7825
4102 1 46.6867 24.5303 21.3651
4103 1 45.1041 22.9477 22.9477
4104 1 46.6867 24.5303 24.5303
4105 1 45.1041 22.9477 26.1129
4106 1 46.6867 24.5303 27.6955
4107 1 45.1041 22.9477 29.2781
4108 1 46.6867 24.5303 30.8607
4109 1 45.1041 22.9477 32.4433
4110 1 46.6867 24.5303 34.0259
4111 1 45.1041 22.9477 35.6085
4112 1 46.6867 24.5303 37.1911
4113 1 45.1041 22.9477 38.7737
4114 1 46.6867 24.5303 40.3563
4115 1 45.1041 22.9477 41.9389
4116 1 46.6867 24.5303 43.5215
4117 1 45.1041 22.9477 45.1041
4118 1 46.6867 24.5303 46.6867
4119 1 45.1041 22.9477 48.2693
4120 1 46.6867 24.5303 49.8519
4121 1 45.1041 26.1129 0.7913
4122 1 46.6867 27.6955 2.3739
4123 1 45.1041 26.1129 3.9565
4124 1 46.6867 27.6955 5.5391
4125 1 45.1041 26.1129 7.1217
4126 1 46.6867 27.6955 8.7043
4127 1 45.1041 26.1129 10.2869
4128 1 46.6867 27.6955 11.8695
4129 1 45.1041 26.1129 13.4521
4130 1 46.6867 27.6955 15.0347
4131 1 45.1041 26.1129 16.6173
4132 1 46.6867 27.6955 18.1999
4133 1 45.1041 26.1129 19.7825
4134 1 46.6867 27.6955 21.3651
4135 1 45.1041 26.1129 22.9477
4136 1 46.6867 27.6955 24.5303
4137 1 45.1041 26.1129 26.1129
4138 1 46.6867 27.6955 27.6955
4139 1 45.1041 26.1129 29.2781
4140 1 46.6867 27.6955 30.8607
4141 1 45.1041 26.1129 32.4433
4142 1 46.6867 27.6955 34.0259
4143 1 45.1041 26.1129 35.6085
4144 1 46.6867 27.6955 37.1911
4145 1 45.1041 26.1129 38.7737
4146 1 46.6867 27.6955 40.3563
4147 1 45.1041 26.1129 41.9389
4148 1 46.6867 27.6955 43.5215
4149 1 45.1041 26.1129 45.1041
4150 1 46.6867 27.6955 46.6867
4151 1 45.1041 26.1129 48.2693
4152 1 46.6867 27.6955 49.8519
4153 1 45.1041 29.2781 0.7913
4154 1 46.6867 30.8607 2.3739
4155 1 45.1041 29.2781 3.9565
4156 1 46.6867 30.8607 5.5391
4157 1 45.1041 29.2781 7.1217
4158 1 46.6867 30.8607 8.7043
4159 1 45.1041 29.2781 10.2869
4160 1 46.6867 30.8607 11.8695
4161 1 45.1041 29.2781 13.4521
4162 1 46.6867 30.8607 15.0347
4163 1 45.1041 29.2781 16.6173
4164 1 46.6867 30.8607 18.1999
4165 1 45.1041 29.2781 19.7825
4166 1 46.6867 30.8607 21.3651
4167 1 45.1041 29.2781 22.9477
4168 1 46.6867 30.8607 24.5303
4169 1 45.1041 29.2781 26.1129
4170 1 46.6867 30.8607 27.6955
4171 1 45.1041 29.2781 29.2781
4172 1 46.6867 30.8607 30.8607
4173 1 45.1041 29.2781 32.4433
4174 1 46.6867 30.8607 34.0259
4175 1 45.1041 29.2781 35.6085
4176 1 46.6867 30.8607 37.1911
4177 1 45.1041 29.2781 38.7737
4178 1 46.6867 30.8607 40.3563
4179 1 45.1041 29.2781 41.9389
4180 1 46.6867 30.8607 43.5215
4181 1 45.1041 29.2781 45.1041
4182 1 46.6867 30.8607 46.6867
4183 1 45.1041 29.2781 48.2693
4184 1 46.6867 30.8607 49.8519
4185 1 45.1041 32.4433 0.7913
4186 1 46.6867 34.0259 2.3739
4187 1 45.1041 32.4433 3.9565
4188 1 46.6867 34.0259 5.5391
4189 1 45.1041 32.4433 7.1217
4190 1 46.6867 34.0259 8.7043
4191 1 45.1041 32.4433 10.2869
4192 1 46.6867 34.0259 11.8695
4193 1 45.1041 32.4433 13.4521
4194 1 46.6867 34.0259 15.0347
4195 1 45.1041 32.4433 16.6173
4196 1 46.6867 34.0259 18.1999
4197 1 45.1041 32.4433 19.7825
4198 1 46.6867 34.0259 21.3651
4199 1 45.1041 32.4433 22.9477
4200 1 46.6867 34.0259 24.5303
4201 1 45.1041 32.4433 26.1129
4202 1 46.6867 34.0259 27.6955
4203 1 45.1041 32.4433 29.2781
4204 1 46.6867 34.0259 30.8607
4205 1 45.1041 32.4433 32.4433
4206 1 46.6867 34.0259 34.0259
4207 1 45.1041 32.4433 35.6085
4208 1 46.6867 34.0259 37.1911
4209 1 45.1041 32.4433 38.7737
4210 1 46.6867 34.0259 40.3563
4211 1 45.1041 32.4433 41.9389
4212 1 46.6867 34.0259 43.5215
4213 1 45.1041 32.4433 45.1041
4214 1 46.6867 34.0259 46.6867
4215 1 45.1041 32.4433 48.2693
4216 1 46.6867 34.0259 49.8519
4217 1 45.1041 35.6085 0.7913
4218 1 46.6867 37.1911 2.3739
4219 1 45.1041 35.6085 3.9565
4220 1 46.6867 37.1911 5.5391
4221 1 45.1041 35.6085 7.1217
4222 1 46.6867 37.1911 8.7043
4223 1 45.1041 35.6085 10.2869
4224 1 46.6867 37.1911 11.8695
4225 1 45.1041 35.6085 13.4521
4226 1 46.6867 37.1911 15.0347
4227 1 45.1041 35.6085 16.6173
4228 1 46.6867 37.1911 18.1999
4229 1 45.1041 35.6085 19.7825
4230 1 46.6867 37.1911 21.3651
4231 1 45.1041 35.6085 22.9477
4232 1 46.6867 37.1911 24.5303
4233 1 45.1041 35.6085 26.1129
4234 1 46.6867 37.1911 27.6955
4235 1 45.1041 35.6085 29.2781
4236 1 46.6867 37.1911 30.8607
4237 1 45.1041 35.6085 32.4433
4238 1 46.6867 37.1911 34.0259
4239 1 45.1041 35.6085 35.6085
4240 1 46.6867 37.1911 37.1911
4241 1 45.1041 35.6085 38.7737
4242 1 46.6867 37.1911 40.3563
4243 1 45.1041 35.6085 41.9389
4244 1 46.6867 37.1911 43.5215
4245 1 45.1041 35.6085 45.1041
4246 1 46.6867 37.1911 46.6867
4247 1 45.1041 35.6085 48.2693
4248 1 46.6867 37.1911 49.8519
4249 1 45.1041 38.7737 0.7913
4250 1 46.6867 40.3563 2.3739
4251 1 45.1041 38.7737 3.9565
4252 1 46.6867 40.3563 5.5391
4253 1 45.1041 38.7737 7.1217
4254 1 46.6867 40.3563 8.7043
4255 1 45.1041 38.7737 10.2869
4256 1 46.6867 40.3563 11.8695
4257 1 45.1041 38.7737 13.4521
4258 1 46.6867 40.3563 15.0347
4259 1 45.1041 38.7737 16.6173
4260 1 46.6867 40.3563 18.1999
4261 1 45.1041 38.7737 19.7825
4262 1 46.6867 40.3563 21.3651
4263 1 45.1041 38.7737 22.9477
4264 1 46.6867 40.3563 24.5303
4265 1 45.1041 38.7737 26.1129
4266 1 46.6867 40.3563 27.6955
4267 1 45.1041 38.7737 29.2781
4268 1 46.6867 40.3563 30.8607
4269 1 45.1041 38.7737 32.4433
4270 1 46.6867 40.3563 34.0259
4271 1 45.1041 38.7737 35.6085
4272 1 46.6867 40.3563 37.1911
4273 1 45.1041 38.7737 38.7737
4274 1 46.6867 40.3563 40.3563
4275 1 45.1041 38.7737 41.9389
4276 1 46.6867 40.3563 43.5215
4277 1 45.1041 38.7737 45.1041
4278 1 46.6867 40.3563 46.6867
4279 1 45.1041 38.7737 48.2693
4280 1 46.6867 40.3563 49.8519
4281 1 45.1041 41.9389 0.7913
4282 1 46.6867 43.5215 2.3739
4283 1 45.1041 41.9389 3.9565
4284 1 46.6867 43.5215 5.5391
4285 1 45.1041 41.9389 7.1217
4286 1 46.6867 43.5215 8.7043
4287 1 45.1041 41.9389 10.2869
4288 1 46.6867 43.5215 11.8695
4289 1 45.1041 41.9389 13.4521
4290 1 46.6867 43.5215 15.0347
4291 1 45.1041 41.9389 16.6173
4292 1 46.6867 43.5215 18.1999
4293 1 45.1041 41.9389 19.7825
4294 1 46.6867 43.5215 21.3651
4295 1 45.1041 41.9389 22.9477
4296 1 46.6867 43.5215 24.5303
4297 1 45.1041 41.9389 26.1129
4298 1 46.6867 43.5215 27.6955
4299 1 45.1041 41.9389 29.2781
4300 1 46.6867 43.5215 30.8607
4301 1 45.1041 41.9389 32.4433
4302 1 46.6867 43.5215 34.0259
4303 1 45.1041 41.9389 35.6085
4304 1 46.6867 43.5215 37.1911
4305 1 45.1041 41.9389 38.7737
4306 1 46.6867 43.5215 40.3563
4307 1 45.1041 41.9389 41.9389
4308 1 46.6867 43.5215 43.5215
4309 1 45.1041 41.9389 45.1041
4310 1 46.6867 43.5215 46.6867
4311 1 45.1041 41.9389 48.2693
4312 1 46.6867 43.5215 49.8519
4313 1 45.1041 45.1041 0.7913
4314 1 46.6867 46.6867 2.3739
4315 1 45.1041 45.1041 3.9565
4316 1 46.6867 46.6867 5.5391
4317 1 45.1041 45.1041 7.1217
4318 1 46.6867 46.6867 8.7043
4319 1 45.1041 45.1041 10.2869
4320 1 46.6867 46.6867 11.8695
4321 1 45.1041 45.1041 13.4521
4322 1 46.6867 46.6867 15.0347
4323 1 45.1041 45.1041 16.6173
4324 1 46.6867 46.6867 18.1999
4325 1 45.1041 45.1041 19.7825
4326 1 46.6867 46.6867 21.3651
4327 1 45.1041 45.1041 22.9477
4328 1 46.6867 46.6867 24.5303
4329 1 45.1041 45.1041 26.1129
4330 1 46.6867 46.6867 27.6955
4331 1 45.1041 45.1041 29.2781
4332 1 46.6867 46.6867 30.8607
4333 1 45.1041 45.1041 32.4433
4334 1 46.6867 46.6867 34.0259
4335 1 45.1041 45.1041 35.6085
4336 1 46.6867 46.6867 37.1911
4337 1 45.1041 45.1041 38.7737
4338 1 46.6867 46.6867 40.3563
4339 1 45.1041 45.1041 41.9389
4340 1 46.6867 46.6867 43.5215
4341 1 45.1041 45.1041 45.1041
4342 1 46.6867 46.6867 46.6867
4343 1 45.1041 45.1041 48.2693
4344 1 46.6867 46.6867 49.8519
4345 1 45.1041 48.2693 0.7913
4346 1 46.6867 49.8519 2.3739
4347 1 45.1041 48.2693 3.9565
4348 1 46.6867 49.8519 5.5391
4349 1 45.1041 48.2693 7.1217
4350 1 46.6867 49.8519 8.7043
4351 1 45.1041 48.2693 10.2869
4352 1 46.6867 49.8519 11.8695
4353 1 45.1041 48.2693 13.4521
4354 1 46.6867 49.8519 15.0347
4355 1 45.1041 48.2693 16.6173
4356 1 46.6867 49.8519 18.1999
4357 1 45.1041 48.2693 19.7825
4358 1 46.6867 49.8519 21.3651
4359 1 45.1041 48.2693 22.9477
4360 1 46.6867 49.8519 24.5303
4361 1 45.1041 48.2693 26.1129
4362 1 46.6867 49.8519 27.6955
4363 1 45.1041 48.2693 29.2781
4364 1 46.6867 49.8519 30.8607
4365 1 45.1041 48.2693 32.4433
4366 1 46.6867 49.8519 34.0259
4367 1 45.1041 48.2693 35.6085
4368 1 46.6867 49.8519 37.1911
4369 1 45.1041 48.2693 38.7737
4370 1 46.6867 49.8519 40.3563
4371 1 45.1041 48.2693 41.9389
4372 1 46.6867 49.8519 43.5215
4373 1 45.1041 48.2693 45.1041
4374 1 46.6867 49.8519 46.6867
4375 1 45.1041 48.2693 48.2693
4376 1 46.6867 49.8519 49.8519
4377 1 48.2693 0.7913 0.7913
4378 1 49.8519 2.3739 2.3739
4379 1 48.2693 0.7913 3.9565
4380 1 49.8519 2.3739 5.5391
4381 1 48.2693 0.7913 7.1217
4382 1 49.8519 2.3739 8.7043
4383 1 48.2693 0.7913 10.2869
4384 1 49.8519 2.3739 11.8695
4385 1 48.2693 0.7913 13.4521
4386 1 49.8519 2.3739 15.0347
4387 1 48.2693 0.7913 16.6173
4388 1 49.8519 2.3739 18.1999
4389 1 48.2693 0.7913 19.7825
4390 1 49.8519 2.3739 21.3651
4391 1 48.2693 0.7913 22.9477
4392 1 49.8519 2.3739 24.5303
4393 1 48.2693 0.7913 26.1129
4394 1 49.8519 2.3739 27.6955
4395 1 48.2693 0.7913 29.2781
4396 1 49.8519 2.3739 30.8607
4397 1 48.2693 0.7913 32.4433
4398 1 49.8519 2.3739 34.0259
4399 1 48.2693 0.7913 35.6085
4400 1 49.8519 2.3739 37.1911
4401 1 48.2693 0.7913 38.7737
4402 1 49.8519 2.3739 40.3563
4403 1 48.2693 0.7913 41.9389
4404 1 49.8519 2.3739 43.5215
4405 1 48.2693 0.7913 45.1041
4406 1 49.8519 2.3739 46.6867
4407 1 48.2693 0.7913 48.2693
4408 1 49.8519 2.3739 49.8519
4409 1 48.2693 3.9565 0.7913
4410 1 49.8519 5.5391 2.3739
4411 1 48.2693 3.9565 3.9565
4412 1 49.8519 5.5391 5.5391
4413 1 48.2693 3.9565 7.1217
4414 1 49.8519 5.5391 8.7043
4415 1 48.2693 3.9565 10.2869
4416 1 49.8519 5.5391 11.8695
4417 1 48.2693 3.9565 13.4521
4418 1 49.8519 5.5391 15.0347
4419 1 48.2693 3.9565 16.6173
4420 1 49.8519 5.5391 18.1999
4421 1 48.2693 3.9565 19.7825
4422 1 49.8519 5.5391 21.3651
4423 1 48.2693 3.9565 22.9477
4424 1 49.8519 5.5391 24.5303
4425 1 48.2693 3.9565 26.1129
4426 1 49.8519 5.5391 27.6955
4427 1 48.2693 3.9565 29.2781
4428 1 49.8519 5.5391 30.8607
4429 1 48.2693 3.9565 32.4433
4430 1 49.8519 5.5391 34.0259
4431 1 48.2693 3.9565 35.6085
4432 1 49.8519 5.5391 37.1911
4433 1 48.2693 3.9565 38.7737
4434 1 49.8519 5.5391 40.3563
4435 1 48.2693 3.9565 41.9389
4436 1 49.8519 5.5391 43.5215
4437 1 48.2693 3.9565 45.1041
4438 1 49.8519 5.5391 46.6867
4439 1 48.2693 3.9565 48.2693
4440 1 49.8519 5.5391 49.8519
4441 1 48.2693 7.1217 0.7913
4442 1 49.8519 8.7043 2.3739
4443 1 48.2693 7.1217 3.9565
4444 1 49.8519 8.7043 5.5391
4445 1 48.2693 7.1217 7.1217
4446 1 49.8519 8.7043 8.7043
4447 1 48.2693 7.1217 10.2869
4448 1 49.8519 8.7043 11.8695
4449 1 48.2693 7.1217 13.4521
4450 1 49.8519 8.7043 15.0347
4451 1 48.2693 7.1217 16.6173
4452 1 49.8519 8.7043 18.1999
4453 1 48.2693 7.1217 19.7825
4454 1 49.8519 8.7043 21.3651
4455 1 48.2693 7.1217 22.9477
4456 1 49.8519 8.7043 24.5303
4457 1 48.2693 7.1217 26.1129
4458 1 49.8519 8.7043 27.6955
4459 1 48.2693 7.1217 29.2781
4460 1 49.8519 8.7043 30.8607
4461 1 48.2693 7.1217 32.4433
4462 1 49.8519 8.7043 34.0259
4463 1 48.2693 7.1217 35.6085
4464 1 49.8519 8.7043 37.1911
4465 1 48.2693 7.1217 38.7737
4466 1 49.8519 8.7043 40.3563
4467 1 48.2693 7.1217 41.9389
4468 1 49.8519 8.7043 43.5215
4469 1 48.2693 7.1217 45.1041
4470 1 49.8519 8.7043 46.6867
4471 1 48.2693 7.1217 48.2693
4472 1 49.8519 8.7043 49.8519
4473 1 48.2693 10.2869 0.7913
4474 1 49.8519 11.8695 2.3739
4475 1 48.2693 10.2869 3.9565
4476 1 49.8519 11.8695 5.5391
4477 1 48.2693 10.2869 7.1217
4478 1 49.8519 11.8695 8.7043
4479 1 48.2693 10.2869 10.2869
4480 1 49.8519 11.8695 11.8695
4481 1 48.2693 10.2869 13.4521
4482 1 49.8519 11.8695 15.0347
4483 1 48.2693 10.2869 16.6173
4484 1 49.8519 11.8695 18.1999
4485 1 48.2693 10.2869 19.7825
4486 1 49.8519 11.8695 21.3651
4487 1 48.2693 10.2869 22.9477
4488 1 49.8519 11.8695 24.5303
4489 1 48.2693 10.2869 26.1129
4490 1 49.8519 11.8695 27.6955
4491 1 48.2693 10.2869 29.2781
4492 1 49.8519 11.8695 30.8607
4493 1 48.2693 10.2869 32.4433
4494 1 49.8519 11.8695 34.0259
4495 1 48.2693 10.2869 35.6085
4496 1 49.8519 11.8695 37.1911
4497 1 48.2693 10.2869 38.7737
4498 1 49.8519 11.8695 40.3563
4499 1 48.2693 10.2869 41.9389
4500 1 49.8519 11.8695 43.5215
4501 1 48.2693 10.2869 45.1041
4502 1 49.8519 11.8695 46.6867
4503 1 48.2693 10.2869 48.2693
4504 1 49.8519 11.8695 49.8519
4505 1 48.2693 13.4521 0.7913
4506 1 49.8519 15.0347 2.3739
4507 1 48.2693 13.4521 3.9565
4508 1 49.8519 15.0347 5.5391
4509 1 48.2693 13.4521 7.1217
4510 1 49.8519 15.0347 8.7043
4511 1 48.2693 13.4521 10.2869
4512 1 49.8519 15.0347 11.8695
4513 1 48.2693 13.4521 13.4521
4514 1 49.8519 15.0347 15.0347
4515 1 48.2693 13.4521 16.6173
4516 1 49.8519 15.0347 18.1999
4517 1 48.2693 13.4521 19.7825
4518 1 49.8519 15.0347 21.3651
4519 1 48.2693 13.4521 22.9477
4520 1 49.8519 15.0347 24.5303
4521 1 48.2693 13.4521 26.1129
4522 1 49.8519 15.0347 27.6955
4523 1 48.2693 13.4521 29.2781
4524 1 49.8519 15.0347 30.8607
4525 1 48.2693 13.4521 32.4433
4526 1 49.8519 15.0347 34.0259
4527 1 48.2693 13.4521 35.6085
4528 1 49.8519 15.0347 37.1911
4529 1 48.2693 13.4521 38.7737
4530 1 49.8519 15.0347 40.3563
4531 1 48.2693 13.4521 41.9389
4532 1 49.8519 15.0347 43.5215
4533 1 48.2693 13.4521 45.1041
4534 1 49.8519 15.0347 46.6867
4535 1 48.2693 13.4521 48.2693
4536 1 49.8519 15.0347 49.8519
4537 1 48.2693 16.6173 0.7913
4538 1 49.8519 18.1999 2.3739
4539 1 48.2693 16.6173 3.9565
4540 1 49.8519 18.1999 5.5391
4541 1 48.2693 16.6173 7.1217
4542 1 49.8519 18.1999 8.7043
4543 1 48.2693 16.6173 10.2869
4544 1 49.8519 18.1999 11.8695
4545 1 48.2693 16.6173 13.4521
4546 1 49.8519 18.1999 15.0347
4547 1 48.2693 16.6173 16.6173
4548 1 49.8519 18.1999 18.1999
4549 1 48.2693 16.6173 19.7825
4550 1 49.8519 18.1999 21.3651
4551 1 48.2693 16.6173 22.9477
4552 1 49.8519 18.1999 24.5303
4553 1 48.2693 16.6173 26.1129
4554 1 49.8519 18.1999 27.6955
4555 1 48.2693 16.6173 29.2781
4556 1 49.8519 18.1999 30.8607
4557 1 48.2693 16.6173 32.4433
4558 1 49.8519 18.1999 34.0259
4559 1 48.2693 16.6173 35.6085
4560 1 49.8519 18.1999 37.1911
4561 1 48.2693 16.6173 38.7737
4562 1 49.8519 18.1999 40.3563
4563 1 48.2693 16.6173 41.9389
4564 1 49.8519 18.1999 43.5215
4565 1 48.2693 16.6173 45.1041
4566 1 49.8519 18.1999 46.6867
4567 1 48.2693 16.6173 48.2693
4568 1 49.8519 18.1999 49.8519
4569 1 48.2693 19.7825 0.7913
4570 1 49.8519 21.3651 2.3739
4571 1 48.2693 19.7825 3.9565
4572 1 49.8519 21.3651 5.5391
4573 1 48.2693 19.7825 7.1217
4574 1 49.8519 21.3651 8.7043
4575 1 48.2693 19.7825 10.2869
4576 1 49.8519 21.3651 11.8695
4577 1 48.2693 19.7825 13.4521
4578 1 49.8519 21.3651 15.0347
4579 1 48.2693 19.7825 16.6173
4580 1 49.8519 21.3651 18.1999
4581 1 48.2693 19.7825 19.7825
4582 1 49.8519 21.3651 21.3651
4583 1 48.2693 19.7825 22.9477
4584 1 49.8519 21.3651 24.5303
4585 1 48.2693 19.7825 26.1129
4586 1 49.8519 21.3651 27.6955
4587 1 48.2693 19.7825 29.2781
4588 1 49.8519 21.3651 30.8607
4589 1 48.2693 19.7825 32.4433
4590 1 49.8519 21.3651 34.0259
4591 1 48.2693 19.7825 35.6085
4592 1 49.8519 21.3651 37.1911
4593 1 48.2693 19.7825 38.7737
4594 1 49.8519 21.3651 40.3563
4595 1 48.2693 19.7825 41.9389
4596 1 49.8519 21.3651 43.5215
4597 1 48.2693 19.7825 45.1041
4598 1 49.8519 21.3651 46.6867
4599 1 48.2693 19.7825 48.2693
4600 1 49.8519 21.3651 49.8519
4601 1 48.2693 22.9477 0.7913
4602 1 49.8519 24.5303 2.3739
4603 1 48.2693 22.9477 3.9565
4604 1 49.8519 24.5303 5.5391
4605 1 48.2693 22.9477 7.1217
4606 1 49.8519 24.5303 8.7043
4607 1 48.2693 22.9477 10.2869
4608 1 49.8519 24.5303 11.8695
4609 1 48.2693 22.9477 13.4521
4610 1 49.8519 24.5303 15.0347
4611 1 48.2693 22.9477 16.6173
4612 1 49.8519 24.5303 18.1999
4613 1 48.2693 22.9477 19.7825
4614 1 49.8519 24.5303 21.3651
4615 1 48.2693 22.9477 22.9477
4616 1 49.8519 24.5303 24.5303
4617 1 48.2693 22.9477 26.1129
4618 1 49.8519 24.5303 27.6955
4619 1 48.2693 22.9477 29.2781
4620 1 49.8519 24.5303 30.8607
4621 1 48.2693 22.9477 32.4433
4622 1 49.8519 24.5303 34.0259
4623 1 48.2693 22.9477 35.6085
4624 1 49.8519 24.5303 37.1911
4625 1 48.2693 22.9477 38.7737
4626 1 49.8519 24.5303 40.3563
4627 1 48.2693 22.9477 41.9389
4628 1 49.8519 24.5303 43.5215
4629 1 48.2693 22.9477 45.1041
4630 1 49.8519 24.5303 46.6867
4631 1 48.2693 22.9477 48.2693
4632 1 49.8519 24.5303 49.8519
4633 1 48.2693 26.1129 0.7913
4634 1 49.8519 27.6955 2.3739
4635 1 48.2693 26.1129 3.9565
4636 1 49.8519 27.6955 5.5391
4637 1 48.2693 26.1129 7.1217
4638 1 49.8519 27.6955 8.7043
4639 1 48.2693 26.1129 10.2869
4640 1 49.8519 27.6955 11.8695
4641 1 48.2693 26.1129 13.4521
4642 1 49.8519 27.6955 15.0347
4643 1 48.2693 26.1129 16.6173
4644 1 49.8519 27.6955 18.1999
4645 1 48.2693 26.1129 19.7825
4646 1 49.8519 27.6955 21.3651
4647 1 48.2693 26.1129 22.9477
4648 1 49.8519 27.6955 24.5303
4649 1 48.2693 26.1129 26.1129
4650 1 49.8519 27.6955 27.6955
4651 1 48.2693 26.1129 29.2781
4652 1 49.8519 27.6955 30.8607
4653 1 48.2693 26.1129 32.4433
4654 1 49.8519 27.6955 34.0259
4655 1 48.2693 26.1129 35.6085
4656 1 49.8519 27.6955 37.1911
4657 1 48.2693 26.1129 38.7737
4658 1 49.8519 27.6955 40.3563
4659 1 48.2693 26.1129 41.9389
4660 1 49.8519 27.6955 43.5215
4661 1 48.2693 26.1129 45.1041
4662 1 49.8519 27.6955 46.6867
4663 1 48.2693 26.1129 48.2693
4664 1 49.8519 27.6955 49.8519
4665 1 48.2693 29.2781 0.7913
4666 1 49.8519 30.8607 2.3739
4667 1 48.2693 29.2781 3.9565
4668 1 49.8519 30.8607 5.5391
4669 1 48.2693 29.2781 7.1217
4670 1 49.8519 30.8607 8.7043
4671 1 48.2693 29.2781 10.2869
4672 1 49.8519 30.8607 11.8695
4673 1 48.2693 29.2781 13.4521
4674 1 49.8519 30.8607 15.0347
4675 1 48.2693 29.2781 16.6173
4676 1 49.8519 30.8607 18.1999
4677 1 48.2693 29.2781 19.7825
4678 1 49.8519 30.8607 21.3651
4679 1 48.2693 29.2781 22.9477
4680 1 49.8519 30.8607 24.5303
4681 1 48.2693 29.2781 26.1129
4682 1 49.8519 30.8607 27.6955
4683 1 48.2693 29.2781 29.2781
4684 1 49.8519 30.8607 30.8607
4685 1 48.2693 29.2781 32.4433
4686 1 49.8519 30.8607 34.0259
4687 1 48.2693 29.2781 35.6085
4688 1 49.8519 30.8607 37.1911
4689 1 48.2693 29.2781 38.7737
4690 1 49.8519 30.8607 40.3563
4691 1 48.2693 29.2781 41.9389
4692 1 49.8519 30.8607 43.5215
4693 1 48.2693 29.2781 45.1041
4694 1 49.8519 30.8607 46.6867
4695 1 48.2693 29.2781 48.2693
4696 1 49.8519 30.8607 49.8519
4697 1 48.2693 32.4433 0.7913
4698 1 49.8519 34.0259 2.3739
4699 1 48.2693 32.4433 3.9565
4700 1 49.8519 34.0259 5.5391
4701 1 48.2693 32.4433 7.1217
4702 1 49.8519 34.0259 8.7043
4703 1 48.2693 32.4433 10.2869
4704 1 49.8519 34.0259 11.8695
4705 1 48.2693 32.4433 13.4521
4706 1 49.8519 34.0259 15.0347
4707 1 48.2693 32.4433 16.6173
4708 1 49.8519 34.0259 18.1999
4709 1 48.2693 32.4433 19.7825
4710 1 49.8519 34.0259 21.3651
4711 1 48.2693 32.4433 22.9477
4712 1 49.8519 34.0259 24.5303
4713 1 48.2693 32.4433 26.1129
4714 1 49.8519 34.0259 27.6955
4715 1 48.2693 32.4433 29.2781
4716 1 49.8519 34.0259 30.8607
4717 1 48.2693 32.4433 32.4433
4718 1 49.8519 34.0259 34.0259
4719 1 48.2693 32.4433 35.6085
4720 1 49.8519 34.0259 37.1911
4721 1 48.2693 32.4433 38.7737
4722 1 49.8519 34.0259 40.3563
4723 1 48.2693 32.4433 41.9389
4724 1 49.8519 34.0259 43.5215
4725 1 48.2693 32.4433 45.1041
4726 1 49.8519 34.0259 46.6867
4727 1 48.2693 32.4433 48.2693
4728 1 49.8519 34.0259 49.8519
4729 1 48.2693 35.6085 0.7913
4730 1 49.8519 37.1911 2.3739
4731 1 48.2693 35.6085 3.9565
4732 1 49.8519 37.1911 5.5391
4733 1 48.2693 35.6085 7.1217
4734 1 49.8519 37.1911 8.7043
4735 1 48.2693 35.6085 10.2869
4736 1 49.8519 37.1911 11.8695
4737 1 48.2693 35.6085 13.4521
4738 1 49.8519 37.1911 15.0347
4739 1 48.2693 35.6085 16.6173
4740 1 49.8519 37.1911 18.1999
4741 1 48.2693 35.6085 19.7825
4742 1 49.8519 37.1911 21.3651
4743 1 48.2693 35.6085 22.9477
4744 1 49.8519 37.1911 24.5303
4745 1 48.2693 35.6085 26.1129
4746 1 49.8519 37.1911 27.6955
4747 1 48.2693 35.6085 29.2781
4748 1 49.8519 37.1911 30.8607
4749 1 48.2693 35.6085 32.4433
4750 1 49.8519 37.1911 34.0259
4751 1 48.2693 35.6085 35.6085
4752 1 49.8519 37.1911 37.1911
4753 1 48.2693 35.6085 38.7737
4754 1 49.8519 37.1911 40.3563
4755 1 48.2693 35.6085 41.9389
4756 1 49.8519 37.1911 43.5215
4757 1 48.2693 35.6085 45.1041
4758 1 49.8519 37.1911 46.6867
4759 1 48.2693 35.6085 48.2693
4760 1 49.8519 37.1911 49.8519
4761 1 48.2693 38.7737 0.7913
4762 1 49.8519 40.3563 2.3739
4763 1 48.2693 38.7737 3.9565
4764 1 49.8519 40.3563 5.5391
4765 1 48.2693 38.7737 7.1217
4766 1 49.8519 40.3563 8.7043
4767 1 48.2693 38.7737 10.2869
4768 1 49.8519 40.3563 11.8695
4769 1 48.2693 38.7737 13.4521
4770 1 49.8519 40.3563 15.0347
4771 1 48.2693 38.7737 16.6173
4772 1 49.8519 40.3563 18.1999
4773 1 48.2693 38.7737 19.7825
4774 1 49.8519 40.3563 21.3651
4775 1 48.2693 38.7737 22.9477
4776 1 49.8519 40.3563 24.5303
4777 1 48.2693 38.7737 26.1129
4778 1 49.8519 40.3563 27.6955
4779 1 48.2693 38.7737 29.2781
4780 1 49.8519 40.3563 30.8607
4781 1 48.2693 38.7737 32.4433
4782 1 49.8519 40.3563 34.0259
4783 1 48.2693 38.7737 35.6085
4784 1 49.8519 40.3563 37.1911
4785 1 48.2693 38.7737 38.7737
4786 1 49.8519 40.3563 40.3563
4787 1 48.2693 38.7737 41.9389
4788 1 49.8519 40.3563 43.5215
4789 1 48.2693 38.7737 45.1041
4790 1 49.8519 40.3563 46.6867
4791 1 48.2693 38.7737 48.2693
4792 1 49.8519 40.3563 49.8519
4793 1 48.2693 41.9389 0.7913
4794 1 49.8519 43.5215 2.3739
4795 1 48.2693 41.9389 3.9565
4796 1 49.8519 43.5215 5.5391
4797 1 48.2693 41.9389 7.1217
4798 1 49.8519 43.5215 8.7043
4799 1 48.2693 41.9389 10.2869
4800 1 49.8519 43.5215 11.8695
4801 1 48.2693 41.9389 13.4521
4802 1 49.8519 43.5215 15.0347
4803 1 48.2693 41.9389 16.6173
4804 1 49.8519 43.5215 18.1999
4805 1 48.2693 41.9389 19.7825
4806 1 49.8519 43.5215 21.3651
4807 1 48.2693 41.9389 22.9477
4808 1 49.8519 43.5215 24.5303
4809 1 48.2693 41.9389 26.1129
4810 1 49.8519 43.5215 27.6955
4811 1 48.2693 41.9389 29.2781
4812 1 49.8519 43.5215 30.8607
4813 1 48.2693 41.9389 32.4433
4814 1 49.8519 43.5215 34.0259
4815 1 48.2693 41.9389 35.6085
4816 1 49.8519 43.5215 37.1911
4817 1 48.2693 41.9389 38.7737
4818 1 49.8519 43.5215 40.3563
4819 1 48.2693 41.9389 41.9389
4820 1 49.8519 43.5215 43.5215
4821 1 48.2693 41.9389 45.1041
4822 1 49.8519 43.5215 46.6867
4823 1 48.2693 41.9389 48.2693
4824 1 49.8519 43.5215 49.8519
4825 1 48.2693 45.1041 0.7913
4826 1 49.8519 46.6867 2.3739
4827 1 48.2693 45.1041 3.9565
4828 1 49.8519 46.6867 5.5391
4829 1 48.2693 45.1041 7.1217
4830 1 49.8519 46.6867 8.7043
4831 1 48.2693 45.1041 10.2869
4832 1 49.8519 46.6867 11.8695
4833 1 48.2693 45.1041 13.4521
4834 1 49.8519 46.6867 15.0347
4835 1 48.2693 45.1041 16.6173
4836 1 49.8519 46.6867 18.1999
4837 1 48.2693 45.1041 19.7825
4838 1 49.8519 46.6867 21.3651
4839 1 48.2693 45.1041 22.9477
4840 1 49.8519 46.6867 24.5303
4841 1 48.2693 45.1041 26.1129
4842 1 49.8519 46.6867 27.6955
4843 1 48.2693 45.1041 29.2781
4844 1 49.8519 46.6867 30.8607
4845 1 48.2693 45.1041 32.4433
4846 1 49.8519 46.6867 34.0259
4847 1 48.2693 45.1041 35.6085
4848 1 49.8519 46.6867 37.1911
4849 1 48.2693 45.1041 38.7737
4850 1 49.8519 46.6867 40.3563
4851 1 48.2693 45.1041 41.9389
4852 1 49.8519 46.6867 43.5215
4853 1 48.2693 45.1041 45.1041
4854 1 49.8519 46.6867 46.6867
4855 1 48.2693 45.1041 48.2693
4856 1 49.8519 46.6867 49.8519
4857 1 48.2693 48.2693 0.7913
4858 1 49.8519 49.8519 2.3739
4859 1 48.2693 48.2693 3.9565
4860 1 49.8519 49.8519 5.5391
4861 1 48.2693 48.2693 7.1217
4862 1 49.8519 49.8519 8.7043
4863 1 48.2693 48.2693 10.2869
4864 1 49.8519 49.8519 11.8695
4865 1 48.2693 48.2693 13.4521
4866 1 49.8519 49.8519 15.0347
4867 1 48.2693 48.2693 16.6173
4868 1 49.8519 49.8519 18.1999
4869 1 48.2693 48.2693 19.7825
4870 1 49.8519 49.8519 21.3651
4871 1 48.2693 48.2693 22.9477
4872 1 49.8519 49.8519 24.5303
4873 1 48.2693 48.2693 26.1129
4874 1 49.8519 49.8519 27.6955
4875 1 48.2693 48.2693 29.2781
4876 1 49.8519 49.8519 30.8607
4877 1 48.2693 48.2693 32.4433
4878 1 49.8519 49.8519 34.0259
4879 1 48.2693 48.2693 35.6085
4880 1 49.8519 49.8519 37.1911
4881 1 48.2693 48.2693 38.7737
4882 1 49.8519 49.8519 40.3563
4883 1 48.2693 48.2693 41.9389
4884 1 49.8519 49.8519 43.5215
4885 1 48.2693 48.2693 45.1041
4886 1 49.8519 49.8519 46.6867
4887 1 48.2693 48.2693 48.2693
4888 1 49.8519 49.8519 49.8519
4889 1 10.2869 0.7913 0.7913
4890 1 11.8695 2.3739 2.3739
4891 1 10.2869 0.7913 3.9565
4892 1 11.8695 2.3739 5.5391
4893 1 10.2869 0.7913 7.1217
4894 1 11.8695 2.3739 8.7043
4895 1 10.2869 0.7913 10.2869
4896 1 11.8695 2.3739 11.8695
4897 1 10.2869 3.9565 0.7913
4898 1 11.8695 5.5391 2.3739
4899 1 10.2869 3.9565 3.9565
4900 1 11.8695 5.5391 5.5391
4901 1 10.2869 3.9565 7.1217
4902 1 11.8695 5.5391 8.7043
4903 1 10.2869 3.9565 10.2869
4904 1 11.8695 5.5391 11.8695
4905 1 10.2869 7.1217 0.7913
4906 1 11.8695 8.7043 2.3739
4907 1 10.2869 7.1217 3.9565
4908 1 11.8695 8.7043 5.5391
4909 1 10.2869 7.1217 7.1217
4910 1 11.8695 8.7043 8.7043
4911 1 10.2869 7.1217 10.2869
4912 1 11.8695 8.7043 11.8695
4913 1 10.2869 10.2869 0.7913
4914 1 11.8695 11.8695 2.3739
4915 1 10.2869 10.2869 3.9565
4916 1 11.8695 11.8695 5.5391
4917 1 10.2869 10.2869 7.1217
4918 1 11.8695 11.8695 8.7043
4919 1 10.2869 10.2869 10.2869
4920 1 11.8695 11.8695 11.8695
4921 1 10.2869 13.4521 0.7913
4922 1 11.8695 15.0347 2.3739
4923 1 10.2869 13.4521 3.9565
4924 1 11.8695 15.0347 5.5391
4925 1 10.2869 13.4521 7.1217
4926 1 11.8695 15.0347 8.7043
4927 1 10.2869 13.4521 10.2869
4928 1 11.8695 15.0347 11.8695
4929 1 10.2869 16.6173 0.7913
4930 1 11.8695 18.1999 2.3739
4931 1 10.2869 16.6173 3.9565
4932 1 11.8695 18.1999 5.5391
4933 1 10.2869 16.6173 7.1217
4934 1 11.8695 18.1999 8.7043
4935 1 10.2869 16.6173 10.2869
4936 1 11.8695 18.1999 11.8695
4937 1 10.2869 19.7825 0.7913
4938 1 11.8695 21.3651 2.3739
4939 1 10.2869 19.7825 3.9565
4940 1 11.8695 21.3651 5.5391
4941 1 10.2869 19.7825 7.1217
4942 1 11.8695 21.3651 8.7043
4943 1 10.2869 19.7825 10.2869
4944 1 11.8695 21.3651 11.8695
4945 1 10.2869 22.9477 0.7913
4946 1 11.8695 24.5303 2.3739
4947 1 10.2869 22.9477 3.9565
4948 1 11.8695 24.5303 5.5391
4949 1 10.2869 22.9477 7.1217
4950 1 11.8695 24.5303 8.7043
4951 1 10.2869 22.9477 10.2869
4952 1 11.8695 24.5303 11.8695
4953 1 10.2869 26.1129 0.7913
4954 1 11.8695 27.6955 2.3739
4955 1 10.2869 26.1129 3.9565
4956 1 11.8695 27.6955 5.5391
4957 1 10.2869 26.1129 7.1217
4958 1 11.8695 27.6955 8.7043
4959 1 10.2869 26.1129 10.2869
4960 1 11.8695 27.6955 11.8695
4961 1 10.2869 29.2781 0.7913
4962 1 11.8695 30.8607 2.3739
4963 1 10.2869 29.2781 3.9565
4964 1 11.8695 30.8607 5.5391
4965 1 10.2869 29.2781 7.1217
4966 1 11.8695 30.8607 8.7043
4967 1 10.2869 29.2781 10.2869
4968 1 11.8695 30.8607 11.8695
4969 1 10.2869 32.4433 0.7913
4970 1 11.8695 34.0259 2.3739
4971 1 10.2869 32.4433 3.9565
4972 1 11.8695 34.0259 5.5391
4973 1 10.2869 32.4433 7.1217
4974 1 11.8695 34.0259 8.7043
4975 1 10.2869 32.4433 10.2869
4976 1 11.8695 34.0259 11.8695
4977 1 10.2869 35.6085 0.7913
4978 1 11.8695 37.1911 2.3739
4979 1 10.2869 35.6085 3.9565
4980 1 11.8695 37.1911 5.5391
4981 1 10.2869 35.6085 7.1217
4982 1 11.8695 37.1911 8.7043
4983 1 10.2869 35.6085 10.2869
4984 1 11.8695 37.1911 11.8695
4985 1 10.2869 38.7737 0.7913
4986 1 11.8695 40.3563 2.3739
4987 1 10.2869 38.7737 3.9565
4988 1 11.8695 40.3563 5.5391
4989 1 10.2869 38.7737 7.1217
4990 1 11.8695 40.3563 8.7043
4991 1 10.2869 38.7737 10.2869
4992 1 11.8695 40.3563 11.8695
4993 1 10.2869 41.9389 0.7913
4994 1 11.8695 43.5215 2.3739
4995 1 10.2869 41.9389 3.9565
4996 1 11.8695 43.5215 5.5391
4997 1 10.2869 41.9389 7.1217
4998 1 11.8695 43.5215 8.7043
4999 1 10.2869 41.9389 10.2869
5000 1 11.8695 43.5215 11.8695
5001 1 10.2869 45.1041 0.7913
5002 1 11.8695 46.6867 2.3739
5003 1 10.2869 45.1041 3.9565
5004 1 11.8695 46.6867 5.5391
5005 1 10.2869 45.1041 7.1217
5006 1 11.8695 46.6867 8.7043
5007 1 10.2869 45.1041 10.2869
5008 1 11.8695 46.6867 11.8695
5009 1 10.2869 48.2693 0.7913
5010 1 11.8695 49.8519 2.3739
5011 1 10.2869 48.2693 3.9565
5012 1 11.8695 49.8519 5.5391
5013 1 10.2869 48.2693 7.1217
5014 1 11.8695 49.8519 8.7043
5015 1 10.2869 48.2693 10.2869
5016 1 11.8695 49.8519 11.8695
5017 1 13.4521 0.7913 0.7913
5018 1 15.0347 2.3739 2.3739
5019 1 13.4521 0.7913 3.9565
5020 1 15.0347 2.3739 5.5391
5021 1 13.4521 0.7913 7.1217
5022 1 15.0347 2.3739 8.7043
5023 1 13.4521 0.7913 10.2869
5024 1 15.0347 2.3739 11.8695
5025 1 13.4521 3.9565 0.7913
5026 1 15.0347 5.5391 2.3739
5027 1 13.4521 3.9565 3.9565
5028 1 15.0347 5.5391 5.5391
5029 1 13.4521 3.9565 7.1217
5030 1 15.0347 5.5391 8.7043
5031 1 13.4521 3.9565 10.2869
5032 1 15.0347 5.5391 11.8695
5033 1 13.4521 7.1217 0.7913
5034 1 15.0347 8.7043 2.3739
5035 1 13.4521 7.1217 3.9565
5036 1 15.0347 8.7043 5.5391
5037 1 13.4521 7.1217 7.1217
5038 1 15.0347 8.7043 8.7043
5039 1 13.4521 7.1217 10.2869
5040 1 15.0347 8.7043 11.8695
5041 1 13.4521 10.2869 0.7913
5042 1 15.0347 11.8695 2.3739
5043 1 13.4521 10.2869 3.9565
5044 1 15.0347 11.8695 5.5391
5045 1 13.4521 10.2869 7.1217
5046 1 15.0347 11.8695 8.7043
5047 1 13.4521 10.2869 10.2869
5048 1 15.0347 11.8695 11.8695
5049 1 13.4521 13.4521 0.7913
5050 1 15.0347 15.0347 2.3739
5051 1 13.4521 13.4521 3.9565
5052 1 15.0347 15.0347 5.5391
5053 1 13.4521 13.4521 7.1217
5054 1 15.0347 15.0347 8.7043
5055 1 13.4521 13.4521 10.2869
5056 1 15.0347 15.0347 11.8695
5057 1 13.4521 16.6173 0.7913
5058 1 15.0347 18.1999 2.3739
5059 1 13.4521 16.6173 3.9565
5060 1 15.0347 18.1999 5.5391
5061 1 13.4521 16.6173 7.1217
5062 1 15.0347 18.1999 8.7043
5063 1 13.4521 16.6173 10.2869
5064 1 15.0347 18.1999 11.8695
5065 1 13.4521 19.7825 0.7913
5066 1 15.0347 21.3651 2.3739
5067 1 13.4521 19.7825 3.9565
5068 1 15.0347 21.3651 5.5391
5069 1 13.4521 19.7825 7.1217
5070 1 15.0347 21.3651 8.7043
5071 1 13.4521 19.7825 10.2869
5072 1 15.0347 21.3651 11.8695
5073 1 13.4521 22.9477 0.7913
5074 1 15.0347 24.5303 2.3739
5075 1 13.4521 22.9477 3.9565
5076 1 15.0347 24.5303 5.5391
5077 1 13.4521 22.9477 7.1217
5078 1 15.0347 24.5303 8.7043
5079 1 13.4521 22.9477 10.2869
5080 1 15.0347 24.5303 11.8695
5081 1 13.4521 26.1129 0.7913
5082 1 15.0347 27.6955 2.3739
5083 1 13.4521 26.1129 3.9565
5084 1 15.0347 27.6955 5.5391
5085 1 13.4521 26.1129 7.1217
5086 1 15.0347 27.6955 8.7043
5087 1 13.4521 26.1129 10.2869
5088 1 15.0347 27.6955 11.8695
5089 1 13.4521 29.2781 0.7913
5090 1 15.0347 30.8607 2.3739
5091 1 13.4521 29.2781 3.9565
5092 1 15.0347 30.8607 5.5391
5093 1 13.4521 29.2781 7.1217
5094 1 15.0347 30.8607 8.7043
5095 1 13.4521 29.2781 10.2869
5096 1 15.0347 30.8607 11.8695
5097 1 13.4521 32.4433 0.7913
5098 1 15.0347 34.0259 2.3739
5099 1 13.4521 32.4433 3.9565
5100 1 15.0347 34.0259 5.5391
5101 1 13.4521 32.4433 7.1217
5102 1 15.0347 34.0259 8.7043
5103 1 13.4521 32.4433 10.2869
5104 1 15.0347 34.0259 11.8695
5105 1 13.4521 35.6085 0.7913
5106 1 15.0347 37.1911 2.3739
5107 1 13.4521 35.6085 3.9565
5108 1 15.0347 37.1911 5.5391
5109 1 13.4521 35.6085 7.1217
5110 1 15.0347 37.1911 8.7043
5111 1 13.4521 35.6085 10.2869
5112 1 15.0347 37.1911 11.8695
5113 1 13.4521 38.7737 0.7913
5114 1 15.0347 40.3563 2.3739
5115 1 13.4521 38.7737 3.9565
5116 1 15.0347 40.3563 5.5391
5117 1 13.4521 38.7737 7.1217
5118 1 15.0347 40.3563 8.7043
5119 1 13.4521 38.7737 10.2869
5120 1 15.0347 40.3563 11.8695
5121 1 13.4521 41.9389 0.7913
5122 1 15.0347 43.5215 2.3739
5123 1 13.4521 41.9389 3.9565
5124 1 15.0347 43.5215 5.5391
5125 1 13.4521 41.9389 7.1217
5126 1 15.0347 43.5215 8.7043
5127 1 13.4521 41.9389 10.2869
5128 1 15.0347 43.5215 11.8695
5129 1 13.4521 45.1041 0.7913
5130 1 15.0347 46.6867 2.3739
5131 1 13.4521 45.1041 3.9565
5132 1 15.0347 46.6867 5.5391
5133 1 13.4521 45.1041 7.1217
5134 1 15.0347 46.6867 8.7043
5135 1 13.4521 45.1041 10.2869
5136 1 15.0347 46.6867 11.8695
5137 1 13.4521 48.2693 0.7913
5138 1 15.0347 49.8519 2.3739
5139 1 13.4521 48.2693 3.9565
5140 1 15.0347 49.8519 5.5391
5141 1 13.4521 48.2693 7.1217
5142 1 15.0347 49.8519 8.7043
5143 1 13.4521 48.2693 10.2869
5144 1 15.0347 49.8519 11.8695
5145 1 16.6173 0.7913 0.7913
5146 1 18.1999 2.3739 2.3739
5147 1 16.6173 0.7913 3.9565
5148 1 18.1999 2.3739 5.5391
5149 1 16.6173 0.7913 7.1217
5150 1 18.1999 2.3739 8.7043
5151 1 16.6173 0.7913 10.2869
5152 1 18.1999 2.3739 11.8695
5153 1 16.6173 3.9565 0.7913
5154 1 18.1999 5.5391 2.3739
5155 1 16.6173 3.9565 3.9565
5156 1 18.1999 5.5391 5.5391
5157 1 16.6173 3.9565 7.1217
5158 1 18.1999 5.5391 8.7043
5159 1 16.6173 3.9565 10.2869
5160 1 18.1999 5.5391 11.8695
5161 1 16.6173 7.1217 0.7913
5162 1 18.1999 8.7043 2.3739
5163 1 16.6173 7.1217 3.9565
5164 1 18.1999 8.7043 5.5391
5165 1 16.6173 7.1217 7.1217
5166 1 18.1999 8.7043 8.7043
5167 1 16.6173 7.1217 10.2869
5168 1 18.1999 8.7043 11.8695
5169 1 16.6173 10.2869 0.7913
5170 1 18.1999 11.8695 2.3739
5171 1 16.6173 10.2869 3.9565
5172 1 18.1999 11.8695 5.5391
5173 1 16.6173 10.2869 7.1217
5174 1 18.1999 11.8695 8.7043
5175 1 16.6173 10.2869 10.2869
5176 1 18.1999 11.8695 11.8695
5177 1 16.6173 13.4521 0.7913
5178 1 18.1999 15.0347 2.3739
5179 1 16.6173 13.4521 3.9565
5180 1 18.1999 15.0347 5.5391
5181 1 16.6173 13.4521 7.1217
5182 1 18.1999 15.0347 8.7043
5183 1 16.6173 13.4521 10.2869
5184 1 18.1999 15.0347 11.8695
5185 1 16.6173 16.6173 0.7913
5186 1 18.1999 18.1999 2.3739
5187 1 16.6173 16.6173 3.9565
5188 1 18.1999 18.1999 5.5391
5189 1 16.6173 16.6173 7.1217
5190 1 18.1999 18.1999 8.7043
5191 1 16.6173 16.6173 10.2869
5192 1 18.1999 18.1999 11.8695
5193 1 16.6173 19.7825 0.7913
5194 1 18.1999 21.3651 2.3739
5195 1 16.6173 19.7825 3.9565
5196 1 18.1999 21.3651 5.5391
5197 1 16.6173 19.7825 7.1217
5198 1 18.1999 21.3651 8.7043
5199 1 16.6173 19.7825 10.2869
5200 1 18.1999 21.3651 11.8695
5201 1 16.6173 22.9477 0.7913
5202 1 18.1999 24.5303 2.3739
5203 1 16.6173 22.9477 3.9565
5204 1 18.1999 24.5303 5.5391
5205 1 16.6173 22.9477 7.1217
5206 1 18.1999 24.5303 8.7043
5207 1 16.6173 22.9477 10.2869
5208 1 18.1999 24.5303 11.8695
5209 1 16.6173 26.1129 0.7913
5210 1 18.1999 27.6955 2.3739
5211 1 16.6173 26.1129 3.9565
5212 1 18.1999 27.6955 5.5391
5213 1 16.6173 26.1129 7.1217
5214 1 18.1999 27.6955 8.7043
5215 1 16.6173 26.1129 10.2869
5216 1 18.1999 27.6955 11.8695
5217 1 16.6173 29.2781 0.7913
5218 1 18.1999 30.8607 2.3739
5219 1 16.6173 29.2781 3.9565
5220 1 18.1999 30.8607 5.5391
5221 1 16.6173 29.2781 7.1217
5222 1 18.1999 30.8607 8.7043
5223 1 16.6173 29.2781 10.2869
5224 1 18.1999 30.8607 11.8695
5225 1 16.6173 32.4433 0.7913
5226 1 18.1999 34.0259 2.3739
5227 1 16.6173 32.4433 3.9565
5228 1 18.1999 34.0259 5.5391
5229 1 16.6173 32.4433 7.1217
5230 1 18.1999 34.0259 8.7043
5231 1 16.6173 32.4433 10.2869
5232 1 18.1999 34.0259 11.8695
5233 1 16.6173 35.6085 0.7913
5234 1 18.1999 37.1911 2.3739
5235 1 16.6173 35.6085 3.9565
5236 1 18.1999 37.1911 5.5391
5237 1 16.6173 35.6085 7.1217
5238 1 18.1999 37.1911 8.7043
5239 1 16.6173 35.6085 10.2869
5240 1 18.1999 37.1911 11.8695
5241 1 16.6173 38.7737 0.7913
5242 1 18.1999 40.3563 2.3739
5243 1 16.6173 38.7737 3.9565
5244 1 18.1999 40.3563 5.5391
5245 1 16.6173 38.7737 7.1217
5246 1 18.1999 40.3563 8.7043
5247 1 16.6173 38.7737 10.2869
5248 1 18.1999 40.3563 11.8695
5249 1 16.6173 41.9389 0.7913
5250 1 18.1999 43.5215 2.3739
5251 1 16.6173 41.9389 3.9565
5252 1 18.1999 43.5215 5.5391
5253 1 16.6173 41.9389 7.1217
5254 1 18.1999 43.5215 8.7043
5255 1 16.6173 41.9389 10.2869
5256 1 18.1999 43.5215 11.8695
5257 1 16.6173 45.1041 0.7913
5258 1 18.1999 46.6867 2.3739
5259 1 16.6173 45.1041 3.9565
5260 1 18.1999 46.6867 5.5391
5261 1 16.6173 45.1041 7.1217
5262 1 18.1999 46.6867 8.7043
5263 1 16.6173 45.1041 10.2869
5264 1 18.1999 46.6867 11.8695
5265 1 16.6173 48.2693 0.7913
5266 1 18.1999 49.8519 2.3739
5267 1 16.6173 48.2693 3.9565
5268 1 18.1999 49.8519 5.5391
5269 1 16.6173 48.2693 7.1217
5270 1 18.1999 49.8519 8.7043
5271 1 16.6173 48.2693 10.2869
5272 1 18.1999 49.8519 11.8695
5273 1 19.7825 0.7913 0.7913
5274 1 21.3651 2.3739 2.3739
5275 1 19.7825 0.7913 3.9565
5276 1 21.3651 2.3739 5.5391
5277 1 19.7825 0.7913 7.1217
5278 1 21.3651 2.3739 8.7043
5279 1 19.7825 0.7913 10.2869
5280 1 21.3651 2.3739 11.8695
5281 1 19.7825 3.9565 0.7913
5282 1 21.3651 5.5391 2.3739
5283 1 19.7825 3.9565 3.9565
5284 1 21.3651 5.5391 5.5391
5285 1 19.7825 3.9565 7.1217
5286 1 21.3651 5.5391 8.7043
5287 1 19.7825 3.9565 10.2869
5288 1 21.3651 5.5391 11.8695
5289 1 19.7825 7.1217 0.7913
5290 1 21.3651 8.7043 2.3739
5291 1 19.7825 7.1217 3.9565
5292 1 21.3651 8.7043 5.5391
5293 1 19.7825 7.1217 7.1217
5294 1 21.3651 8.7043 8.7043
5295 1 19.7825 7.1217 10.2869
5296 1 21.3651 8.7043 11.8695
5297 1 19.7825 10.2869 0.7913
5298 1 21.3651 11.8695 2.3739
5299 1 19.7825 10.2869 3.9565
5300 1 21.3651 11.8695 5.5391
5301 1 19.7825 10.2869 7.1217
5302 1 21.3651 11.8695 8.7043
5303 1 19.7825 10.2869 10.2869
5304 1 21.3651 11.8695 11.8695
5305 1 19.7825 13.4521 0.7913
5306 1 21.3651 15.0347 2.3739
5307 1 19.7825 13.4521 3.9565
5308 1 21.3651 15.0347 5.5391
5309 1 19.7825 13.4521 7.1217
5310 1 21.3651 15.0347 8.7043
5311 1 19.7825 13.4521 10.2869
5312 1 21.3651 15.0347 11.8695
5313 1 19.7825 16.6173 0.7913
5314 1 21.3651 18.1999 2.3739
5315 1 19.7825 16.6173 3.9565
5316 1 21.3651 18.1999 5.5391
5317 1 19.7825 16.6173 7.1217
5318 1 21.3651 18.1999 8.7043
5319 1 19.7825 16.6173 10.2869
5320 1 21.3651 18.1999 11.8695
5321 1 19.7825 19.7825 0.7913
5322 1 21.3651 21.3651 2.3739
5323 1 19.7825 19.7825 3.9565
5324 1 21.3651 21.3651 5.5391
5325 1 19.7825 19.7825 7.1217
5326 1 21.3651 21.3651 8.7043
5327 1 19.7825 19.7825 10.2869
5328 1 21.3651 21.3651 11.8695
5329 1 19.7825 22.9477 0.7913
5330 1 21.3651 24.5303 2.3739
5331 1 19.7825 22.9477 3.9565
5332 1 21.3651 24.5303 5.5391
5333 1 19.7825 22.9477 7.1217
5334 1 21.3651 24.5303 8.7043
5335 1 19.7825 22.9477 10.2869
5336 1 21.3651 24.5303 11.8695
5337 1 19.7825 26.1129 0.7913
5338 1 21.3651 27.6955 2.3739
5339 1 19.7825 26.1129 3.9565
5340 1 21.3651 27.6955 5.5391
5341 1 19.7825 26.1129 7.1217
5342 1 21.3651 27.6955 8.7043
5343 1 19.7825 26.1129 10.2869
5344 1 21.3651 27.6955 11.8695
5345 1 19.7825 29.2781 0.7913
5346 1 21.3651 30.8607 2.3739
5347 1 19.7825 29.2781 3.9565
5348 1 21.3651 30.8607 5.5391
5349 1 19.7825 29.2781 7.1217
5350 1 21.3651 30.8607 8.7043
5351 1 19.7825 29.2781 10.2869
5352 1 21.3651 30.8607 11.8695
5353 1 19.7825 32.4433 0.7913
5354 1 21.3651 34.0259 2.3739
5355 1 19.7825 32.4433 3.9565
5356 1 21.3651 34.0259 5.5391
5357 1 19.7825 32.4433 7.1217
5358 1 21.3651 34.0259 8.7043
5359 1 19.7825 32.4433 10.2869
5360 1 21.3651 34.0259 11.8695
5361 1 19.7825 35.6085 0.7913
5362 1 21.3651 37.1911 2.3739
5363 1 19.7825 35.6085 3.9565
5364 1 21.3651 37.1911 5.5391
5365 1 19.7825 35.6085 7.1217
5366 1 21.3651 37.1911 8.7043
5367 1 19.7825 35.6085 10.2869
5368 1 21.3651 37.1911 11.8695
5369 1 19.7825 38.7737 0.7913
5370 1 21.3651 40.3563 2.3739
5371 1 19.7825 38.7737 3.9565
5372 1 21.3651 40.3563 5.5391
5373 1 19.7825 38.7737 7.1217
5374 1 21.3651 40.3563 8.7043
5375 1 19.7825 38.7737 10.2869
5376 1 21.3651 40.3563 11.8695
5377 1 19.7825 41.9389 0.7913
5378 1 21.3651 43.5215 2.3739
5379 1 19.7825 41.9389 3.9565
5380 1 21.3651 43.5215 5.5391
5381 1 19.7825 41.9389 7.1217
5382 1 21.3651 43.5215 8.7043
5383 1 19.7825 41.9389 10.2869
5384 1 21.3651 43.5215 11.8695
5385 1 19.7825 45.1041 0.7913
5386 1 21.3651 46.6867 2.3739
5387 1 19.7825 45.1041 3.9565
5388 1 21.3651 46.6867 5.5391
5389 1 19.7825 45.1041 7.1217
5390 1 21.3651 46.6867 8.7043
5391 1 19.7825 45.1041 10.2869
5392 1 21.3651 46.6867 11.8695
5393 1 19.7825 48.2693 0.7913
5394 1 21.3651 49.8519 2.3739
5395 1 19.7825 48.2693 3.9565
5396 1 21.3651 49.8519 5.5391
5397 1 19.7825 48.2693 7.1217
5398 1 21.3651 49.8519 8.7043
5399 1 19.7825 48.2693 10.2869
5400 1 21.3651 49.8519 11.8695
5401 1 22.9477 0.7913 0.7913
5402 1 24.5303 2.3739 2.3739
5403 1 22.9477 0.7913 3.9565
5404 1 24.5303 2.3739 5.5391
5405 1 22.9477 0.7913 7.1217
5406 1 24.5303 2.3739 8.7043
5407 1 22.9477 0.7913 10.2869
5408 1 24.5303 2.3739 11.8695
5409 1 22.9477 3.9565 0.7913
5410 1 24.5303 5.5391 2.3739
5411 1 22.9477 3.9565 3.9565
5412 1 24.5303 5.5391 5.5391
5413 1 22.9477 3.9565 7.1217
5414 1 24.5303 5.5391 8.7043
5415 1 22.9477 3.9565 10.2869
5416 1 24.5303 5.5391 11.8695
5417 1 22.9477 7.1217 0.7913
5418 1 24.5303 8.7043 2.3739
5419 1 22.9477 7.1217 3.9565
5420 1 24.5303 8.7043 5.5391
5421 1 22.9477 7.1217 7.1217
5422 1 24.5303 8.7043 8.7043
5423 1 22.9477 7.1217 10.2869
5424 1 24.5303 8.7043 11.8695
5425 1 22.9477 10.2869 0.7913
5426 1 24.5303 11.8695 2.3739
5427 1 22.9477 10.2869 3.9565
5428 1 24.5303 11.8695 5.5391
5429 1 22.9477 10.2869 7.1217
5430 1 24.5303 11.8695 8.7043
5431 1 22.9477 10.2869 10.2869
5432 1 24.5303 11.8695 11.8695
5433 1 22.9477 13.4521 0.7913
5434 1 24.5303 15.0347 2.3739
5435 1 22.9477 13.4521 3.9565
5436 1 24.5303 15.0347 5.5391
5437 1 22.9477 13.4521 7.1217
5438 1 24.5303 15.0347 8.7043
5439 1 22.9477 13.4521 10.2869
5440 1 24.5303 15.0347 11.8695
5441 1 22.9477 16.6173 0.7913
5442 1 24.5303 18.1999 2.3739
5443 1 22.9477 16.6173 3.9565
5444 1 24.5303 18.1999 5.5391
5445 1 22.9477 16.6173 7.1217
5446 1 24.5303 18.1999 8.7043
5447 1 22.9477 16.6173 10.2869
5448 1 24.5303 18.1999 11.8695
5449 1 22.9477 19.7825 0.7913
5450 1 24.5303 21.3651 2.3739
5451 1 22.9477 19.7825 3.9565
5452 1 24.5303 21.3651 5.5391
5453 1 22.9477 19.7825 7.1217
5454 1 24.5303 21.3651 8.7043
5455 1 22.9477 19.7825 10.2869
5456 1 24.5303 21.3651 11.8695
5457 1 22.9477 22.9477 0.7913
5458 1 24.5303 24.5303 2.3739
5459 1 22.9477 22.9477 3.9565
5460 1 24.5303 24.5303 5.5391
5461 1 22.9477 22.9477 7.1217
5462 1 24.5303 24.5303 8.7043
5463 1 22.9477 22.9477 10.2869
5464 1 24.5303 24.5303 11.8695
5465 1 22.9477 26.1129 0.7913
5466 1 24.5303 27.6955 2.3739
5467 1 22.9477 26.1129 3.9565
5468 1 24.5303 27.6955 5.5391
5469 1 22.9477 26.1129 7.1217
5470 1 24.5303 27.6955 8.7043
5471 1 22.9477 26.1129 10.2869
5472 1 24.5303 27.6955 11.8695
5473 1 22.9477 29.2781 0.7913
5474 1 24.5303 30.8607 2.3739
5475 1 22.9477 29.2781 3.9565
5476 1 24.5303 30.8607 5.5391
5477 1 22.9477 29.2781 7.1217
5478 1 24.5303 30.8607 8.7043
5479 1 22.9477 29.2781 10.2869
5480 1 24.5303 30.8607 11.8695
5481 1 22.9477 32.4433 0.7913
5482 1 24.5303 34.0259 2.3739
5483 1 22.9477 32.4433 3.9565
5484 1 24.5303 34.0259 5.5391
5485 1 22.9477 32.4433 7.1217
5486 1 24.5303 34.0259 8.7043
5487 1 22.9477 32.4433 10.2869
5488 1 24.5303 34.0259 11.8695
5489 1 22.9477 35.6085 0.7913
5490 1 24.5303 37.1911 2.3739
5491 1 22.9477 35.6085 3.9565
5492 1 24.5303 37.1911 5.5391
5493 1 22.9477 35.6085 7.1217
5494 1 24.5303 37.1911 8.7043
5495 1 22.9477 35.6085 10.2869
5496 1 24.5303 37.1911 11.8695
5497 1 22.9477 38.7737 0.7913
5498 1 24.5303 40.3563 2.3739
5499 1 22.9477 38.7737 3.9565
5500 1 24.5303 40.3563 5.5391
5501 1 22.9477 38.7737 7.1217
5502 1 24.5303 40.3563 8.7043
5503 1 22.9477 38.7737 10.2869
5504 1 24.5303 40.3563 11.8695
5505 1 22.9477 41.9389 0.7913
5506 1 24.5303 43.5215 2.3739
5507 1 22.9477 41.9389 3.9565
5508 1 24.5303 43.5215 5.5391
5509 1 22.9477 41.9389 7.1217
5510 1 24.5303 43.5215 8.7043
5511 1 22.9477 41.9389 10.2869
5512 1 24.5303 43.5215 11.8695
5513 1 22.9477 45.1041 0.7913
5514 1 24.5303 46.6867 2.3739
5515 1 22.9477 45.1041 3.9565
5516 1 24.5303 46.6867 5.5391
5517 1 22.9477 45.1041 7.1217
5518 1 24.5303 46.6867 8.7043
5519 1 22.9477 45.1041 10.2869
5520 1 24.5303 46.6867 11.8695
5521 1 22.9477 48.2693 0.7913
5522 1 24.5303 49.8519 2.3739
5523 1 22.9477 48.2693 3.9565
5524 1 24.5303 49.8519 5.5391
5525 1 22.9477 48.2693 7.1217
5526 1 24.5303 49.8519 8.7043
5527 1 22.9477 48.2693 10.2869
5528 1 24.5303 49.8519 11.8695
5529 1 26.1129 0.7913 0.7913
5530 1 27.6955 2.3739 2.3739
5531 1 26.1129 0.7913 3.9565
5532 1 27.6955 2.3739 5.5391
5533 1 26.1129 0.7913 7.1217
5534 1 27.6955 2.3739 8.7043
5535 1 26.1129 0.7913 10.2869
5536 1 27.6955 2.3739 11.8695
5537 1 26.1129 3.9565 0.7913
5538 1 27.6955 5.5391 2.3739
5539 1 26.1129 3.9565 3.9565
5540 1 27.6955 5.5391 5.5391
5541 1 26.1129 3.9565 7.1217
5542 1 27.6955 5.5391 8.7043
5543 1 26.1129 3.9565 10.2869
5544 1 27.6955 5.5391 11.8695
5545 1 26.1129 7.1217 0.7913
5546 1 27.6955 8.7043 2.3739
5547 1 26.1129 7.1217 3.9565
5548 1 27.6955 8.7043 5.5391
5549 1 26.1129 7.1217 7.1217
5550 1 27.6955 8.7043 8.7043
5551 1 26.1129 7.1217 10.2869
5552 1 27.6955 8.7043 11.8695
5553 1 26.1129 10.2869 0.7913
5554 1 27.6955 11.8695 2.3739
5555 1 26.1129 10.2869 3.9565
5556 1 27.6955 11.8695 5.5391
5557 1 26.1129 10.2869 7.1217
5558 1 27.6955 11.8695 8.7043
5559 1 26.1129 10.2869 10.2869
5560 1 27.6955 11.8695 11.8695
5561 1 26.1129 13.4521 0.7913
5562 1 27.6955 15.0347 2.3739
5563 1 26.1129 13.4521 3.9565
5564 1 27.6955 15.0347 5.5391
5565 1 26.1129 13.4521 7.1217
5566 1 27.6955 15.0347 8.7043
5567 1 26.1129 13.4521 10.2869
5568 1 27.6955 15.0347 11.8695
5569 1 26.1129 16.6173 0.7913
5570 1 27.6955 18.1999 2.3739
5571 1 26.1129 16.6173 3.9565
5572 1 27.6955 18.1999 5.5391
5573 1 26.1129 16.6173 7.1217
5574 1 27.6955 18.1999 8.7043
5575 1 26.1129 16.6173 10.2869
5576 1 27.6955 18.1999 11.8695
5577 1 26.1129 19.7825 0.7913
5578 1 27.6955 21.3651 2.3739
5579 1 26.1129 19.7825 3.9565
5580 1 27.6955 21.3651 5.5391
5581 1 26.1129 19.7825 7.1217
5582 1 27.6955 21.3651 8.7043
5583 1 26.1129 19.7825 10.2869
5584 1 27.6955 21.3651 11.8695
5585 1 26.1129 22.9477 0.7913
5586 1 27.6955 24.5303 2.3739
5587 1 26.1129 22.9477 3.9565
5588 1 27.6955 24.5303 5.5391
5589 1 26.1129 22.9477 7.1217
5590 1 27.6955 24.5303 8.7043
5591 1 26.1129 22.9477 10.2869
5592 1 27.6955 24.5303 11.8695
5593 1 26.1129 26.1129 0.7913
5594 1 27.6955 27.6955 2.3739
5595 1 26.1129 26.1129 3.9565
5596 1 27.6955 27.6955 5.5391
5597 1 26.1129 26.1129 7.1217
5598 1 27.6955 27.6955 8.7043
5599 1 26.1129 26.1129 10.2869
5600 1 27.6955 27.6955 11.8695
5601 1 26.1129 29.2781 0.7913
5602 1 27.6955 30.8607 2.3739
5603 1 26.1129 29.2781 3.9565
5604 1 27.6955 30.8607 5.5391
5605 1 26.1129 29.2781 7.1217
5606 1 27.6955 30.8607 8.7043
5607 1 26.1129 29.2781 10.2869
5608 1 27.6955 30.8607 11.8695
5609 1 26.1129 32.4433 0.7913
5610 1 27.6955 34.0259 2.3739
5611 1 26.1129 32.4433 3.9565
5612 1 27.6955 34.0259 5.5391
5613 1 26.1129 32.4433 7.1217
5614 1 27.6955 34.0259 8.7043
5615 1 26.1129 32.4433 10.2869
5616 1 27.6955 34.0259 11.8695
5617 1 26.1129 35.6085 0.7913
5618 1 27.6955 37.1911 2.3739
5619 1 26.1129 35.6085 3.9565
5620 1 27.6955 37.1911 5.5391
5621 1 26.1129 35.6085 7.1217
5622 1 27.6955 37.1911 8.7043
5623 1 26.1129 35.6085 10.2869
5624 1 27.6955 37.1911 11.8695
5625 1 26.1129 38.7737 0.7913
5626 1 27.6955 40.3563 2.3739
5627 1 26.1129 38.7737 3.9565
5628 1 27.6955 40.3563 5.5391
5629 1 26.1129 38.7737 7.1217
5630 1 27.6955 40.3563 8.7043
5631 1 26.1129 38.7737 10.2869
5632 1 27.6955 40.3563 11.8695
5633 1 26.1129 41.9389 0.7913
5634 1 27.6955 43.5215 2.3739
5635 1 26.1129 41.9389 3.9565
5636 1 27.6955 43.5215 5.5391
5637 1 26.1129 41.9389 7.1217
5638 1 27.6955 43.5215 8.7043
5639 1 26.1129 41.9389 10.2869
5640 1 27.6955 43.5215 11.8695
5641 1 26.1129 45.1041 0.7913
5642 1 27.6955 46.6867 2.3739
5643 1 26.1129 45.1041 3.9565
5644 1 27.6955 46.6867 5.5391
5645 1 26.1129 45.1041 7.1217
5646 1 27.6955 46.6867 8.7043
5647 1 26.1129 45.1041 10.2869
5648 1 27.6955 46.6867 11.8695
5649 1 26.1129 48.2693 0.7913
5650 1 27.6955 49.8519 2.3739
5651 1 26.1129 48.2693 3.9565
5652 1 27.6955 49.8519 5.5391
5653 1 26.1129 48.2693 7.1217
5654 1 27.6955 49.8519 8.7043
5655 1 26.1129 48.2693 10.2869
5656 1 27.6955 49.8519 11.8695
5657 1 29.2781 0.7913 0.7913
5658 1 30.8607 2.3739 2.3739
5659 1 29.2781 0.7913 3.9565
5660 1 30.8607 2.3739 5.5391
5661 1 29.2781 0.7913 7.1217
5662 1 30.8607 2.3739 8.7043
5663 1 29.2781 0.7913 10.2869
5664 1 30.8607 2.3739 11.8695
5665 1 29.2781 3.9565 0.7913
5666 1 30.8607 5.5391 2.3739
5667 1 29.2781 3.9565 3.9565
5668 1 30.8607 5.5391 5.5391
5669 1 29.2781 3.9565 7.1217
5670 1 30.8607 5.5391 8.7043
5671 1 29.2781 3.9565 10.2869
5672 1 30.8607 5.5391 11.8695
5673 1 29.2781 7.1217 0.7913
5674 1 30.8607 8.7043 2.3739
5675 1 29.2781 7.1217 3.9565
5676 1 30.8607 8.7043 5.5391
5677 1 29.2781 7.1217 7.1217
5678 1 30.8607 8.7043 8.7043
5679 1 29.2781 7.1217 10.2869
5680 1 30.8607 8.7043 11.8695
5681 1 29.2781 10.2869 0.7913
5682 1 30.8607 11.8695 2.3739
5683 1 29.2781 10.2869 3.9565
5684 1 30.8607 11.8695 5.5391
5685 1 29.2781 10.2869 7.1217
5686 1 30.8607 11.8695 8.7043
5687 1 29.2781 10.2869 10.2869
5688 1 30.8607 11.8695 11.8695
5689 1 29.2781 13.4521 0.7913
5690 1 30.8607 15.0347 2.3739
5691 1 29.2781 13.4521 3.9565
5692 1 30.8607 15.0347 5.5391
5693 1 29.2781 13.4521 7.1217
5694 1 30.8607 15.0347 8.7043
5695 1 29.2781 13.4521 10.2869
5696 1 30.8607 15.0347 11.8695
5697 1 29.2781 16.6173 0.7913
5698 1 30.8607 18.1999 2.3739
5699 1 29.2781 16.6173 3.9565
5700 1 30.8607 18.1999 5.5391
5701 1 29.2781 16.6173 7.1217
5702 1 30.8607 18.1999 8.7043
5703 1 29.2781 16.6173 10.2869
5704 1 30.8607 18.1999 11.8695
5705 1 29.2781 19.7825 0.7913
5706 1 30.8607 21.3651 2.3739
5707 1 29.2781 19.7825 3.9565
5708 1 30.8607 21.3651 5.5391
5709 1 29.2781 19.7825 7.1217
5710 1 30.8607 21.3651 8.7043
5711 1 29.2781 19.7825 10.2869
5712 1 30.8607 21.3651 11.8695
5713 1 29.2781 22.9477 0.7913
5714 1 30.8607 24.5303 2.3739
5715 1 29.2781 22.9477 3.9565
5716 1 30.8607 24.5303 5.5391
5717 1 29.2781 22.9477 7.1217
5718 1 30.8607 24.5303 8.7043
5719 1 29.2781 22.9477 10.2869
5720 1 30.8607 24.5303 11.8695
5721 1 29.2781 26.1129 0.7913
5722 1 30.8607 27.6955 2.3739
5723 1 29.2781 26.1129 3.9565
5724 1 30.8607 27.6955 5.5391
5725 1 29.2781 26.1129 7.1217
5726 1 30.8607 27.6955 8.7043
5727 1 29.2781 26.1129 10.2869
5728 1 30.8607 27.6955 11.8695
5729 1 29.2781 29.2781 0.7913
5730 1 30.8607 30.8607 2.3739
5731 1 29.2781 29.2781 3.9565
5732 1 30.8607 30.8607 5.5391
5733 1 29.2781 29.2781 7.1217
5734 1 30.8607 30.8607 8.7043
5735 1 29.2781 29.2781 10.2869
5736 1 30.8607 30.8607 11.8695
5737 1 29.2781 32.4433 0.7913
5738 1 30.8607 34.0259 2.3739
5739 1 29.2781 32.4433 3.9565
5740 1 30.8607 34.0259 5.5391
5741 1 29.2781 32.4433 7.1217
5742 1 30.8607 34.0259 8.7043
5743 1 29.2781 32.4433 10.2869
5744 1 30.8607 34.0259 11.8695
5745 1 29.2781 35.6085 0.7913
5746 1 30.8607 37.1911 2.3739
5747 1 29.2781 35.6085 3.9565
5748 1 30.8607 37.1911 5.5391
5749 1 29.2781 35.6085 7.1217
5750 1 30.8607 37.1911 8.7043
5751 1 29.2781 35.6085 10.2869
5752 1 30.8607 37.1911 11.8695
5753 1 29.2781 38.7737 0.7913
5754 1 30.8607 40.3563 2.3739
5755 1 29.2781 38.7737 3.9565
5756 1 30.8607 40.3563 5.5391
5757 1 29.2781 38.7737 7.1217
5758 1 30.8607 40.3563 8.7043
5759 1 29.2781 38.7737 10.2869
5760 1 30.8607 40.3563 11.8695
5761 1 29.2781 41.9389 0.7913
5762 1 30.8607 43.5215 2.3739
5763 1 29.2781 41.9389 3.9565
5764 1 30.8607 43.5215 5.5391
5765 1 29.2781 41.9389 7.1217
5766 1 30.8607 43.5215 8.7043
5767 1 29.2781 41.9389 10.2869
5768 1 30.8607 43.5215 11.8695
5769 1 29.2781 45.1041 0.7913
5770 1 30.8607 46.6867 2.3739
5771 1 29.2781 45.1041 3.9565
5772 1 30.8607 46.6867 5.5391
5773 1 29.2781 45.1041 7.1217
5774 1 30.8607 46.6867 8.7043
5775 1 29.2781 45.1041 10.2869
5776 1 30.8607 46.6867 11.8695
5777 1 29.2781 48.2693 0.7913
5778 1 30.8607 49.8519 2.3739
5779 1 29.2781 48.2693 3.9565
5780 1 30.8607 49.8519 5.5391
5781 1 29.2781 48.2693 7.1217
5782 1 30.8607 49.8519 8.7043
5783 1 29.2781 48.2693 10.2869
5784 1 30.8607 49.8519 11.8695
5785 1 32.4433 0.7913 0.7913
5786 1 34.0259 2.3739 2.3739
5787 1 32.4433 0.7913 3.9565
5788 1 34.0259 2.3739 5.5391
5789 1 32.4433 0.7913 7.1217
5790 1 34.0259 2.3739 8.7043
5791 1 32.4433 0.7913 10.2869
5792 1 34.0259 2.3739 11.8695
5793 1 32.4433 3.9565 0.7913
5794 1 34.0259 5.5391 2.3739
5795 1 32.4433 3.9565 3.9565
5796 1 34.0259 5.5391 5.5391
5797 1 32.4433 3.9565 7.1217
5798 1 34.0259 5.5391 8.7043
5799 1 32.4433 3.9565 10.2869
5800 1 34.0259 5.5391 11.8695
5801 1 32.4433 7.1217 0.7913
5802 1 34.0259 8.7043 2.3739
5803 1 32.4433 7.1217 3.9565
5804 1 34.0259 8.7043 5.5391
5805 1 32.4433 7.1217 7.1217
5806 1 34.0259 8.7043 8.7043
5807 1 32.4433 7.1217 10.2869
5808 1 34.0259 8.7043 11.8695
5809 1 32.4433 10.2869 0.7913
5810 1 34.0259 11.8695 2.3739
5811 1 32.4433 10.2869 3.9565
5812 1 34.0259 11.8695 5.5391
5813 1 32.4433 10.2869 7.1217
5814 1 34.0259 11.8695 8.7043
5815 1 32.4433 10.2869 10.2869
5816 1 34.0259 11.8695 11.8695
5817 1 32.4433 13.4521 0.7913
5818 1 34.0259 15.0347 2.3739
5819 1 32.4433 13.4521 3.9565
5820 1 34.0259 15.0347 5.5391
5821 1 32.4433 13.4521 7.1217
5822 1 34.0259 15.0347 8.7043
5823 1 32.4433 13.4521 10.2869
5824 1 34.0259 15.0347 11.8695
5825 1 32.4433 16.6173 0.7913
5826 1 34.0259 18.1999 2.3739
5827 1 32.4433 16.6173 3.9565
5828 1 34.0259 18.1999 5.5391
5829 1 32.4433 16.6173 7.1217
5830 1 34.0259 18.1999 8.7043
5831 1 32.4433 16.6173 10.2869
5832 1 34.0259 18.1999 11.8695
5833 1 32.4433 19.7825 0.7913
5834 1 34.0259 21.3651 2.3739
5835 1 32.4433 19.7825 3.9565
5836 1 34.0259 21.3651 5.5391
5837 1 32.4433 19.7825 7.1217
5838 1 34.0259 21.3651 8.7043
5839 1 32.4433 19.7825 10.2869
5840 1 34.0259 21.3651 11.8695
5841 1 32.4433 22.9477 0.7913
5842 1 34.0259 24.5303 2.3739
5843 1 32.4433 22.9477 3.9565
5844 1 34.0259 24.5303 5.5391
5845 1 32.4433 22.9477 7.1217
5846 1 34.0259 24.5303 8.7043
5847 1 32.4433 22.9477 10.2869
5848 1 34.0259 24.5303 11.8695
5849 1 32.4433 26.1129 0.7913
5850 1 34.0259 27.6955 2.3739
5851 1 32.4433 26.1129 3.9565
5852 1 34.0259 27.6955 5.5391
5853 1 32.4433 26.1129 7.1217
5854 1 34.0259 27.6955 8.7043
5855 1 32.4433 26.1129 10.2869
5856 1 34.0259 27.6955 11.8695
5857 1 32.4433 29.2781 0.7913
5858 1 34.0259 30.8607 2.3739
5859 1 32.4433 29.2781 3.9565
5860 1 34.0259 30.8607 5.5391
5861 1 32.4433 29.2781 7.1217
5862 1 34.0259 30.8607 8.7043
5863 1 32.4433 29.2781 10.2869
5864 1 34.0259 30.8607 11.8695
5865 1 32.4433 32.4433 0.7913
5866 1 34.0259 34.0259 2.3739
5867 1 32.4433 32.4433 3.9565
5868 1 34.0259 34.0259 5.5391
5869 1 32.4433 32.4433 7.1217
5870 1 34.0259 34.0259 8.7043
5871 1 32.4433 32.4433 10.2869
5872 1 34.0259 34.0259 11.8695
5873 1 32.4433 35.6085 0.7913
5874 1 34.0259 37.1911 2.3739
5875 1 32.4433 35.6085 3.9565
5876 1 34.0259 37.1911 5.5391
5877 1 32.4433 35.6085 7.1217
5878 1 34.0259 37.1911 8.7043
5879 1 32.4433 35.6085 10.2869
5880 1 34.0259 37.1911 11.8695
5881 1 32.4433 38.7737 0.7913
5882 1 34.0259 40.3563 2.3739
5883 1 32.4433 38.7737 3.9565
5884 1 34.0259 40.3563 5.5391
5885 1 32.4433 38.7737 7.1217
5886 1 34.0259 40.3563 8.7043
5887 1 32.4433 38.7737 10.2869
5888 1 34.0259 40.3563 11.8695
5889 1 32.4433 41.9389 0.7913
5890 1 34.0259 43.5215 2.3739
5891 1 32.4433 41.9389 3.9565
5892 1 34.0259 43.5215 5.5391
5893 1 32.4433 41.9389 7.1217
5894 1 34.0259 43.5215 8.7043
5895 1 32.4433 41.9389 10.2869
5896 1 34.0259 43.5215 11.8695
5897 1 32.4433 45.1041 0.7913
5898 1 34.0259 46.6867 2.3739
5899 1 32.4433 45.1041 3.9565
5900 1 34.0259 46.6867 5.5391
5901 1 32.4433 45.1041 7.1217
5902 1 34.0259 46.6867 8.7043
5903 1 32.4433 45.1041 10.2869
5904 1 34.0259 46.6867 11.8695
5905 1 32.4433 48.2693 0.7913
5906 1 34.0259 49.8519 2.3739
5907 1 32.4433 48.2693 3.9565
5908 1 34.0259 49.8519 5.5391
5909 1 32.4433 48.2693 7.1217
5910 1 34.0259 49.8519 8.7043
5911 1 32.4433 48.2693 10.2869
5912 1 34.0259 49.8519 11.8695
5913 1 35.6085 0.7913 0.7913
5914 1 37.1911 2.3739 2.3739
5915 1 35.6085 0.7913 3.9565
5916 1 37.1911 2.3739 5.5391
5917 1 35.6085 0.7913 7.1217
5918 1 37.1911 2.3739 8.7043
5919 1 35.6085 0.7913 10.2869
5920 1 37.1911 2.3739 11.8695
5921 1 35.6085 3.9565 0.7913
5922 1 37.1911 5.5391 2.3739
5923 1 35.6085 3.9565 3.9565
5924 1 37.1911 5.5391 5.5391
5925 1 35.6085 3.9565 7.1217
5926 1 37.1911 5.5391 8.7043
5927 1 35.6085 3.9565 10.2869
5928 1 37.1911 5.5391 11.8695
5929 1 35.6085 7.1217 0.7913
5930 1 37.1911 8.7043 2.3739
5931 1 35.6085 7.1217 3.9565
5932 1 37.1911 8.7043 5.5391
5933 1 35.6085 7.1217 7.1217
5934 1 37.1911 8.7043 8.7043
5935 1 35.6085 7.1217 10.2869
5936 1 37.1911 8.7043 11.8695
5937 1 35.6085 10.2869 0.7913
5938 1 37.1911 11.8695 2.3739
5939 1 35.6085 10.2869 3.9565
5940 1 37.1911 11.8695 5.5391
5941 1 35.6085 10.2869 7.1217
5942 1 37.1911 11.8695 8.7043
5943 1 35.6085 10.2869 10.2869
5944 1 37.1911 11.8695 11.8695
5945 1 35.6085 13.4521 0.7913
5946 1 37.1911 15.0347 2.3739
5947 1 35.6085 13.4521 3.9565
5948 1 37.1911 15.0347 5.5391
5949 1 35.6085 13.4521 7.1217
5950 1 37.1911 15.0347 8.7043
5951 1 35.6085 13.4521 10.2869
5952 1 37.1911 15.0347 11.8695
5953 1 35.6085 16.6173 0.7913
5954 1 37.1911 18.1999 2.3739
5955 1 35.6085 16.6173 3.9565
5956 1 37.1911 18.1999 5.5391
5957 1 35.6085 16.6173 7.1217
5958 1 37.1911 18.1999 8.7043
5959 1 35.6085 16.6173 10.2869
5960 1 37.1911 18.1999 11.8695
5961 1 35.6085 19.7825 0.7913
5962 1 37.1911 21.3651 2.3739
5963 1 35.6085 19.7825 3.9565
5964 1 37.1911 21.3651 5.5391
5965 1 35.6085 19.7825 7.1217
5966 1 37.1911 21.3651 8.7043
5967 1 35.6085 19.7825 10.2869
5968 1 37.1911 21.3651 11.8695
5969 1 35.6085 22.9477 0.7913
5970 1 37.1911 24.5303 2.3739
5971 1 35.6085 22.9477 3.9565
5972 1 37.1911 24.5303 5.5391
5973 1 35.6085 22.9477 7.1217
5974 1 37.1911 24.5303 8.7043
5975 1 35.6085 22.9477 10.2869
5976 1 37.1911 24.5303 11.8695
5977 1 35.6085 26.1129 0.7913
5978 1 37.1911 27.6955 2.3739
5979 1 35.6085 26.1129 3.9565
5980 1 37.1911 27.6955 5.5391
5981 1 35.6085 26.1129 7.1217
5982 1 37.1911 27.6955 8.7043
5983 1 35.6085 26.1129 10.2869
5984 1 37.1911 27.6955 11.8695
5985 1 35.6085 29.2781 0.7913
5986 1 37.1911 30.8607 2.3739
5987 1 35.6085 29.2781 3.9565
5988 1 37.1911 30.8607 5.5391
5989 1 35.6085 29.2781 7.1217
5990 1 37.1911 30.8607 8.7043
5991 1 35.6085 29.2781 10.2869
5992 1 37.1911 30.8607 11.8695
5993 1 35.6085 32.4433 0.7913
5994 1 37.1911 34.0259 2.3739
5995 1 35.6085 32.4433 3.9565
5996 1 37.1911 34.0259 5.5391
5997 1 35.6085 32.4433 7.1217
5998 1 37.1911 34.0259 8.7043
5999 1 35.6085 32.4433 10.2869
6000 1 37.1911 34.0259 11.8695
6001 1 35.6085 35.6085 0.7913
6002 1 37.1911 37.1911 2.3739
6003 1 35.6085 35.6085 3.9565
6004 1 37.1911 37.1911 5.5391
6005 1 35.6085 35.6085 7.1217
6006 1 37.1911 37.1911 8.7043
6007 1 35.6085 35.6085 10.2869
6008 1 37.1911 37.1911 11.8695
6009 1 35.6085 38.7737 0.7913
6010 1 37.1911 40.3563 2.3739
6011 1 35.6085 38.7737 3.9565
6012 1 37.1911 40.3563 5.5391
6013 1 35.6085 38.7737 7.1217
6014 1 37.1911 40.3563 8.7043
6015 1 35.6085 38.7737 10.2869
6016 1 37.1911 40.3563 11.8695
6017 1 35.6085 41.9389 0.7913
6018 1 37.1911 43.5215 2.3739
6019 1 35.6085 41.9389 3.9565
6020 1 37.1911 43.5215 5.5391
6021 1 35.6085 41.9389 7.1217
6022 1 37.1911 43.5215 8.7043
6023 1 35.6085 41.9389 10.2869
6024 1 37.1911 43.5215 11.8695
6025 1 35.6085 45.1041 0.7913
6026 1 37.1911 46.6867 2.3739
6027 1 35.6085 45.1041 3.9565
6028 1 37.1911 46.6867 5.5391
6029 1 35.6085 45.1041 7.1217
6030 1 37.1911 46.6867 8.7043
6031 1 35.6085 45.1041 10.2869
6032 1 37.1911 46.6867 11.8695
6033 1 35.6085 48.2693 0.7913
6034 1 37.1911 49.8519 2.3739
6035 1 35.6085 48.2693 3.9565
6036 1 37.1911 49.8519 5.5391
6037 1 35.6085 48.2693 7.1217
6038 1 37.1911 49.8519 8.7043
6039 1 35.6085 48.2693 10.2869
6040 1 37.1911 49.8519 11.8695
6041 1 10.2869 0.7913 38.7737
6042 1 11.8695 2.3739 40.3563
6043 1 10.2869 0.7913 41.9389
6044 1 11.8695 2.3739 43.5215
6045 1 10.2869 0.7913 45.1041
6046 1 11.8695 2.3739 46.6867
6047 1 10.2869 0.7913 48.2693
6048 1 11.8695 2.3739 49.8519
6049 1 10.2869 3.9565 38.7737
6050 1 11.8695 5.5391 40.3563
6051 1 10.2869 3.9565 41.9389
6052 1 11.8695 5.5391 43.5215
6053 1 10.2869 3.9565 45.1041
6054 1 11.8695 5.5391 46.6867
6055 1 10.2869 3.9565 48.2693
6056 1 11.8695 5.5391 49.8519
6057 1 10.2869 7.1217 38.7737
6058 1 11.8695 8.7043 40.3563
6059 1 10.2869 7.1217 41.9389
6060 1 11.8695 8.7043 43.5215
6061 1 10.2869 7.1217 45.1041
6062 1 11.8695 8.7043 46.6867
6063 1 10.2869 7.1217 48.2693
6064 1 11.8695 8.7043 49.8519
6065 1 10.2869 10.2869 38.7737
6066 1 11.8695 11.8695 40.3563
6067 1 10.2869 10.2869 41.9389
6068 1 11.8695 11.8695 43.5215
6069 1 10.2869 10.2869 45.1041
6070 1 11.8695 11.8695 46.6867
6071 1 10.2869 10.2869 48.2693
6072 1 11.8695 11.8695 49.8519
6073 1 10.2869 13.4521 38.7737
6074 1 11.8695 15.0347 40.3563
6075 1 10.2869 13.4521 41.9389
6076 1 11.8695 15.0347 43.5215
6077 1 10.2869 13.4521 45.1041
6078 1 11.8695 15.0347 46.6867
6079 1 10.2869 13.4521 48.2693
6080 1 11.8695 15.0347 49.8519
6081 1 10.2869 16.6173 38.7737
6082 1 11.8695 18.1999 40.3563
6083 1 10.2869 16.6173 41.9389
6084 1 11.8695 18.1999 43.5215
6085 1 10.2869 16.6173 45.1041
6086 1 11.8695 18.1999 46.6867
6087 1 10.2869 16.6173 48.2693
6088 1 11.8695 18.1999 49.8519
6089 1 10.2869 19.7825 38.7737
6090 1 11.8695 21.3651 40.3563
6091 1 10.2869 19.7825 41.9389
6092 1 11.8695 21.3651 43.5215
6093 1 10.2869 19.7825 45.1041
6094 1 11.8695 21.3651 46.6867
6095 1 10.2869 19.7825 48.2693
6096 1 11.8695 21.3651 49.8519
6097 1 10.2869 22.9477 38.7737
6098 1 11.8695 24.5303 40.3563
6099 1 10.2869 22.9477 41.9389
6100 1 11.8695 24.5303 43.5215
6101 1 10.2869 22.9477 45.1041
6102 1 11.8695 24.5303 46.6867
6103 1 10.2869 22.9477 48.2693
6104 1 11.8695 24.5303 49.8519
6105 1 10.2869 26.1129 38.7737
6106 1 11.8695 27.6955 40.3563
6107 1 10.2869 26.1129 41.9389
6108 1 11.8695 27.6955 43.5215
6109 1 10.2869 26.1129 45.1041
6110 1 11.8695 27.6955 46.6867
6111 1 10.2869 26.1129 48.2693
6112 1 11.8695 27.6955 49.8519
6113 1 10.2869 29.2781 38.7737
6114 1 11.8695 30.8607 40.3563
6115 1 10.2869 29.2781 41.9389
6116 1 11.8695 30.8607 43.5215
6117 1 10.2869 29.2781 45.1041
6118 1 11.8695 30.8607 46.6867
6119 1 10.2869 29.2781 48.2693
6120 1 11.8695 30.8607 49.8519
6121 1 10.2869 32.4433 38.7737
6122 1 11.8695 34.0259 40.3563
6123 1 10.2869 32.4433 41.9389
6124 1 11.8695 34.0259 43.5215
6125 1 10.2869 32.4433 45.1041
6126 1 11.8695 34.0259 46.6867
6127 1 10.2869 32.4433 48.2693
6128 1 11.8695 34.0259 49.8519
6129 1 10.2869 35.6085 38.7737
6130 1 11.8695 37.1911 40.3563
6131 1 10.2869 35.6085 41.9389
6132 1 11.8695 37.1911 43.5215
6133 1 10.2869 35.6085 45.1041
6134 1 11.8695 37.1911 46.6867
6135 1 10.2869 35.6085 48.2693
6136 1 11.8695 37.1911 49.8519
6137 1 10.2869 38.7737 38.7737
6138 1 11.8695 40.3563 40.3563
6139 1 10.2869 38.7737 41.9389
6140 1 11.8695 40.3563 43.5215
6141 1 10.2869 38.7737 45.1041
6142 1 11.8695 40.3563 46.6867
6143 1 10.2869 38.7737 48.2693
6144 1 11.8695 40.3563 49.8519
6145 1 10.2869 41.9389 38.7737
6146 1 11.8695 43.5215 40.3563
6147 1 10.2869 41.9389 41.9389
6148 1 11.8695 43.5215 43.5215
6149 1 10.2869 41.9389 45.1041
6150 1 11.8695 43.5215 46.6867
6151 1 10.2869 41.9389 48.2693
6152 1 11.8695 43.5215 49.8519
6153 1 10.2869 45.1041 38.7737
6154 1 11.8695 46.6867 40.3563
6155 1 10.2869 45.1041 41.9389
6156 1 11.8695 46.6867 43.5215
6157 1 10.2869 45.1041 45.1041
6158 1 11.8695 46.6867 46.6867
6159 1 10.2869 45.1041 48.2693
6160 1 11.8695 46.6867 49.8519
6161 1 10.2869 48.2693 38.7737
6162 1 11.8695 49.8519 40.3563
6163 1 10.2869 48.2693 41.9389
6164 1 11.8695 49.8519 43.5215
6165 1 10.2869 48.2693 45.1041
6166 1 11.8695 49.8519 46.6867
6167 1 10.2869 48.2693 48.2693
6168 1 11.8695 49.8519 49.8519
6169 1 13.4521 0.7913 38.7737
6170 1 15.0347 2.3739 40.3563
6171 1 13.4521 0.7913 41.9389
6172 1 15.0347 2.3739 43.5215
6173 1 13.4521 0.7913 45.1041
6174 1 15.0347 2.3739 46.6867
6175 1 13.4521 0.7913 48.2693
6176 1 15.0347 2.3739 49.8519
6177 1 13.4521 3.9565 38.7737
6178 1 15.0347 5.5391 40.3563
6179 1 13.4521 3.9565 41.9389
6180 1 15.0347 5.5391 43.5215
6181 1 13.4521 3.9565 45.1041
6182 1 15.0347 5.5391 46.6867
6183 1 13.4521 3.9565 48.2693
6184 1 15.0347 5.5391 49.8519
6185 1 13.4521 7.1217 38.7737
6186 1 15.0347 8.7043 40.3563
6187 1 13.4521 7.1217 41.9389
6188 1 15.0347 8.7043 43.5215
6189 1 13.4521 7.1217 45.1041
6190 1 15.0347 8.7043 46.6867
6191 1 13.4521 7.1217 48.2693
6192 1 15.0347 8.7043 49.8519
6193 1 13.4521 10.2869 38.7737
6194 1 15.0347 11.8695 40.3563
6195 1 13.4521 10.2869 41.9389
6196 1 15.0347 11.8695 43.5215
6197 1 13.4521 10.2869 45.1041
6198 1 15.0347 11.8695 46.6867
6199 1 13.4521 10.2869 48.2693
6200 1 15.0347 11.8695 49.8519
6201 1 13.4521 13.4521 38.7737
6202 1 15.0347 15.0347 40.3563
6203 1 13.4521 13.4521 41.9389
6204 1 15.0347 15.0347 43.5215
6205 1 13.4521 13.4521 45.1041
6206 1 15.0347 15.0347 46.6867
6207 1 13.4521 13.4521 48.2693
6208 1 15.0347 15.0347 49.8519
6209 1 13.4521 16.6173 38.7737
6210 1 15.0347 18.1999 40.3563
6211 1 13.4521 16.6173 41.9389
6212 1 15.0347 18.1999 43.5215
6213 1 13.4521 16.6173 45.1041
6214 1 15.0347 18.1999 46.6867
6215 1 13.4521 16.6173 48.2693
6216 1 15.0347 18.1999 49.8519
6217 1 13.4521 19.7825 38.7737
6218 1 15.0347 21.3651 40.3563
6219 1 13.4521 19.7825 41.9389
6220 1 15.0347 21.3651 43.5215
6221 1 13.4521 19.7825 45.1041
6222 1 15.0347 21.3651 46.6867
6223 1 13.4521 19.7825 48.2693
6224 1 15.0347 21.3651 49.8519
6225 1 13.4521 22.9477 38.7737
6226 1 15.0347 24.5303 40.3563
6227 1 13.4521 22.9477 41.9389
6228 1 15.0347 24.5303 43.5215
6229 1 13.4521 22.9477 45.1041
6230 1 15.0347 24.5303 46.6867
6231 1 13.4521 22.9477 48.2693
6232 1 15.0347 24.5303 49.8519
6233 1 13.4521 26.1129 38.7737
6234 1 15.0347 27.6955 40.3563
6235 1 13.4521 26.1129 41.9389
6236 1 15.0347 27.6955 43.5215
6237 1 13.4521 26.1129 45.1041
6238 1 15.0347 27.6955 46.6867
6239 1 13.4521 26.1129 48.2693
6240 1 15.0347 27.6955 49.8519
6241 1 13.4521 29.2781 38.7737
6242 1 15.0347 30.8607 40.3563
6243 1 13.4521 29.2781 41.9389
6244 1 15.0347 30.8607 43.5215
6245 1 13.4521 29.2781 45.1041
6246 1 15.0347 30.8607 46.6867
6247 1 13.4521 29.2781 48.2693
6248 1 15.0347 30.8607 49.8519
6249 1 13.4521 32.4433 38.7737
6250 1 15.0347 34.0259 40.3563
6251 1 13.4521 32.4433 41.9389
6252 1 15.0347 34.0259 43.5215
6253 1 13.4521 32.4433 45.1041
6254 1 15.0347 34.0259 46.6867
6255 1 13.4521 32.4433 48.2693
6256 1 15.0347 34.0259 49.8519
6257 1 13.4521 35.6085 38.7737
6258 1 15.0347 37.1911 40.3563
6259 1 13.4521 35.6085 41.9389
6260 1 15.0347 37.1911 43.5215
6261 1 13.4521 35.6085 45.1041
6262 1 15.0347 37.1911 46.6867
6263 1 13.4521 35.6085 48.2693
6264 1 15.0347 37.1911 49.8519
6265 1 13.4521 38.7737 38.7737
6266 1 15.0347 40.3563 40.3563
6267 1 13.4521 38.7737 41.9389
6268 1 15.0347 40.3563 43.5215
6269 1 13.4521 38.7737 45.1041
6270 1 15.0347 40.3563 46.6867
6271 1 13.4521 38.7737 48.2693
6272 1 15.0347 40.3563 49.8519
6273 1 13.4521 41.9389 38.7737
6274 1 15.0347 43.5215 40.3563
6275 1 13.4521 41.9389 41.9389
6276 1 15.0347 43.5215 43.5215
6277 1 13.4521 41.9389 45.1041
6278 1 15.0347 43.5215 46.6867
6279 1 13.4521 41.9389 48.2693
6280 1 15.0347 43.5215 49.8519
6281 1 13.4521 45.1041 38.7737
6282 1 15.0347 46.6867 40.3563
6283 1 13.4521 45.1041 41.9389
6284 1 15.0347 46.6867 43.5215
6285 1 13.4521 45.1041 45.1041
6286 1 15.0347 46.6867 46.6867
6287 1 13.4521 45.1041 48.2693
6288 1 15.0347 46.6867 49.8519
6289 1 13.4521 48.2693 38.7737
6290 1 15.0347 49.8519 40.3563
6291 1 13.4521 48.2693 41.9389
6292 1 15.0347 49.8519 43.5215
6293 1 13.4521 48.2693 45.1041
6294 1 15.0347 49.8519 46.6867
6295 1 13.4521 48.2693 48.2693
6296 1 15.0347 49.8519 49.8519
6297 1 16.6173 0.7913 38.7737
6298 1 18.1999 2.3739 40.3563
6299 1 16.6173 0.7913 41.9389
6300 1 18.1999 2.3739 43.5215
6301 1 16.6173 0.7913 45.1041
6302 1 18.1999 2.3739 46.6867
6303 1 16.6173 0.7913 48.2693
6304 1 18.1999 2.3739 49.8519
6305 1 16.6173 3.9565 38.7737
6306 1 18.1999 5.5391 40.3563
6307 1 16.6173 3.9565 41.9389
6308 1 18.1999 5.5391 43.5215
6309 1 16.6173 3.9565 45.1041
6310 1 18.1999 5.5391 46.6867
6311 1 16.6173 3.9565 48.2693
6312 1 18.1999 5.5391 49.8519
6313 1 16.6173 7.1217 38.7737
6314 1 18.1999 8.7043 40.3563
6315 1 16.6173 7.1217 41.9389
6316 1 18.1999 8.7043 43.5215
6317 1 16.6173 7.1217 45.1041
6318 1 18.1999 8.7043 46.6867
6319 1 16.6173 7.1217 48.2693
6320 1 18.1999 8.7043 49.8519
6321 1 16.6173 10.2869 38.7737
6322 1 18.1999 11.8695 40.3563
6323 1 16.6173 10.2869 41.9389
6324 1 18.1999 11.8695 43.5215
6325 1 16.6173 10.2869 45.1041
6326 1 18.1999 11.8695 46.6867
6327 1 16.6173 10.2869 48.2693
6328 1 18.1999 11.8695 49.8519
6329 1 16.6173 13.4521 38.7737
6330 1 18.1999 15.0347 40.3563
6331 1 16.6173 13.4521 41.9389
6332 1 18.1999 15.0347 43.5215
6333 1 16.6173 13.4521 45.1041
6334 1 18.1999 15.0347 46.6867
6335 1 16.6173 13.4521 48.2693
6336 1 18.1999 15.0347 49.8519
6337 1 16.6173 16.6173 38.7737
6338 1 18.1999 18.1999 40.3563
6339 1 16.6173 16.6173 41.9389
6340 1 18.1999 18.1999 43.5215
6341 1 16.6173 16.6173 45.1041
6342 1 18.1999 18.1999 46.6867
6343 1 16.6173 16.6173 48.2693
6344 1 18.1999 18.1999 49.8519
6345 1 16.6173 19.7825 38.7737
6346 1 18.1999 21.3651 40.3563
6347 1 16.6173 19.7825 41.9389
6348 1 18.1999 21.3651 43.5215
6349 1 16.6173 19.7825 45.1041
6350 1 18.1999 21.3651 46.6867
6351 1 16.6173 19.7825 48.2693
6352 1 18.1999 21.3651 49.8519
6353 1 16.6173 22.9477 38.7737
6354 1 18.1999 24.5303 40.3563
6355 1 16.6173 22.9477 41.9389
6356 1 18.1999 24.5303 43.5215
6357 1 16.6173 22.9477 45.1041
6358 1 18.1999 24.5303 46.6867
6359 1 16.6173 22.9477 48.2693
6360 1 18.1999 24.5303 49.8519
6361 1 16.6173 26.1129 38.7737
6362 1 18.1999 27.6955 40.3563
6363 1 16.6173 26.1129 41.9389
6364 1 18.1999 27.6955 43.5215
6365 1 16.6173 26.1129 45.1041
6366 1 18.1999 27.6955 46.6867
6367 1 16.6173 26.1129 48.2693
6368 1 18.1999 27.6955 49.8519
6369 1 16.6173 29.2781 38.7737
6370 1 18.1999 30.8607 40.3563
6371 1 16.6173 29.2781 41.9389
6372 1 18.1999 30.8607 43.5215
6373 1 16.6173 29.2781 45.1041
6374 1 18.1999 30.8607 46.6867
6375 1 16.6173 29.2781 48.2693
6376 1 18.1999 30.8607 49.8519
6377 1 16.6173 32.4433 38.7737
6378 1 18.1999 34.0259 40.3563
6379 1 16.6173 32.4433 41.9389
6380 1 18.1999 34.0259 43.5215
6381 1 16.6173 32.4433 45.1041
6382 1 18.1999 34.0259 46.6867
6383 1 16.6173 32.4433 48.2693
6384 1 18.1999 34.0259 49.8519
6385 1 16.6173 35.6085 38.7737
6386 1 18.1999 37.1911 40.3563
6387 1 16.6173 35.6085 41.9389
6388 1 18.1999 37.1911 43.5215
6389 1 16.6173 35.6085 45.1041
6390 1 18.1999 37.1911 46.6867
6391 1 16.6173 35.6085 48.2693
6392 1 18.1999 37.1911 49.8519
6393 1 16.6173 38.7737 38.7737
6394 1 18.1999 40.3563 40.3563
6395 1 16.6173 38.7737 41.9389
6396 1 18.1999 40.3563 43.5215
6397 1 16.6173 38.7737 45.1041
6398 1 18.1999 40.3563 46.6867
6399 1 16.6173 38.7737 48.2693
6400 1 18.1999 40.3563 49.8519
6401 1 16.6173 41.9389 38.7737
6402 1 18.1999 43.5215 40.3563
6403 1 16.6173 41.9389 41.9389
6404 1 18.1999 43.5215 43.5215
6405 1 16.6173 41.9389 45.1041
6406 1 18.1999 43.5215 46.6867
6407 1 16.6173 41.9389 48.2693
6408 1 18.1999 43.5215 49.8519
6409 1 16.6173 45.1041 38.7737
6410 1 18.1999 46.6867 40.3563
6411 1 16.6173 45.1041 41.9389
6412 1 18.1999 46.6867 43.5215
6413 1 16.6173 45.1041 45.1041
6414 1 18.1999 46.6867 46.6867
6415 1 16.6173 45.1041 48.2693
6416 1 18.1999 46.6867 49.8519
6417 1 16.6173 48.2693 38.7737
6418 1 18.1999 49.8519 40.3563
6419 1 16.6173 48.2693 41.9389
6420 1 18.1999 49.8519 43.5215
6421 1 16.6173 48.2693 45.1041
6422 1 18.1999 49.8519 46.6867
6423 1 16.6173 48.2693 48.2693
6424 1 18.1999 49.8519 49.8519
6425 1 19.7825 0.7913 38.7737
6426 1 21.3651 2.3739 40.3563
6427 1 19.7825 0.7913 41.9389
6428 1 21.3651 2.3739 43.5215
6429 1 19.7825 0.7913 45.1041
6430 1 21.3651 2.3739 46.6867
6431 1 19.7825 0.7913 48.2693
6432 1 21.3651 2.3739 49.8519
6433 1 19.7825 3.9565 38.7737
6434 1 21.3651 5.5391 40.3563
6435 1 19.7825 3.9565 41.9389
6436 1 21.3651 5.5391 43.5215
6437 1 19.7825 3.9565 45.1041
6438 1 21.3651 5.5391 46.6867
6439 1 19.7825 3.9565 48.2693
6440 1 21.3651 5.5391 49.8519
6441 1 19.7825 7.1217 38.7737
6442 1 21.3651 8.7043 40.3563
6443 1 19.7825 7.1217 41.9389
6444 1 21.3651 8.7043 43.5215
6445 1 19.7825 7.1217 45.1041
6446 1 21.3651 8.7043 46.6867
6447 1 19.7825 7.1217 48.2693
6448 1 21.3651 8.7043 49.8519
6449 1 19.7825 10.2869 38.7737
6450 1 21.3651 11.8695 40.3563
6451 1 19.7825 10.2869 41.9389
6452 1 21.3651 11.8695 43.5215
6453 1 19.7825 10.2869 45.1041
6454 1 21.3651 11.8695 46.6867
6455 1 19.7825 10.2869 48.2693
6456 1 21.3651 11.8695 49.8519
6457 1 19.7825 13.4521 38.7737
6458 1 21.3651 15.0347 40.3563
6459 1 19.7825 13.4521 41.9389
6460 1 21.3651 15.0347 43.5215
6461 1 19.7825 13.4521 45.1041
6462 1 21.3651 15.0347 46.6867
6463 1 19.7825 13.4521 48.2693
6464 1 21.3651 15.0347 49.8519
6465 1 19.7825 16.6173 38.7737
6466 1 21.3651 18.1999 40.3563
6467 1 19.7825 16.6173 41.9389
6468 1 21.3651 18.1999 43.5215
6469 1 19.7825 16.6173 45.1041
6470 1 21.3651 18.1999 46.6867
6471 1 19.7825 16.6173 48.2693
6472 1 21.3651 18.1999 49.8519
6473 1 19.7825 19.7825 38.7737
6474 1 21.3651 21.3651 40.3563
6475 1 19.7825 19.7825 41.9389
6476 1 21.3651 21.3651 43.5215
6477 1 19.7825 19.7825 45.1041
6478 1 21.3651 21.3651 46.6867
6479 1 19.7825 19.7825 48.2693
6480 1 21.3651 21.3651 49.8519
6481 1 19.7825 22.9477 38.7737
6482 1 21.3651 24.5303 40.3563
6483 1 19.7825 22.9477 41.9389
6484 1 21.3651 24.5303 43.5215
6485 1 19.7825 22.9477 45.1041
6486 1 21.3651 24.5303 46.6867
6487 1 19.7825 22.9477 48.2693
6488 1 21.3651 24.5303 49.8519
6489 1 19.7825 26.1129 38.7737
6490 1 21.3651 27.6955 40.3563
6491 1 19.7825 26.1129 41.9389
6492 1 21.3651 27.6955 43.5215
6493 1 19.7825 26.1129 45.1041
6494 1 21.3651 27.6955 46.6867
6495 1 19.7825 26.1129 48.2693
6496 1 21.3651 27.6955 49.8519
6497 1 19.7825 29.2781 38.7737
6498 1 21.3651 30.8607 40.3563
6499 1 19.7825 29.2781 41.9389
6500 1 21.3651 30.8607 43.5215
6501 1 19.7825 29.2781 45.1041
6502 1 21.3651 30.8607 46.6867
6503 1 19.7825 29.2781 48.2693
6504 1 21.3651 30.8607 49.8519
6505 1 19.7825 32.4433 38.7737
6506 1 21.3651 34.0259 40.3563
6507 1 19.7825 32.4433 41.9389
6508 1 21.3651 34.0259 43.5215
6509 1 19.7825 32.4433 45.1041
6510 1 21.3651 34.0259 46.6867
6511 1 19.7825 32.4433 48.2693
6512 1 21.3651 34.0259 49.8519
6513 1 19.7825 35.6085 38.7737
6514 1 21.3651 37.1911 40.3563
6515 1 19.7825 35.6085 41.9389
6516 1 21.3651 37.1911 43.5215
6517 1 19.7825 35.6085 45.1041
6518 1 21.3651 37.1911 46.6867
6519 1 19.7825 35.6085 48.2693
6520 1 21.3651 37.1911 49.8519
6521 1 19.7825 38.7737 38.7737
6522 1 21.3651 40.3563 40.3563
6523 1 19.7825 38.7737 41.9389
6524 1 21.3651 40.3563 43.5215
6525 1 19.7825 38.7737 45.1041
6526 1 21.3651 40.3563 46.6867
6527 1 19.7825 38.7737 48.2693
6528 1 21.3651 40.3563 49.8519
6529 1 19.7825 41.9389 38.7737
6530 1 21.3651 43.5215 40.3563
6531 1 19.7825 41.9389 41.9389
6532 1 21.3651 43.5215 43.5215
6533 1 19.7825 41.9389 45.1041
6534 1 21.3651 43.5215 46.6867
6535 1 19.7825 41.9389 48.2693
6536 1 21.3651 43.5215 49.8519
6537 1 19.7825 45.1041 38.7737
6538 1 21.3651 46.6867 40.3563
6539 1 19.7825 45.1041 41.9389
6540 1 21.3651 46.6867 43.5215
6541 1 19.7825 45.1041 45.1041
6542 1 21.3651 46.6867 46.6867
6543 1 19.7825 45.1041 48.2693
6544 1 21.3651 46.6867 49.8519
6545 1 19.7825 48.2693 38.7737
6546 1 21.3651 49.8519 40.3563
6547 1 19.7825 48.2693 41.9389
6548 1 21.3651 49.8519 43.5215
6549 1 19.7825 48.2693 45.1041
6550 1 21.3651 49.8519 46.6867
6551 1 19.7825 48.2693 48.2693
6552 1 21.3651 49.8519 49.8519
6553 1 22.9477 0.7913 38.7737
6554 1 24.5303 2.3739 40.3563
6555 1 22.9477 0.7913 41.9389
6556 1 24.5303 2.3739 43.5215
6557 1 22.9477 0.7913 45.1041
6558 1 24.5303 2.3739 46.6867
6559 1 22.9477 0.7913 48.2693
6560 1 24.5303 2.3739 49.8519
6561 1 22.9477 3.9565 38.7737
6562 1 24.5303 5.5391 40.3563
6563 1 22.9477 3.9565 41.9389
6564 1 24.5303 5.5391 43.5215
6565 1 22.9477 3.9565 45.1041
6566 1 24.5303 5.5391 46.6867
6567 1 22.9477 3.9565 48.2693
6568 1 24.5303 5.5391 49.8519
6569 1 22.9477 7.1217 38.7737
6570 1 24.5303 8.7043 40.3563
6571 1 22.9477 7.1217 41.9389
6572 1 24.5303 8.7043 43.5215
6573 1 22.9477 7.1217 45.1041
6574 1 24.5303 8.7043 46.6867
6575 1 22.9477 7.1217 48.2693
6576 1 24.5303 8.7043 49.8519
6577 1 22.9477 10.2869 38.7737
6578 1 24.5303 11.8695 40.3563
6579 1 22.9477 10.2869 41.9389
6580 1 24.5303 11.8695 43.5215
6581 1 22.9477 10.2869 45.1041
6582 1 24.5303 11.8695 46.6867
6583 1 22.9477 10.2869 48.2693
6584 1 24.5303 11.8695 49.8519
6585 1 22.9477 13.4521 38.7737
6586 1 24.5303 15.0347 40.3563
6587 1 22.9477 13.4521 41.9389
6588 1 24.5303 15.0347 43.5215
6589 1 22.9477 13.4521 45.1041
6590 1 24.5303 15.0347 46.6867
6591 1 22.9477 13.4521 48.2693
6592 1 24.5303 15.0347 49.8519
6593 1 22.9477 16.6173 38.7737
6594 1 24.5303 18.1999 40.3563
6595 1 22.9477 16.6173 41.9389
6596 1 24.5303 18.1999 43.5215
6597 1 22.9477 16.6173 45.1041
6598 1 24.5303 18.1999 46.6867
6599 1 22.9477 16.6173 48.2693
6600 1 24.5303 18.1999 49.8519
6601 1 22.9477 19.7825 38.7737
6602 1 24.5303 21.3651 40.3563
6603 1 22.9477 19.7825 41.9389
6604 1 24.5303 21.3651 43.5215
6605 1 22.9477 19.7825 45.1041
6606 1 24.5303 21.3651 46.6867
6607 1 22.9477 19.7825 48.2693
6608 1 24.5303 21.3651 49.8519
6609 1 22.9477 22.9477 38.7737
6610 1 24.5303 24.5303 40.3563
6611 1 22.9477 22.9477 41.9389
6612 1 24.5303 24.5303 43.5215
6613 1 22.9477 22.9477 45.1041
6614 1 24.5303 24.5303 46.6867
6615 1 22.9477 22.9477 48.2693
6616 1 24.5303 24.5303 49.8519
6617 1 22.9477 26.1129 38.7737
6618 1 24.5303 27.6955 40.3563
6619 1 22.9477 26.1129 41.9389
6620 1 24.5303 27.6955 43.5215
6621 1 22.9477 26.1129 45.1041
6622 1 24.5303 27.6955 46.6867
6623 1 22.9477 26.1129 48.2693
6624 1 24.5303 27.6955 49.8519
6625 1 22.9477 29.2781 38.7737
6626 1 24.5303 30.8607 40.3563
6627 1 22.9477 29.2781 41.9389
6628 1 24.5303 30.8607 43.5215
6629 1 22.9477 29.2781 45.1041
6630 1 24.5303 30.8607 46.6867
6631 1 22.9477 29.2781 48.2693
6632 1 24.5303 30.8607 49.8519
6633 1 22.9477 32.4433 38.7737
6634 1 24.5303 34.0259 40.3563
6635 1 22.9477 32.4433 41.9389
6636 1 24.5303 34.0259 43.5215
6637 1 22.9477 32.4433 45.1041
6638 1 24.5303 34.0259 46.6867
6639 1 22.9477 32.4433 48.2693
6640 1 24.5303 34.0259 49.8519
6641 1 22.9477 35.6085 38.7737
6642 1 24.5303 37.1911 40.3563
6643 1 22.9477 35.6085 41.9389
6644 1 24.5303 37.1911 43.5215
6645 1 22.9477 35.6085 45.1041
6646 1 24.5303 37.1911 46.6867
6647 1 22.9477 35.6085 48.2693
6648 1 24.5303 37.1911 49.8519
6649 1 22.9477 38.7737 38.7737
6650 1 24.5303 40.3563 40.3563
6651 1 22.9477 38.7737 41.9389
6652 1 24.5303 40.3563 43.5215
6653 1 22.9477 38.7737 45.1041
6654 1 24.5303 40.3563 46.6867
6655 1 22.9477 38.7737 48.2693
6656 1 24.5303 40.3563 49.8519
6657 1 22.9477 41.9389 38.7737
6658 1 24.5303 43.5215 40.3563
6659 1 22.9477 41.9389 41.9389
6660 1 24.5303 43.5215 43.5215
6661 1 22.9477 41.9389 45.1041
6662 1 24.5303 43.5215 46.6867
6663 1 22.9477 41.9389 48.2693
6664 1 24.5303 43.5215 49.8519
6665 1 22.9477 45.1041 38.7737
6666 1 24.5303 46.6867 40.3563
6667 1 22.9477 45.1041 41.9389
6668 1 24.5303 46.6867 43.5215
6669 1 22.9477 45.1041 45.1041
6670 1 24.5303 46.6867 46.6867
6671 1 22.9477 45.1041 48.2693
6672 1 24.5303 46.6867 49.8519
6673 1 22.9477 48.2693 38.7737
6674 1 24.5303 49.8519 40.3563
6675 1 22.9477 48.2693 41.9389
6676 1 24.5303 49.8519 43.5215
6677 1 22.9477 48.2693 45.1041
6678 1 24.5303 49.8519 46.6867
6679 1 22.9477 48.2693 48.2693
6680 1 24.5303 49.8519 49.8519
6681 1 26.1129 0.7913 38.7737
6682 1 27.6955 2.3739 40.3563
6683 1 26.1129 0.7913 41.9389
6684 1 27.6955 2.3739 43.5215
6685 1 26.1129 0.7913 45.1041
6686 1 27.6955 2.3739 46.6867
6687 1 26.1129 0.7913 48.2693
6688 1 27.6955 2.3739 49.8519
6689 1 26.1129 3.9565 38.7737
6690 1 27.6955 5.5391 40.3563
6691 1 26.1129 3.9565 41.9389
6692 1 27.6955 5.5391 43.5215
6693 1 26.1129 3.9565 45.1041
6694 1 27.6955 5.5391 46.6867
6695 1 26.1129 3.9565 48.2693
6696 1 27.6955 5.5391 49.8519
6697 1 26.1129 7.1217 38.7737
6698 1 27.6955 8.7043 40.3563
6699 1 26.1129 7.1217 41.9389
6700 1 27.6955 8.7043 43.5215
6701 1 26.1129 7.1217 45.1041
6702 1 27.6955 8.7043 46.6867
6703 1 26.1129 7.1217 48.2693
6704 1 27.6955 8.7043 49.8519
6705 1 26.1129 10.2869 38.7737
6706 1 27.6955 11.8695 40.3563
6707 1 26.1129 10.2869 41.9389
6708 1 27.6955 11.8695 43.5215
6709 1 26.1129 10.2869 45.1041
6710 1 27.6955 11.8695 46.6867
6711 1 26.1129 10.2869 48.2693
6712 1 27.6955 11.8695 49.8519
6713 1 26.1129 13.4521 38.7737
6714 1 27.6955 15.0347 40.3563
6715 1 26.1129 13.4521 41.9389
6716 1 27.6955 15.0347 43.5215
6717 1 26.1129 13.4521 45.1041
6718 1 27.6955 15.0347 46.6867
6719 1 26.1129 13.4521 48.2693
6720 1 27.6955 15.0347 49.8519
6721 1 26.1129 16.6173 38.7737
6722 1 27.6955 18.1999 40.3563
6723 1 26.1129 16.6173 41.9389
6724 1 27.6955 18.1999 43.5215
6725 1 26.1129 16.6173 45.1041
6726 1 27.6955 18.1999 46.6867
6727 1 26.1129 16.6173 48.2693
6728 1 27.6955 18.1999 49.8519
6729 1 26.1129 19.7825 38.7737
6730 1 27.6955 21.3651 40.3563
6731 1 26.1129 19.7825 41.9389
6732 1 27.6955 21.3651 43.5215
6733 1 26.1129 19.7825 45.1041
6734 1 27.6955 21.3651 46.6867
6735 1 26.1129 19.7825 48.2693
6736 1 27.6955 21.3651 49.8519
6737 1 26.1129 22.9477 38.7737
6738 1 27.6955 24.5303 40.3563
6739 1 26.1129 22.9477 41.9389
6740 1 27.6955 24.5303 43.5215
6741 1 26.1129 22.9477 45.1041
6742 1 27.6955 24.5303 46.6867
6743 1 26.1129 22.9477 48.2693
6744 1 27.6955 24.5303 49.8519
6745 1 26.1129 26.1129 38.7737
6746 1 27.6955 27.6955 40.3563
6747 1 26.1129 26.1129 41.9389
6748 1 27.6955 27.6955 43.5215
6749 1 26.1129 26.1129 45.1041
6750 1 27.6955 27.6955 46.6867
6751 1 26.1129 26.1129 48.2693
6752 1 27.6955 27.6955 49.8519
6753 1 26.1129 29.2781 38.7737
6754 1 27.6955 30.8607 40.3563
6755 1 26.1129 29.2781 41.9389
6756 1 27.6955 30.8607 43.5215
6757 1 26.1129 29.2781 45.1041
6758 1 27.6955 30.8607 46.6867
6759 1 26.1129 29.2781 48.2693
6760 1 27.6955 30.8607 49.8519
6761 1 26.1129 32.4433 38.7737
6762 1 27.6955 34.0259 40.3563
6763 1 26.1129 32.4433 41.9389
6764 1 27.6955 34.0259 43.5215
6765 1 26.1129 32.4433 45.1041
6766 1 27.6955 34.0259 46.6867
6767 1 26.1129 32.4433 48.2693
6768 1 27.6955 34.0259 49.8519
6769 1 26.1129 35.6085 38.7737
6770 1 27.6955 37.1911 40.3563
6771 1 26.1129 35.6085 41.9389
6772 1 27.6955 37.1911 43.5215
6773 1 26.1129 35.6085 45.1041
6774 1 27.6955 37.1911 46.6867
6775 1 26.1129 35.6085 48.2693
6776 1 27.6955 37.1911 49.8519
6777 1 26.1129 38.7737 38.7737
6778 1 27.6955 40.3563 40.3563
6779 1 26.1129 38.7737 41.9389
6780 1 27.6955 40.3563 43.5215
6781 1 26.1129 38.7737 45.1041
6782 1 27.6955 40.3563 46.6867
6783 1 26.1129 38.7737 48.2693
6784 1 27.6955 40.3563 49.8519
6785 1 26.1129 41.9389 38.7737
6786 1 27.6955 43.5215 40.3563
6787 1 26.1129 41.9389 41.9389
6788 1 27.6955 43.5215 43.5215
6789 1 26.1129 41.9389 45.1041
6790 1 27.6955 43.5215 46.6867
6791 1 26.1129 41.9389 48.2693
6792 1 27.6955 43.5215 49.8519
6793 1 26.1129 45.1041 38.7737
6794 1 27.6955 46.6867 40.3563
6795 1 26.1129 45.1041 41.9389
6796 1 27.6955 46.6867 43.5215
6797 1 26.1129 45.1041 45.1041
6798 1 27.6955 46.6867 46.6867
6799 1 26.1129 45.1041 48.2693
6800 1 27.6955 46.6867 49.8519
6801 1 26.1129 48.2693 38.7737
6802 1 27.6955 49.8519 40.3563
6803 1 26.1129 48.2693 41.9389
6804 1 27.6955 49.8519 43.5215
6805 1 26.1129 48.2693 45.1041
6806 1 27.6955 49.8519 46.6867
6807 1 26.1129 48.2693 48.2693
6808 1 27.6955 49.8519 49.8519
6809 1 29.2781 0.7913 38.7737
6810 1 30.8607 2.3739 40.3563
6811 1 29.2781 0.7913 41.9389
6812 1 30.8607 2.3739 43.5215
6813 1 29.2781 0.7913 45.1041
6814 1 30.8607 2.3739 46.6867
6815 1 29.2781 0.7913 48.2693
6816 1 30.8607 2.3739 49.8519
6817 1 29.2781 3.9565 38.7737
6818 1 30.8607 5.5391 40.3563
6819 1 29.2781 3.9565 41.9389
6820 1 30.8607 5.5391 43.5215
6821 1 29.2781 3.9565 45.1041
6822 1 30.8607 5.5391 46.6867
6823 1 29.2781 3.9565 48.2693
6824 1 30.8607 5.5391 49.8519
6825 1 29.2781 7.1217 38.7737
6826 1 30.8607 8.7043 40.3563
6827 1 29.2781 7.1217 41.9389
6828 1 30.8607 8.7043 43.5215
6829 1 29.2781 7.1217 45.1041
6830 1 30.8607 8.7043 46.6867
6831 1 29.2781 7.1217 48.2693
6832 1 30.8607 8.7043 49.8519
6833 1 29.2781 10.2869 38.7737
6834 1 30.8607 11.8695 40.3563
6835 1 29.2781 10.2869 41.9389
6836 1 30.8607 11.8695 43.5215
6837 1 29.2781 10.2869 45.1041
6838 1 30.8607 11.8695 46.6867
6839 1 29.2781 10.2869 48.2693
6840 1 30.8607 11.8695 49.8519
6841 1 29.2781 13.4521 38.7737
6842 1 30.8607 15.0347 40.3563
6843 1 29.2781 13.4521 41.9389
6844 1 30.8607 15.0347 43.5215
6845 1 29.2781 13.4521 45.1041
6846 1 30.8607 15.0347 46.6867
6847 1 29.2781 13.4521 48.2693
6848 1 30.8607 15.0347 49.8519
6849 1 29.2781 16.6173 38.7737
6850 1 30.8607 18.1999 40.3563
6851 1 29.2781 16.6173 41.9389
6852 1 30.8607 18.1999 43.5215
6853 1 29.2781 16.6173 45.1041
6854 1 30.8607 18.1999 46.6867
6855 1 29.2781 16.6173 48.2693
6856 1 30.8607 18.1999 49.8519
6857 1 29.2781 19.7825 38.7737
6858 1 30.8607 21.3651 40.3563
6859 1 29.2781 19.7825 41.9389
6860 1 30.8607 21.3651 43.5215
6861 1 29.2781 19.7825 45.1041
6862 1 30.8607 21.3651 46.6867
6863 1 29.2781 19.7825 48.2693
6864 1 30.8607 21.3651 49.8519
6865 1 29.2781 22.9477 38.7737
6866 1 30.8607 24.5303 40.3563
6867 1 29.2781 22.9477 41.9389
6868 1 30.8607 24.5303 43.5215
6869 1 29.2781 22.9477 45.1041
6870 1 30.8607 24.5303 46.6867
6871 1 29.2781 22.9477 48.2693
6872 1 30.8607 24.5303 49.8519
6873 1 29.2781 26.1129 38.7737
6874 1 30.8607 27.6955 40.3563
6875 1 29.2781 26.1129 41.9389
6876 1 30.8607 27.6955 43.5215
6877 1 29.2781 26.1129 45.1041
6878 1 30.8607 27.6955 46.6867
6879 1 29.2781 26.1129 48.2693
6880 1 30.8607 27.6955 49.8519
6881 1 29.2781 29.2781 38.7737
6882 1 30.8607 30.8607 40.3563
6883 1 29.2781 29.2781 41.9389
6884 1 30.8607 30.8607 43.5215
6885 1 29.2781 29.2781 45.1041
6886 1 30.8607 30.8607 46.6867
6887 1 29.2781 29.2781 48.2693
6888 1 30.8607 30.8607 49.8519
6889 1 29.2781 32.4433 38.7737
6890 1 30.8607 34.0259 40.3563
6891 1 29.2781 32.4433 41.9389
6892 1 30.8607 34.0259 43.5215
6893 1 29.2781 32.4433 45.1041
6894 1 30.8607 34.0259 46.6867
6895 1 29.2781 32.4433 48.2693
6896 1 30.8607 34.0259 49.8519
6897 1 29.2781 35.6085 38.7737
6898 1 30.8607 37.1911 40.3563
6899 1 29.2781 35.6085 41.9389
6900 1 30.8607 37.1911 43.5215
6901 1 29.2781 35.6085 45.1041
6902 1 30.8607 37.1911 46.6867
6903 1 29.2781 35.6085 48.2693
6904 1 30.8607 37.1911 49.8519
6905 1 29.2781 38.7737 38.7737
6906 1 30.8607 40.3563 40.3563
6907 1 29.2781 38.7737 41.9389
6908 1 30.8607 40.3563 43.5215
6909 1 29.2781 38.7737 45.1041
6910 1 30.8607 40.3563 46.6867
6911 1 29.2781 38.7737 48.2693
6912 1 30.8607 40.3563 49.8519
6913 1 29.2781 41.9389 38.7737
6914 1 30.8607 43.5215 40.3563
6915 1 29.2781 41.9389 41.9389
6916 1 30.8607 43.5215 43.5215
6917 1 29.2781 41.9389 45.1041
6918 1 30.8607 43.5215 46.6867
6919 1 29.2781 41.9389 48.2693
6920 1 30.8607 43.5215 49.8519
6921 1 29.2781 45.1041 38.7737
6922 1 30.8607 46.6867 40.3563
6923 1 29.2781 45.1041 41.9389
6924 1 30.8607 46.6867 43.5215
6925 1 29.2781 45.1041 45.1041
6926 1 30.8607 46.6867 46.6867
6927 1 29.2781 45.1041 48.2693
6928 1 30.8607 46.6867 49.8519
6929 1 29.2781 48.2693 38.7737
6930 1 30.8607 49.8519 40.3563
6931 1 29.2781 48.2693 41.9389
6932 1 30.8607 49.8519 43.5215
6933 1 29.2781 48.2693 45.1041
6934 1 30.8607 49.8519 46.6867
6935 1 29.2781 48.2693 48.2693
6936 1 30.8607 49.8519 49.8519
6937 1 32.4433 0.7913 38.7737
6938 1 34.0259 2.3739 40.3563
6939 1 32.4433 0.7913 41.9389
6940 1 34.0259 2.3739 43.5215
6941 1 32.4433 0.7913 45.1041
6942 1 34.0259 2.3739 46.6867
6943 1 32.4433 0.7913 48.2693
6944 1 34.0259 2.3739 49.8519
6945 1 32.4433 3.9565 38.7737
6946 1 34.0259 5.5391 40.3563
6947 1 32.4433 3.9565 41.9389
6948 1 34.0259 5.5391 43.5215
6949 1 32.4433 3.9565 45.1041
6950 1 34.0259 5.5391 46.6867
6951 1 32.4433 3.9565 48.2693
6952 1 34.0259 5.5391 49.8519
6953 1 32.4433 7.1217 38.7737
6954 1 34.0259 8.7043 40.3563
6955 1 32.4433 7.1217 41.9389
6956 1 34.0259 8.7043 43.5215
6957 1 32.4433 7.1217 45.1041
6958 1 34.0259 8.7043 46.6867
6959 1 32.4433 7.1217 48.2693
6960 1 34.0259 8.7043 49.8519
6961 1 32.4433 10.2869 38.7737
6962 1 34.0259 11.8695 40.3563
6963 1 32.4433 10.2869 41.9389
6964 1 34.0259 11.8695 43.5215
6965 1 32.4433 10.2869 45.1041
6966 1 34.0259 11.8695 46.6867
6967 1 32.4433 10.2869 48.2693
6968 1 34.0259 11.8695 49.8519
6969 1 32.4433 13.4521 38.7737
6970 1 34.0259 15.0347 40.3563
6971 1 32.4433 13.4521 41.9389
6972 1 34.0259 15.0347 43.5215
6973 1 32.4433 13.4521 45.1041
6974 1 34.0259 15.0347 46.6867
6975 1 32.4433 13.4521 48.2693
6976 1 34.0259 15.0347 49.8519
6977 1 32.4433 16.6173 38.7737
6978 1 34.0259 18.1999 40.3563
6979 1 32.4433 16.6173 41.9389
6980 1 34.0259 18.1999 43.5215
6981 1 32.4433 16.6173 45.1041
6982 1 34.0259 18.1999 46.6867
6983 1 32.4433 16.6173 48.2693
6984 1 34.0259 18.1999 49.8519
6985 1 32.4433 19.7825 38.7737
6986 1 34.0259 21.3651 40.3563
6987 1 32.4433 19.7825 41.9389
6988 1 34.0259 21.3651 43.5215
6989 1 32.4433 19.7825 45.1041
6990 1 34.0259 21.3651 46.6867
6991 1 32.4433 19.7825 48.2693
6992 1 34.0259 21.3651 49.8519
6993 1 32.4433 22.9477 38.7737
6994 1 34.0259 24.5303 40.3563
6995 1 32.4433 22.9477 41.9389
6996 1 34.0259 24.5303 43.5215
6997 1 32.4433 22.9477 45.1041
6998 1 34.0259 24.5303 46.6867
6999 1 32.4433 22.9477 48.2693
7000 1 34.0259 24.5303 49.8519
7001 1 32.4433 26.1129 38.7737
7002 1 34.0259 27.6955 40.3563
7003 1 32.4433 26.1129 41.9389
7004 1 34.0259 27.6955 43.5215
7005 1 32.4433 26.1129 45.1041
7006 1 34.0259 27.6955 46.6867
7007 1 32.4433 26.1129 48.2693
7008 1 34.0259 27.6955 49.8519
7009 1 32.4433 29.2781 38.7737
7010 1 34.0259 30.8607 40.3563
7011 1 32.4433 29.2781 41.9389
7012 1 34.0259 30.8607 43.5215
7013 1 32.4433 29.2781 45.1041
7014 1 34.0259 30.8607 46.6867
7015 1 32.4433 29.2781 48.2693
7016 1 34.0259 30.8607 49.8519
7017 1 32.4433 32.4433 38.7737
7018 1 34.0259 34.0259 40.3563
7019 1 32.4433 32.4433 41.9389
7020 1 34.0259 34.0259 43.5215
7021 1 32.4433 32.4433 45.1041
7022 1 34.0259 34.0259 46.6867
7023 1 32.4433 32.4433 48.2693
7024 1 34.0259 34.0259 49.8519
7025 1 32.4433 35.6085 38.7737
7026 1 34.0259 37.1911 40.3563
7027 1 32.4433 35.6085 41.9389
7028 1 34.0259 37.1911 43.5215
7029 1 32.4433 35.6085 45.1041
7030 1 34.0259 37.1911 46.6867
7031 1 32.4433 35.6085 48.2693
7032 1 34.0259 37.1911 49.8519
7033 1 32.4433 38.7737 38.7737
7034 1 34.0259 40.3563 40.3563
7035 1 32.4433 38.7737 41.9389
7036 1 34.0259 40.3563 43.5215
7037 1 32.4433 38.7737 45.1041
7038 1 34.0259 40.3563 46.6867
7039 1 32.4433 38.7737 48.2693
7040 1 34.0259 40.3563 49.8519
7041 1 32.4433 41.9389 38.7737
7042 1 34.0259 43.5215 40.3563
7043 1 32.4433 41.9389 41.9389
7044 1 34.0259 43.5215 43.5215
7045 1 32.4433 41.9389 45.1041
7046 1 34.0259 43.5215 46.6867
7047 1 32.4433 41.9389 48.2693
7048 1 34.0259 43.5215 49.8519
7049 1 32.4433 45.1041 38.7737
7050 1 34.0259 46.6867 40.3563
7051 1 32.4433 45.1041 41.9389
7052 1 34.0259 46.6867 43.5215
7053 1 32.4433 45.1041 45.1041
7054 1 34.0259 46.6867 46.6867
7055 1 32.4433 45.1041 48.2693
7056 1 34.0259 46.6867 49.8519
7057 1 32.4433 48.2693 38.7737
7058 1 34.0259 49.8519 40.3563
7059 1 32.4433 48.2693 41.9389
7060 1 34.0259 49.8519 43.5215
7061 1 32.4433 48.2693 45.1041
7062 1 34.0259 49.8519 46.6867
7063 1 32.4433 48.2693 48.2693
7064 1 34.0259 49.8519 49.8519
7065 1 35.6085 0.7913 38.7737
7066 1 37.1911 2.3739 40.3563
7067 1 35.6085 0.7913 41.9389
7068 1 37.1911 2.3739 43.5215
7069 1 35.6085 0.7913 45.1041
7070 1 37.1911 2.3739 46.6867
7071 1 35.6085 0.7913 48.2693
7072 1 37.1911 2.3739 49.8519
7073 1 35.6085 3.9565 38.7737
7074 1 37.1911 5.5391 40.3563
7075 1 35.6085 3.9565 41.9389
7076 1 37.1911 5.5391 43.5215
7077 1 35.6085 3.9565 45.1041
7078 1 37.1911 5.5391 46.6867
7079 1 35.6085 3.9565 48.2693
7080 1 37.1911 5.5391 49.8519
7081 1 35.6085 7.1217 38.7737
7082 1 37.1911 8.7043 40.3563
7083 1 35.6085 7.1217 41.9389
7084 1 37.1911 8.7043 43.5215
7085 1 35.6085 7.1217 45.1041
7086 1 37.1911 8.7043 46.6867
7087 1 35.6085 7.1217 48.2693
7088 1 37.1911 8.7043 49.8519
7089 1 35.6085 10.2869 38.7737
7090 1 37.1911 11.8695 40.3563
7091 1 35.6085 10.2869 41.9389
7092 1 37.1911 11.8695 43.5215
7093 1 35.6085 10.2869 45.1041
7094 1 37.1911 11.8695 46.6867
7095 1 35.6085 10.2869 48.2693
7096 1 37.1911 11.8695 49.8519
7097 1 35.6085 13.4521 38.7737
7098 1 37.1911 15.0347 40.3563
7099 1 35.6085 13.4521 41.9389
7100 1 37.1911 15.0347 43.5215
7101 1 35.6085 13.4521 45.1041
7102 1 37.1911 15.0347 46.6867
7103 1 35.6085 13.4521 48.2693
7104 1 37.1911 15.0347 49.8519
7105 1 35.6085 16.6173 38.7737
7106 1 37.1911 18.1999 40.3563
7107 1 35.6085 16.6173 41.9389
7108 1 37.1911 18.1999 43.5215
7109 1 35.6085 16.6173 45.1041
7110 1 37.1911 18.1999 46.6867
7111 1 35.6085 16.6173 48.2693
7112 1 37.1911 18.1999 49.8519
7113 1 35.6085 19.7825 38.7737
7114 1 37.1911 21.3651 40.3563
7115 1 35.6085 19.7825 41.9389
7116 1 37.1911 21.3651 43.5215
7117 1 35.6085 19.7825 45.1041
7118 1 37.1911 21.3651 46.6867
7119 1 35.6085 19.7825 48.2693
7120 1 37.1911 21.3651 49.8519
7121 1 35.6085 22.9477 38.7737
7122 1 37.1911 24.5303 40.3563
7123 1 35.6085 22.9477 41.9389
7124 1 37.1911 24.5303 43.5215
7125 1 35.6085 22.9477 45.1041
7126 1 37.1911 24.5303 46.6867
7127 1 35.6085 22.9477 48.2693
7128 1 37.1911 24.5303 49.8519
7129 1 35.6085 26.1129 38.7737
7130 1 37.1911 27.6955 40.3563
7131 1 35.6085 26.1129 41.9389
7132 1 37.1911 27.6955 43.5215
7133 1 35.6085 26.1129 45.1041
7134 1 37.1911 27.6955 46.6867
7135 1 35.6085 26.1129 48.2693
7136 1 37.1911 27.6955 49.8519
7137 1 35.6085 29.2781 38.7737
7138 1 37.1911 30.8607 40.3563
7139 1 35.6085 29.2781 41.9389
7140 1 37.1911 30.8607 43.5215
7141 1 35.6085 29.2781 45.1041
7142 1 37.1911 30.8607 46.6867
7143 1 35.6085 29.2781 48.2693
7144 1 37.1911 30.8607 49.8519
7145 1 35.6085 32.4433 38.7737
7146 1 37.1911 34.0259 40.3563
7147 1 35.6085 32.4433 41.9389
7148 1 37.1911 34.0259 43.5215
7149 1 35.6085 32.4433 45.1041
7150 1 37.1911 34.0259 46.6867
7151 1 35.6085 32.4433 48.2693
7152 1 37.1911 34.0259 49.8519
7153 1 35.6085 35.6085 38.7737
7154 1 37.1911 37.1911 40.3563
7155 1 35.6085 35.6085 41.9389
7156 1 37.1911 37.1911 43.5215
7157 1 35.6085 35.6085 45.1041
7158 1 37.1911 37.1911 46.6867
7159 1 35.6085 35.6085 48.2693
7160 1 37.1911 37.1911 49.8519
7161 1 35.6085 38.7737 38.7737
7162 1 37.1911 40.3563 40.3563
7163 1 35.6085 38.7737 41.9389
7164 1 37.1911 40.3563 43.5215
7165 1 35.6085 38.7737 45.1041
7166 1 37.1911 40.3563 46.6867
7167 1 35.6085 38.7737 48.2693
7168 1 37.1911 40.3563 49.8519
7169 1 35.6085 41.9389 38.7737
7170 1 37.1911 43.5215 40.3563
7171 1 35.6085 41.9389 41.9389
7172 1 37.1911 43.5215 43.5215
7173 1 35.6085 41.9389 45.1041
7174 1 37.1911 43.5215 46.6867
7175 1 35.6085 41.9389 48.2693
7176 1 37.1911 43.5215 49.8519
7177 1 35.6085 45.1041 38.7737
7178 1 37.1911 46.6867 40.3563
7179 1 35.6085 45.1041 41.9389
7180 1 37.1911 46.6867 43.5215
7181 1 35.6085 45.1041 45.1041
7182 1 37.1911 46.6867 46.6867
7183 1 35.6085 45.1041 48.2693
7184 1 37.1911 46.6867 49.8519
7185 1 35.6085 48.2693 38.7737
7186 1 37.1911 49.8519 40.3563
7187 1 35.6085 48.2693 41.9389
7188 1 37.1911 49.8519 43.5215
7189 1 35.6085 48.2693 45.1041
7190 1 37.1911 49.8519 46.6867
7191 1 35.6085 48.2693 48.2693
7192 1 37.1911 49.8519 49.8519
7193 1 10.2869 0.7913 13.4521
7194 1 11.8695 2.3739 15.0347
7195 1 10.2869 0.7913 16.6173
7196 1 11.8695 2.3739 18.1999
7197 1 10.2869 0.7913 19.7825
7198 1 11.8695 2.3739 21.3651
7199 1 10.2869 0.7913 22.9477
7200 1 11.8695 2.3739 24.5303
7201 1 10.2869 0.7913 26.1129
7202 1 11.8695 2.3739 27.6955
7203 1 10.2869 0.7913 29.2781
7204 1 11.8695 2.3739 30.8607
7205 1 10.2869 0.7913 32.4433
7206 1 11.8695 2.3739 34.0259
7207 1 10.2869 0.7913 35.6085
7208 1 11.8695 2.3739 37.1911
7209 1 10.2869 3.9565 13.4521
7210 1 11.8695 5.5391 15.0347
7211 1 10.2869 3.9565 16.6173
7212 1 11.8695 5.5391 18.1999
7213 1 10.2869 3.9565 19.7825
7214 1 11.8695 5.5391 21.3651
7215 1 10.2869 3.9565 22.9477
7216 1 11.8695 5.5391 24.5303
7217 1 10.2869 3.9565 26.1129
7218 1 11.8695 5.5391 27.6955
7219 1 10.2869 3.9565 29.2781
7220 1 11.8695 5.5391 30.8607
7221 1 10.2869 3.9565 32.4433
7222 1 11.8695 5.5391 34.0259
7223 1 10.2869 3.9565 35.6085
7224 1 11.8695 5.5391 37.1911
7225 1 10.2869 7.1217 13.4521
7226 1 11.8695 8.7043 15.0347
7227 1 10.2869 7.1217 16.6173
7228 1 11.8695 8.7043 18.1999
7229 1 10.2869 7.1217 19.7825
7230 1 11.8695 8.7043 21.3651
7231 1 10.2869 7.1217 22.9477
7232 1 11.8695 8.7043 24.5303
7233 1 10.2869 7.1217 26.1129
7234 1 11.8695 8.7043 27.6955
7235 1 10.2869 7.1217 29.2781
7236 1 11.8695 8.7043 30.8607
7237 1 10.2869 7.1217 32.4433
7238 1 11.8695 8.7043 34.0259
7239 1 10.2869 7.1217 35.6085
7240 1 11.8695 8.7043 37.1911
7241 1 13.4521 0.7913 13.4521
7242 1 15.0347 2.3739 15.0347
7243 1 13.4521 0.7913 16.6173
7244 1 15.0347 2.3739 18.1999
7245 1 13.4521 0.7913 19.7825
7246 1 15.0347 2.3739 21.3651
7247 1 13.4521 0.7913 22.9477
7248 1 15.0347 2.3739 24.5303
7249 1 13.4521 0.7913 26.1129
7250 1 15.0347 2.3739 27.6955
7251 1 13.4521 0.7913 29.2781
7252 1 15.0347 2.3739 30.8607
7253 1 13.4521 0.7913 32.4433
7254 1 15.0347 2.3739 34.0259
7255 1 13.4521 0.7913 35.6085
7256 1 15.0347 2.3739 37.1911
7257 1 13.4521 3.9565 13.4521
7258 1 15.0347 5.5391 15.0347
7259 1 13.4521 3.9565 16.6173
7260 1 15.0347 5.5391 18.1999
7261 1 13.4521 3.9565 19.7825
7262 1 15.0347 5.5391 21.3651
7263 1 13.4521 3.9565 22.9477
7264 1 15.0347 5.5391 24.5303
7265 1 13.4521 3.9565 26.1129
7266 1 15.0347 5.5391 27.6955
7267 1 13.4521 3.9565 29.2781
7268 1 15.0347 5.5391 30.8607
7269 1 13.4521 3.9565 32.4433
7270 1 15.0347 5.5391 34.0259
7271 1 13.4521 3.9565 35.6085
7272 1 15.0347 5.5391 37.1911
7273 1 13.4521 7.1217 13.4521
7274 1 15.0347 8.7043 15.0347
7275 1 13.4521 7.1217 16.6173
7276 1 15.0347 8.7043 18.1999
7277 1 13.4521 7.1217 19.7825
7278 1 15.0347 8.7043 21.3651
7279 1 13.4521 7.1217 22.9477
7280 1 15.0347 8.7043 24.5303
7281 1 13.4521 7.1217 26.1129
7282 1 15.0347 8.7043 27.6955
7283 1 13.4521 7.1217 29.2781
7284 1 15.0347 8.7043 30.8607
7285 1 13.4521 7.1217 32.4433
7286 1 15.0347 8.7043 34.0259
7287 1 13.4521 7.1217 35.6085
7288 1 15.0347 8.7043 37.1911
7289 1 16.6173 0.7913 13.4521
7290 1 18.1999 2.3739 15.0347
7291 1 16.6173 0.7913 16.6173
7292 1 18.1999 2.3739 18.1999
7293 1 16.6173 0.7913 19.7825
7294 1 18.1999 2.3739 21.3651
7295 1 16.6173 0.7913 22.9477
7296 1 18.1999 2.3739 24.5303
7297 1 16.6173 0.7913 26.1129
7298 1 18.1999 2.3739 27.6955
7299 1 16.6173 0.7913 29.2781
7300 1 18.1999 2.3739 30.8607
7301 1 16.6173 0.7913 32.4433
7302 1 18.1999 2.3739 34.0259
7303 1 16.6173 0.7913 35.6085
7304 1 18.1999 2.3739 37.1911
7305 1 16.6173 3.9565 13.4521
7306 1 18.1999 5.5391 15.0347
7307 1 16.6173 3.9565 16.6173
7308 1 18.1999 5.5391 18.1999
7309 1 16.6173 3.9565 19.7825
7310 1 18.1999 5.5391 21.3651
7311 1 16.6173 3.9565 22.9477
7312 1 18.1999 5.5391 24.5303
7313 1 16.6173 3.9565 26.1129
7314 1 18.1999 5.5391 27.6955
7315 1 16.6173 3.9565 29.2781
7316 1 18.1999 5.5391 30.8607
7317 1 16.6173 3.9565 32.4433
7318 1 18.1999 5.5391 34.0259
7319 1 16.6173 3.9565 35.6085
7320 1 18.1999 5.5391 37.1911
7321 1 16.6173 7.1217 13.4521
7322 1 18.1999 8.7043 15.0347
7323 1 16.6173 7.1217 16.6173
7324 1 18.1999 8.7043 18.1999
7325 1 16.6173 7.1217 19.7825
7326 1 18.1999 8.7043 21.3651
7327 1 16.6173 7.1217 22.9477
7328 1 18.1999 8.7043 24.5303
7329 1 16.6173 7.1217 26.1129
7330 1 18.1999 8.7043 27.6955
7331 1 16.6173 7.1217 29.2781
7332 1 18.1999 8.7043 30.8607
7333 1 16.6173 7.1217 32.4433
7334 1 18.1999 8.7043 34.0259
7335 1 16.6173 7.1217 35.6085
7336 1 18.1999 8.7043 37.1911
7337 1 19.7825 0.7913 13.4521
7338 1 21.3651 2.3739 15.0347
7339 1 19.7825 0.7913 16.6173
7340 1 21.3651 2.3739 18.1999
7341 1 19.7825 0.7913 19.7825
7342 1 21.3651 2.3739 21.3651
7343 1 19.7825 0.7913 22.9477
7344 1 21.3651 2.3739 24.5303
7345 1 19.7825 0.7913 26.1129
7346 1 21.3651 2.3739 27.6955
7347 1 19.7825 0.7913 29.2781
7348 1 21.3651 2.3739 30.8607
7349 1 19.7825 0.7913 32.4433
7350 1 21.3651 2.3739 34.0259
7351 1 19.7825 0.7913 35.6085
7352 1 21.3651 2.3739 37.1911
7353 1 19.7825 3.9565 13.4521
7354 1 21.3651 5.5391 15.0347
7355 1 19.7825 3.9565 16.6173
7356 1 21.3651 5.5391 18.1999
7357 1 19.7825 3.9565 19.7825
7358 1 21.3651 5.5391 21.3651
7359 1 19.7825 3.9565 22.9477
7360 1 21.3651 5.5391 24.5303
7361 1 19.7825 3.9565 26.1129
7362 1 21.3651 5.5391 27.6955
7363 1 19.7825 3.9565 29.2781
7364 1 21.3651 5.5391 30.8607
7365 1 19.7825 3.9565 32.4433
7366 1 21.3651 5.5391 34.0259
7367 1 19.7825 3.9565 35.6085
7368 1 21.3651 5.5391 37.1911
7369 1 19.7825 7.1217 13.4521
7370 1 21.3651 8.7043 15.0347
7371 1 19.7825 7.1217 16.6173
7372 1 21.3651 8.7043 18.1999
7373 1 19.7825 7.1217 19.7825
7374 1 21.3651 8.7043 21.3651
7375 1 19.7825 7.1217 22.9477
7376 1 21.3651 8.7043 24.5303
7377 1 19.7825 7.1217 26.1129
7378 1 21.3651 8.7043 27.6955
7379 1 19.7825 7.1217 29.2781
7380 1 21.3651 8.7043 30.8607
7381 1 19.7825 7.1217 32.4433
7382 1 21.3651 8.7043 34.0259
7383 1 19.7825 7.1217 35.6085
7384 1 21.3651 8.7043 37.1911
7385 1 22.9477 0.7913 13.4521
7386 1 24.5303 2.3739 15.0347
7387 1 22.9477 0.7913 16.6173
7388 1 24.5303 2.3739 18.1999
7389 1 22.9477 0.7913 19.7825
7390 1 24.5303 2.3739 21.3651
7391 1 22.9477 0.7913 22.9477
7392 1 24.5303 2.3739 24.5303
7393 1 22.9477 0.7913 26.1129
7394 1 24.5303 2.3739 27.6955
7395 1 22.9477 0.7913 29.2781
7396 1 24.5303 2.3739 30.8607
7397 1 22.9477 0.7913 32.4433
7398 1 24.5303 2.3739 34.0259
7399 1 22.9477 0.7913 35.6085
7400 1 24.5303 2.3739 37.1911
7401 1 22.9477 3.9565 13.4521
7402 1 24.5303 5.5391 15.0347
7403 1 22.9477 3.9565 16.6173
7404 1 24.5303 5.5391 18.1999
7405 1 22.9477 3.9565 19.7825
7406 1 24.5303 5.5391 21.3651
7407 1 22.9477 3.9565 22.9477
7408 1 24.5303 5.5391 24.5303
7409 1 22.9477 3.9565 26.1129
7410 1 24.5303 5.5391 27.6955
7411 1 22.9477 3.9565 29.2781
7412 1 24.5303 5.5391 30.8607
7413 1 22.9477 3.9565 32.4433
7414 1 24.5303 5.5391 34.0259
7415 1 22.9477 3.9565 35.6085
7416 1 24.5303 5.5391 37.1911
7417 1 22.9477 7.1217 13.4521
7418 1 24.5303 8.7043 15.0347
7419 1 22.9477 7.1217 16.6173
7420 1 24.5303 8.7043 18.1999
7421 1 22.9477 7.1217 19.7825
7422 1 24.5303 8.7043 21.3651
7423 1 22.9477 7.1217 22.9477
7424 1 24.5303 8.7043 24.5303
7425 1 22.9477 7.1217 26.1129
7426 1 24.5303 8.7043 27.6955
7427 1 22.9477 7.1217 29.2781
7428 1 24.5303 8.7043 30.8607
7429 1 22.9477 7.1217 32.4433
7430 1 24.5303 8.7043 34.0259
7431 1 22.9477 7.1217 35.6085
7432 1 24.5303 8.7043 37.1911
7433 1 26.1129 0.7913 13.4521
7434 1 27.6955 2.3739 15.0347
7435 1 26.1129 0.7913 16.6173
7436 1 27.6955 2.3739 18.1999
7437 1 26.1129 0.7913 19.7825
7438 1 27.6955 2.3739 21.3651
7439 1 26.1129 0.7913 22.9477
7440 1 27.6955 2.3739 24.5303
7441 1 26.1129 0.7913 26.1129
7442 1 27.6955 2.3739 27.6955
7443 1 26.1129 0.7913 29.2781
7444 1 27.6955 2.3739 30.8607
7445 1 26.1129 0.7913 32.4433
7446 1 27.6955 2.3739 34.0259
7447 1 26.1129 0.7913 35.6085
7448 1 27.6955 2.3739 37.1911
7449 1 26.1129 3.9565 13.4521
7450 1 27.6955 5.5391 15.0347
7451 1 26.1129 3.9565 16.6173
7452 1 27.6955 5.5391 18.1999
7453 1 26.1129 3.9565 19.7825
7454 1 27.6955 5.5391 21.3651
7455 1 26.1129 3.9565 22.9477
7456 1 27.6955 5.5391 24.5303
7457 1 26.1129 3.9565 26.1129
7458 1 27.6955 5.5391 27.6955
7459 1 26.1129 3.9565 29.2781
7460 1 27.6955 5.5391 30.8607
7461 1 26.1129 3.9565 32.4433
7462 1 27.6955 5.5391 34.0259
7463 1 26.1129 3.9565 35.6085
7464 1 27.6955 5.5391 37.1911
7465 1 26.1129 7.1217 13.4521
7466 1 27.6955 8.7043 15.0347
7467 1 26.1129 7.1217 16.6173
7468 1 27.6955 8.7043 18.1999
7469 1 26.1129 7.1217 19.7825
7470 1 27.6955 8.7043 21.3651
7471 1 26.1129 7.1217 22.9477
7472 1 27.6955 8.7043 24.5303
7473 1 26.1129 7.1217 26.1129
7474 1 27.6955 8.7043 27.6955
7475 1 26.1129 7.1217 29.2781
7476 1 27.6955 8.7043 30.8607
7477 1 26.1129 7.1217 32.4433
7478 1 27.6955 8.7043 34.0259
7479 1 26.1129 7.1217 35.6085
7480 1 27.6955 8.7043 37.1911
7481 1 29.2781 0.7913 13.4521
7482 1 30.8607 2.3739 15.0347
7483 1 29.2781 0.7913 16.6173
7484 1 30.8607 2.3739 18.1999
7485 1 29.2781 0.7913 19.7825
7486 1 30.8607 2.3739 21.3651
7487 1 29.2781 0.7913 22.9477
7488 1 30.8607 2.3739 24.5303
7489 1 29.2781 0.7913 26.1129
7490 1 30.8607 2.3739 27.6955
7491 1 29.2781 0.7913 29.2781
7492 1 30.8607 2.3739 30.8607
7493 1 29.2781 0.7913 32.4433
7494 1 30.8607 2.3739 34.0259
7495 1 29.2781 0.7913 35.6085
7496 1 30.8607 2.3739 37.1911
7497 1 29.2781 3.9565 13.4521
7498 1 30.8607 5.5391 15.0347
7499 1 29.2781 3.9565 16.6173
7500 1 30.8607 5.5391 18.1999
7501 1 29.2781 3.9565 19.7825
7502 1 30.8607 5.5391 21.3651
7503 1 29.2781 3.9565 22.9477
7504 1 30.8607 5.5391 24.5303
7505 1 29.2781 3.9565 26.1129
7506 1 30.8607 5.5391 27.6955
7507 1 29.2781 3.9565 29.2781
7508 1 30.8607 5.5391 30.8607
7509 1 29.2781 3.9565 32.4433
7510 1 30.8607 5.5391 34.0259
7511 1 29.2781 3.9565 35.6085
7512 1 30.8607 5.5391 37.1911
7513 1 29.2781 7.1217 13.4521
7514 1 30.8607 8.7043 15.0347
7515 1 29.2781 7.1217 16.6173
7516 1 30.8607 8.7043 18.1999
7517 1 29.2781 7.1217 19.7825
7518 1 30.8607 8.7043 21.3651
7519 1 29.2781 7.1217 22.9477
7520 1 30.8607 8.7043 24.5303
7521 1 29.2781 7.1217 26.1129
7522 1 30.8607 8.7043 27.6955
7523 1 29.2781 7.1217 29.2781
7524 1 30.8607 8.7043 30.8607
7525 1 29.2781 7.1217 32.4433
7526 1 30.8607 8.7043 34.0259
7527 1 29.2781 7.1217 35.6085
7528 1 30.8607 8.7043 37.1911
7529 1 32.4433 0.7913 13.4521
7530 1 34.0259 2.3739 15.0347
7531 1 32.4433 0.7913 16.6173
7532 1 34.0259 2.3739 18.1999
7533 1 32.4433 0.7913 19.7825
7534 1 34.0259 2.3739 21.3651
7535 1 32.4433 0.7913 22.9477
7536 1 34.0259 2.3739 24.5303
7537 1 32.4433 0.7913 26.1129
7538 1 34.0259 2.3739 27.6955
7539 1 32.4433 0.7913 29.2781
7540 1 34.0259 2.3739 30.8607
7541 1 32.4433 0.7913 32.4433
7542 1 34.0259 2.3739 34.0259
7543 1 32.4433 0.7913 35.6085
7544 1 34.0259 2.3739 37.1911
7545 1 32.4433 3.9565 13.4521
7546 1 34.0259 5.5391 15.0347
7547 1 32.4433 3.9565 16.6173
7548 1 34.0259 5.5391 18.1999
7549 1 32.4433 3.9565 19.7825
7550 1 34.0259 5.5391 21.3651
7551 1 32.4433 3.9565 22.9477
7552 1 34.0259 5.5391 24.5303
7553 1 32.4433 3.9565 26.1129
7554 1 34.0259 5.5391 27.6955
7555 1 32.4433 3.9565 29.2781
7556 1 34.0259 5.5391 30.8607
7557 1 32.4433 3.9565 32.4433
7558 1 34.0259 5.5391 34.0259
7559 1 32.4433 3.9565 35.6085
7560 1 34.0259 5.5391 37.1911
7561 1 32.4433 7.1217 13.4521
7562 1 34.0259 8.7043 15.0347
7563 1 32.4433 7.1217 16.6173
7564 1 34.0259 8.7043 18.1999
7565 1 32.4433 7.1217 19.7825
7566 1 34.0259 8.7043 21.3651
7567 1 32.4433 7.1217 22.9477
7568 1 34.0259 8.7043 24.5303
7569 1 32.4433 7.1217 26.1129
7570 1 34.0259 8.7043 27.6955
7571 1 32.4433 7.1217 29.2781
7572 1 34.0259 8.7043 30.8607
7573 1 32.4433 7.1217 32.4433
7574 1 34.0259 8.7043 34.0259
7575 1 32.4433 7.1217 35.6085
7576 1 34.0259 8.7043 37.1911
7577 1 35.6085 0.7913 13.4521
7578 1 37.1911 2.3739 15.0347
7579 1 35.6085 0.7913 16.6173
7580 1 37.1911 2.3739 18.1999
7581 1 35.6085 0.7913 19.7825
7582 1 37.1911 2.3739 21.3651
7583 1 35.6085 0.7913 22.9477
7584 1 37.1911 2.3739 24.5303
7585 1 35.6085 0.7913 26.1129
7586 1 37.1911 2.3739 27.6955
7587 1 35.6085 0.7913 29.2781
7588 1 37.1911 2.3739 30.8607
7589 1 35.6085 0.7913 32.4433
7590 1 37.1911 2.3739 34.0259
7591 1 35.6085 0.7913 35.6085
7592 1 37.1911 2.3739 37.1911
7593 1 35.6085 3.9565 13.4521
7594 1 37.1911 5.5391 15.0347
7595 1 35.6085 3.9565 16.6173
7596 1 37.1911 5.5391 18.1999
7597 1 35.6085 3.9565 19.7825
7598 1 37.1911 5.5391 21.3651
7599 1 35.6085 3.9565 22.9477
7600 1 37.1911 5.5391 24.5303
7601 1 35.6085 3.9565 26.1129
7602 1 37.1911 5.5391 27.6955
7603 1 35.6085 3.9565 29.2781
7604 1 37.1911 5.5391 30.8607
7605 1 35.6085 3.9565 32.4433
7606 1 37.1911 5.5391 34.0259
7607 1 35.6085 3.9565 35.6085
7608 1 37.1911 5.5391 37.1911
7609 1 35.6085 7.1217 13.4521
7610 1 37.1911 8.7043 15.0347
7611 1 35.6085 7.1217 16.6173
7612 1 37.1911 8.7043 18.1999
7613 1 35.6085 7.1217 19.7825
7614 1 37.1911 8.7043 21.3651
7615 1 35.6085 7.1217 22.9477
7616 1 37.1911 8.7043 24.5303
7617 1 35.6085 7.1217 26.1129
7618 1 37.1911 8.7043 27.6955
7619 1 35.6085 7.1217 29.2781
7620 1 37.1911 8.7043 30.8607
7621 1 35.6085 7.1217 32.4433
7622 1 37.1911 8.7043 34.0259
7623 1 35.6085 7.1217 35.6085
7624 1 37.1911 8.7043 37.1911
7625 1 10.2869 38.7737 13.4521
7626 1 11.8695 40.3563 15.0347
7627 1 10.2869 38.7737 16.6173
7628 1 11.8695 40.3563 18.1999
7629 1 10.2869 38.7737 19.7825
7630 1 11.8695 40.3563 21.3651
7631 1 10.2869 38.7737 22.9477
7632 1 11.8695 40.3563 24.5303
7633 1 10.2869 38.7737 26.1129
7634 1 11.8695 40.3563 27.6955
7635 1 10.2869 38.7737 29.2781
7636 1 11.8695 40.3563 30.8607
7637 1 10.2869 38.7737 32.4433
7638 1 11.8695 40.3563 34.0259
7639 1 10.2869 38.7737 35.6085
7640 1 11.8695 40.3563 37.1911
7641 1 10.2869 41.9389 13.4521
7642 1 11.8695 43.5215 15.0347
7643 1 10.2869 41.9389 16.6173
7644 1 11.8695 43.5215 18.1999
7645 1 10.2869 41.9389 19.7825
7646 1 11.8695 43.5215 21.3651
7647 1 10.2869 41.9389 22.9477
7648 1 11.8695 43.5215 24.5303
7649 1 10.2869 41.9389 26.1129
7650 1 11.8695 43.5215 27.6955
7651 1 10.2869 41.9389 29.2781
7652 1 11.8695 43.5215 30.8607
7653 1 10.2869 41.9389 32.4433
7654 1 11.8695 43.5215 34.0259
7655 1 10.2869 41.9389 35.6085
7656 1 11.8695 43.5215 37.1911
7657 1 10.2869 45.1041 13.4521
7658 1 11.8695 46.6867 15.0347
7659 1 10.2869 45.1041 16.6173
7660 1 11.8695 46.6867 18.1999
7661 1 10.2869 45.1041 19.7825
7662 1 11.8695 46.6867 21.3651
7663 1 10.2869 45.1041 22.9477
7664 1 11.8695 46.6867 24.5303
7665 1 10.2869 45.1041 26.1129
7666 1 11.8695 46.6867 27.6955
7667 1 10.2869 45.1041 29.2781
7668 1 11.8695 46.6867 30.8607
7669 1 10.2869 45.1041 32.4433
7670 1 11.8695 46.6867 34.0259
7671 1 10.2869 45.1041 35.6085
7672 1 11.8695 46.6867 37.1911
7673 1 10.2869 48.2693 13.4521
7674 1 11.8695 49.8519 15.0347
7675 1 10.2869 48.2693 16.6173
7676 1 11.8695 49.8519 18.1999
7677 1 10.2869 48.2693 19.7825
7678 1 11.8695 49.8519 21.3651
7679 1 10.2869 48.2693 22.9477
7680 1 11.8695 49.8519 24.5303
7681 1 10.2869 48.2693 26.1129
7682 1 11.8695 49.8519 27.6955
7683 1 10.2869 48.2693 29.2781
7684 1 11.8695 49.8519 30.8607
7685 1 10.2869 48.2693 32.4433
7686 1 11.8695 49.8519 34.0259
7687 1 10.2869 48.2693 35.6085
7688 1 11.8695 49.8519 37.1911
7689 1 13.4521 38.7737 13.4521
7690 1 15.0347 40.3563 15.0347
7691 1 13.4521 38.7737 16.6173
7692 1 15.0347 40.3563 18.1999
7693 1 13.4521 38.7737 19.7825
7694 1 15.0347 40.3563 21.3651
7695 1 13.4521 38.7737 22.9477
7696 1 15.0347 40.3563 24.5303
7697 1 13.4521 38.7737 26.1129
7698 1 15.0347 40.3563 27.6955
7699 1 13.4521 38.7737 29.2781
7700 1 15.0347 40.3563 30.8607
7701 1 13.4521 38.7737 32.4433
7702 1 15.0347 40.3563 34.0259
7703 1 13.4521 38.7737 35.6085
7704 1 15.0347 40.3563 37.1911
7705 1 13.4521 41.9389 13.4521
7706 1 15.0347 43.5215 15.0347
7707 1 13.4521 41.9389 16.6173
7708 1 15.0347 43.5215 18.1999
7709 1 13.4521 41.9389 19.7825
7710 1 15.0347 43.5215 21.3651
7711 1 13.4521 41.9389 22.9477
7712 1 15.0347 43.5215 24.5303
7713 1 13.4521 41.9389 26.1129
7714 1 15.0347 43.5215 27.6955
7715 1 13.4521 41.9389 29.2781
7716 1 15.0347 43.5215 30.8607
7717 1 13.4521 41.9389 32.4433
7718 1 15.0347 43.5215 34.0259
7719 1 13.4521 41.9389 35.6085
7720 1 15.0347 43.5215 37.1911
7721 1 13.4521 45.1041 13.4521
7722 1 15.0347 46.6867 15.0347
7723 1 13.4521 45.1041 16.6173
7724 1 15.0347 46.6867 18.1999
7725 1 13.4521 45.1041 19.7825
7726 1 15.0347 46.6867 21.3651
7727 1 13.4521 45.1041 22.9477
7728 1 15.0347 46.6867 24.5303
7729 1 13.4521 45.1041 26.1129
7730 1 15.0347 46.6867 27.6955
7731 1 13.4521 45.1041 29.2781
7732 1 15.0347 46.6867 30.8607
7733 1 13.4521 45.1041 32.4433
7734 1 15.0347 46.6867 34.0259
7735 1 13.4521 45.1041 35.6085
7736 1 15.0347 46.6867 37.1911
7737 1 13.4521 48.2693 13.4521
7738 1 15.0347 49.8519 15.0347
7739 1 13.4521 48.2693 16.6173
7740 1 15.0347 49.8519 18.1999
7741 1 13.4521 48.2693 19.7825
7742 1 15.0347 49.8519 21.3651
7743 1 13.4521 48.2693 22.9477
7744 1 15.0347 49.8519 24.5303
7745 1 13.4521 48.2693 26.1129
7746 1 15.0347 49.8519 27.6955
7747 1 13.4521 48.2693 29.2781
7748 1 15.0347 49.8519 30.8607
7749 1 13.4521 48.2693 32.4433
7750 1 15.0347 49.8519 34.0259
7751 1 13.4521 48.2693 35.6085
7752 1 15.0347 49.8519 37.1911
7753 1 16.6173 38.7737 13.4521
7754 1 18.1999 40.3563 15.0347
7755 1 16.6173 38.7737 16.6173
7756 1 18.1999 40.3563 18.1999
7757 1 16.6173 38.7737 19.7825
7758 1 18.1999 40.3563 21.3651
7759 1 16.6173 38.7737 22.9477
7760 1 18.1999 40.3563 24.5303
7761 1 16.6173 38.7737 26.1129
7762 1 18.1999 40.3563 27.6955
7763 1 16.6173 38.7737 29.2781
7764 1 18.1999 40.3563 30.8607
7765 1 16.6173 38.7737 32.4433
7766 1 18.1999 40.3563 34.0259
7767 1 16.6173 38.7737 35.6085
7768 1 18.1999 40.3563 37.1911
7769 1 16.6173 41.9389 13.4521
7770 1 18.1999 43.5215 15.0347
7771 1 16.6173 41.9389 16.6173
7772 1 18.1999 43.5215 18.1999
7773 1 16.6173 41.9389 19.7825
7774 1 18.1999 43.5215 21.3651
7775 1 16.6173 41.9389 22.9477
7776 1 18.1999 43.5215 24.5303
7777 1 16.6173 41.9389 26.1129
7778 1 18.1999 43.5215 27.6955
7779 1 16.6173 41.9389 29.2781
7780 1 18.1999 43.5215 30.8607
7781 1 16.6173 41.9389 32.4433
7782 1 18.1999 43.5215 34.0259
7783 1 16.6173 41.9389 35.6085
7784 1 18.1999 43.5215 37.1911
7785 1 16.6173 45.1041 13.4521
7786 1 18.1999 46.6867 15.0347
7787 1 16.6173 45.1041 16.6173
7788 1 18.1999 46.6867 18.1999
7789 1 16.6173 45.1041 19.7825
7790 1 18.1999 46.6867 21.3651
7791 1 16.6173 45.1041 22.9477
7792 1 18.1999 46.6867 24.5303
7793 1 16.6173 45.1041 26.1129
7794 1 18.1999 46.6867 27.6955
7795 1 16.6173 45.1041 29.2781
7796 1 18.1999 46.6867 30.8607
7797 1 16.6173 45.1041 32.4433
7798 1 18.1999 46.6867 34.0259
7799 1 16.6173 45.1041 35.6085
7800 1 18.1999 46.6867 37.1911
7801 1 16.6173 48.2693 13.4521
7802 1 18.1999 49.8519 15.0347
7803 1 16.6173 48.2693 16.6173
7804 1 18.1999 49.8519 18.1999
7805 1 16.6173 48.2693 19.7825
7806 1 18.1999 49.8519 21.3651
7807 1 16.6173 48.2693 22.9477
7808 1 18.1999 49.8519 24.5303
7809 1 16.6173 48.2693 26.1129
7810 1 18.1999 49.8519 27.6955
7811 1 16.6173 48.2693 29.2781
7812 1 18.1999 49.8519 30.8607
7813 1 16.6173 48.2693 32.4433
7814 1 18.1999 49.8519 34.0259
7815 1 16.6173 48.2693 35.6085
7816 1 18.1999 49.8519 37.1911
7817 1 19.7825 38.7737 13.4521
7818 1 21.3651 40.3563 15.0347
7819 1 19.7825 38.7737 16.6173
7820 1 21.3651 40.3563 18.1999
7821 1 19.7825 38.7737 19.7825
7822 1 21.3651 40.3563 21.3651
7823 1 19.7825 38.7737 22.9477
7824 1 21.3651 40.3563 24.5303
7825 1 19.7825 38.7737 26.1129
7826 1 21.3651 40.3563 27.6955
7827 1 19.7825 38.7737 29.2781
7828 1 21.3651 40.3563 30.8607
7829 1 19.7825 38.7737 32.4433
7830 1 21.3651 40.3563 34.0259
7831 1 19.7825 38.7737 35.6085
7832 1 21.3651 40.3563 37.1911
7833 1 19.7825 41.9389 13.4521
7834 1 21.3651 43.5215 15.0347
7835 1 19.7825 41.9389 16.6173
7836 1 21.3651 43.5215 18.1999
7837 1 19.7825 41.9389 19.7825
7838 1 21.3651 43.5215 21.3651
7839 1 19.7825 41.9389 22.9477
7840 1 21.3651 43.5215 24.5303
7841 1 19.7825 41.9389 26.1129
7842 1 21.3651 43.5215 27.6955
7843 1 19.7825 41.9389 29.2781
7844 1 21.3651 43.5215 30.8607
7845 1 19.7825 41.9389 32.4433
7846 1 21.3651 43.5215 34.0259
7847 1 19.7825 41.9389 35.6085
7848 1 21.3651 43.5215 37.1911
7849 1 19.7825 45.1041 13.4521
7850 1 21.3651 46.6867 15.0347
7851 1 19.7825 45.1041 16.6173
7852 1 21.3651 46.6867 18.1999
7853 1 19.7825 45.1041 19.7825
7854 1 21.3651 46.6867 21.3651
7855 1 19.7825 45.1041 22.9477
7856 1 21.3651 46.6867 24.5303
7857 1 19.7825 45.1041 26.1129
7858 1 21.3651 46.6867 27.6955
7859 1 19.7825 45.1041 29.2781
7860 1 21.3651 46.6867 30.8607
7861 1 19.7825 45.1041 32.4433
7862 1 21.3651 46.6867 34.0259
7863 1 19.7825 45.1041 35.6085
7864 1 21.3651 46.6867 37.1911
7865 1 19.7825 48.2693 13.4521
7866 1 21.3651 49.8519 15.0347
7867 1 19.7825 48.2693 16.6173
7868 1 21.3651 49.8519 18.1999
7869 1 19.7825 48.2693 19.7825
7870 1 21.3651 49.8519 21.3651
7871 1 19.7825 48.2693 22.9477
7872 1 21.3651 49.8519 24.5303
7873 1 19.7825 48.2693 26.1129
7874 1 21.3651 49.8519 27.6955
7875 1 19.7825 48.2693 29.2781
7876 1 21.3651 49.8519 30.8607
7877 1 19.7825 48.2693 32.4433
7878 1 21.3651 49.8519 34.0259
7879 1 19.7825 48.2693 35.6085
7880 1 21.3651 49.8519 37.1911
7881 1 22.9477 38.7737 13.4521
7882 1 24.5303 40.3563 15.0347
7883 1 22.9477 38.7737 16.6173
7884 1 24.5303 40.3563 18.1999
7885 1 22.9477 38.7737 19.7825
7886 1 24.5303 40.3563 21.3651
7887 1 22.9477 38.7737 22.9477
7888 1 24.5303 40.3563 24.5303
7889 1 22.9477 38.7737 26.1129
7890 1 24.5303 40.3563 27.6955
7891 1 22.9477 38.7737 29.2781
7892 1 24.5303 40.3563 30.8607
7893 1 22.9477 38.7737 32.4433
7894 1 24.5303 40.3563 34.0259
7895 1 22.9477 38.7737 35.6085
7896 1 24.5303 40.3563 37.1911
7897 1 22.9477 41.9389 13.4521
7898 1 24.5303 43.5215 15.0347
7899 1 22.9477 41.9389 16.6173
7900 1 24.5303 43.5215 18.1999
7901 1 22.9477 41.9389 19.7825
7902 1 24.5303 43.5215 21.3651
7903 1 22.9477 41.9389 22.9477
7904 1 24.5303 43.5215 24.5303
7905 1 22.9477 41.9389 26.1129
7906 1 24.5303 43.5215 27.6955
7907 1 22.9477 41.9389 29.2781
7908 1 24.5303 43.5215 30.8607
7909 1 22.9477 41.9389 32.4433
7910 1 24.5303 43.5215 34.0259
7911 1 22.9477 41.9389 35.6085
7912 1 24.5303 43.5215 37.1911
7913 1 22.9477 45.1041 13.4521
7914 1 24.5303 46.6867 15.0347
7915 1 22.9477 45.1041 16.6173
7916 1 24.5303 46.6867 18.1999
7917 1 22.9477 45.1041 19.7825
7918 1 24.5303 46.6867 21.3651
7919 1 22.9477 45.1041 22.9477
7920 1 24.5303 46.6867 24.5303
7921 1 22.9477 45.1041 26.1129
7922 1 24.5303 46.6867 27.6955
7923 1 22.9477 45.1041 29.2781
7924 1 24.5303 46.6867 30.8607
7925 1 22.9477 45.1041 32.4433
7926 1 24.5303 46.6867 34.0259
7927 1 22.9477 45.1041 35.6085
7928 1 24.5303 46.6867 37.1911
7929 1 22.9477 48.2693 13.4521
7930 1 24.5303 49.8519 15.0347
7931 1 22.9477 48.2693 16.6173
7932 1 24.5303 49.8519 18.1999
7933 1 22.9477 48.2693 19.7825
7934 1 24.5303 49.8519 21.3651
7935 1 22.9477 48.2693 22.9477
7936 1 24.5303 49.8519 24.5303
7937 1 22.9477 48.2693 26.1129
7938 1 24.5303 49.8519 27.6955
7939 1 22.9477 48.2693 29.2781
7940 1 24.5303 49.8519 30.8607
7941 1 22.9477 48.2693 32.4433
7942 1 24.5303 49.8519 34.0259
7943 1 22.9477 48.2693 35.6085
7944 1 24.5303 49.8519 37.1911
7945 1 26.1129 38.7737 13.4521
7946 1 27.6955 40.3563 15.0347
7947 1 26.1129 38.7737 16.6173
7948 1 27.6955 40.3563 18.1999
7949 1 26.1129 38.7737 19.7825
7950 1 27.6955 40.3563 21.3651
7951 1 26.1129 38.7737 22.9477
7952 1 27.6955 40.3563 24.5303
7953 1 26.1129 38.7737 26.1129
7954 1 27.6955 40.3563 27.6955
7955 1 26.1129 38.7737 29.2781
7956 1 27.6955 40.3563 30.8607
7957 1 26.1129 38.7737 32.4433
7958 1 27.6955 40.3563 34.0259
7959 1 26.1129 38.7737 35.6085
7960 1 27.6955 40.3563 37.1911
7961 1 26.1129 41.9389 13.4521
7962 1 27.6955 43.5215 15.0347
7963 1 26.1129 41.9389 16.6173
7964 1 27.6955 43.5215 18.1999
7965 1 26.1129 41.9389 19.7825
7966 1 27.6955 43.5215 21.3651
7967 1 26.1129 41.9389 22.9477
7968 1 27.6955 43.5215 24.5303
7969 1 26.1129 41.9389 26.1129
7970 1 27.6955 43.5215 27.6955
7971 1 26.1129 41.9389 29.2781
7972 1 27.6955 43.5215 30.8607
7973 1 26.1129 41.9389 32.4433
7974 1 27.6955 43.5215 34.0259
7975 1 26.1129 41.9389 35.6085
7976 1 27.6955 43.5215 37.1911
7977 1 26.1129 45.1041 13.4521
7978 1 27.6955 46.6867 15.0347
7979 1 26.1129 45.1041 16.6173
7980 1 27.6955 46.6867 18.1999
7981 1 26.1129 45.1041 19.7825
7982 1 27.6955 46.6867 21.3651
7983 1 26.1129 45.1041 22.9477
7984 1 27.6955 46.6867 24.5303
7985 1 26.1129 45.1041 26.1129
7986 1 27.6955 46.6867 27.6955
7987 1 26.1129 45.1041 29.2781
7988 1 27.6955 46.6867 30.8607
7989 1 26.1129 45.1041 32.4433
7990 1 27.6955 46.6867 34.0259
7991 1 26.1129 45.1041 35.6085
7992 1 27.6955 46.6867 37.1911
7993 1 26.1129 48.2693 13.4521
7994 1 27.6955 49.8519 15.0347
7995 1 26.1129 48.2693 16.6173
7996 1 27.6955 49.8519 18.1999
7997 1 26.1129 48.2693 19.7825
7998 1 27.6955 49.8519 21.3651
7999 1 26.1129 48.2693 22.9477
8000 1 27.6955 49.8519 24.5303
8001 1 26.1129 48.2693 26.1129
8002 1 27.6955 49.8519 27.6955
8003 1 26.1129 48.2693 29.2781
8004 1 27.6955 49.8519 30.8607
8005 1 26.1129 48.2693 32.4433
8006 1 27.6955 49.8519 34.0259
8007 1 26.1129 48.2693 35.6085
8008 1 27.6955 49.8519 37.1911
8009 1 29.2781 38.7737 13.4521
8010 1 30.8607 40.3563 15.0347
8011 1 29.2781 38.7737 16.6173
8012 1 30.8607 40.3563 18.1999
8013 1 29.2781 38.7737 19.7825
8014 1 30.8607 40.3563 21.3651
8015 1 29.2781 38.7737 22.9477
8016 1 30.8607 40.3563 24.5303
8017 1 29.2781 38.7737 26.1129
8018 1 30.8607 40.3563 27.6955
8019 1 29.2781 38.7737 29.2781
8020 1 30.8607 40.3563 30.8607
8021 1 29.2781 38.7737 32.4433
8022 1 30.8607 40.3563 34.0259
8023 1 29.2781 38.7737 35.6085
8024 1 30.8607 40.3563 37.1911
8025 1 29.2781 41.9389 13.4521
8026 1 30.8607 43.5215 15.0347
8027 1 29.2781 41.9389 16.6173
8028 1 30.8607 43.5215 18.1999
8029 1 29.2781 41.9389 19.7825
8030 1 30.8607 43.5215 21.3651
8031 1 29.2781 41.9389 22.9477
8032 1 30.8607 43.5215 24.5303
8033 1 29.2781 41.9389 26.1129
8034 1 30.8607 43.5215 27.6955
8035 1 29.2781 41.9389 29.2781
8036 1 30.8607 43.5215 30.8607
8037 1 29.2781 41.9389 32.4433
8038 1 30.8607 43.5215 34.0259
8039 1 29.2781 41.9389 35.6085
8040 1 30.8607 43.5215 37.1911
8041 1 29.2781 45.1041 13.4521
8042 1 30.8607 46.6867 15.0347
8043 1 29.2781 45.1041 16.6173
8044 1 30.8607 46.6867 18.1999
8045 1 29.2781 45.1041 19.7825
8046 1 30.8607 46.6867 21.3651
8047 1 29.2781 45.1041 22.9477
8048 1 30.8607 46.6867 24.5303
8049 1 29.2781 45.1041 26.1129
8050 1 30.8607 46.6867 27.6955
8051 1 29.2781 45.1041 29.2781
8052 1 30.8607 46.6867 30.8607
8053 1 29.2781 45.1041 32.4433
8054 1 30.8607 46.6867 34.0259
8055 1 29.2781 45.1041 35.6085
8056 1 30.8607 46.6867 37.1911
8057 1 29.2781 48.2693 13.4521
8058 1 30.8607 49.8519 15.0347
8059 1 29.2781 48.2693 16.6173
8060 1 30.8607 49.8519 18.1999
8061 1 29.2781 48.2693 19.7825
8062 1 30.8607 49.8519 21.3651
8063 1 29.2781 48.2693 22.9477
8064 1 30.8607 49.8519 24.5303
8065 1 29.2781 48.2693 26.1129
8066 1 30.8607 49.8519 27.6955
8067 1 29.2781 48.2693 29.2781
8068 1 30.8607 49.8519 30.8607
8069 1 29.2781 48.2693 32.4433
8070 1 30.8607 49.8519 34.0259
8071 1 29.2781 48.2693 35.6085
8072 1 30.8607 49.8519 37.1911
8073 1 32.4433 38.7737 13.4521
8074 1 34.0259 40.3563 15.0347
8075 1 32.4433 38.7737 16.6173
8076 1 34.0259 40.3563 18.1999
8077 1 32.4433 38.7737 19.7825
8078 1 34.0259 40.3563 21.3651
8079 1 32.4433 38.7737 22.9477
8080 1 34.0259 40.3563 24.5303
8081 1 32.4433 38.7737 26.1129
8082 1 34.0259 40.3563 27.6955
8083 1 32.4433 38.7737 29.2781
8084 1 34.0259 40.3563 30.8607
8085 1 32.4433 38.7737 32.4433
8086 1 34.0259 40.3563 34.0259
8087 1 32.4433 38.7737 35.6085
8088 1 34.0259 40.3563 37.1911
8089 1 32.4433 41.9389 13.4521
8090 1 34.0259 43.5215 15.0347
8091 1 32.4433 41.9389 16.6173
8092 1 34.0259 43.5215 18.1999
8093 1 32.4433 41.9389 19.7825
8094 1 34.0259 43.5215 21.3651
8095 1 32.4433 41.9389 22.9477
8096 1 34.0259 43.5215 24.5303
8097 1 32.4433 41.9389 26.1129
8098 1 34.0259 43.5215 27.6955
8099 1 32.4433 41.9389 29.2781
8100 1 34.0259 43.5215 30.8607
8101 1 32.4433 41.9389 32.4433
8102 1 34.0259 43.5215 34.0259
8103 1 32.4433 41.9389 35.6085
8104 1 34.0259 43.5215 37.1911
8105 1 32.4433 45.1041 13.4521
8106 1 34.0259 46.6867 15.0347
8107 1 32.4433 45.1041 16.6173
8108 1 34.0259 46.6867 18.1999
8109 1 32.4433 45.1041 19.7825
8110 1 34.0259 46.6867 21.3651
8111 1 32.4433 45.1041 22.9477
8112 1 34.0259 46.6867 24.5303
8113 1 32.4433 45.1041 26.1129
8114 1 34.0259 46.6867 27.6955
8115 1 32.4433 45.1041 29.2781
8116 1 34.0259 46.6867 30.8607
8117 1 32.4433 45.1041 32.4433
8118 1 34.0259 46.6867 34.0259
8119 1 32.4433 45.1041 35.6085
8120 1 34.0259 46.6867 37.1911
8121 1 32.4433 48.2693 13.4521
8122 1 34.0259 49.8519 15.0347
8123 1 32.4433 48.2693 16.6173
8124 1 34.0259 49.8519 18.1999
8125 1 32.4433 48.2693 19.7825
8126 1 34.0259 49.8519 21.3651
8127 1 32.4433 48.2693 22.9477
8128 1 34.0259 49.8519 24.5303
8129 1 32.4433 48.2693 26.1129
8130 1 34.0259 49.8519 27.6955
8131 1 32.4433 48.2693 29.2781
8132 1 34.0259 49.8519 30.8607
8133 1 32.4433 48.2693 32.4433
8134 1 34.0259 49.8519 34.0259
8135 1 32.4433 48.2693 35.6085
8136 1 34.0259 49.8519 37.1911
8137 1 35.6085 38.7737 13.4521
8138 1 37.1911 40.3563 15.0347
8139 1 35.6085 38.7737 16.6173
8140 1 37.1911 40.3563 18.1999
8141 1 35.6085 38.7737 19.7825
8142 1 37.1911 40.3563 21.3651
8143 1 35.6085 38.7737 22.9477
8144 1 37.1911 40.3563 24.5303
8145 1 35.6085 38.7737 26.1129
8146 1 37.1911 40.3563 27.6955
8147 1 35.6085 38.7737 29.2781
8148 1 37.1911 40.3563 30.8607
8149 1 35.6085 38.7737 32.4433
8150 1 37.1911 40.3563 34.0259
8151 1 35.6085 38.7737 35.6085
8152 1 37.1911 40.3563 37.1911
8153 1 35.6085 41.9389 13.4521
8154 1 37.1911 43.5215 15.0347
8155 1 35.6085 41.9389 16.6173
8156 1 37.1911 43.5215 18.1999
8157 1 35.6085 41.9389 19.7825
8158 1 37.1911 43.5215 21.3651
8159 1 35.6085 41.9389 22.9477
8160 1 37.1911 43.5215 24.5303
8161 1 35.6085 41.9389 26.1129
8162 1 37.1911 43.5215 27.6955
8163 1 35.6085 41.9389 29.2781
8164 1 37.1911 43.5215 30.8607
8165 1 35.6085 41.9389 32.4433
8166 1 37.1911 43.5215 34.0259
8167 1 35.6085 41.9389 35.6085
8168 1 37.1911 43.5215 37.1911
8169 1 35.6085 45.1041 13.4521
8170 1 37.1911 46.6867 15.0347
8171 1 35.6085 45.1041 16.6173
8172 1 37.1911 46.6867 18.1999
8173 1 35.6085 45.1041 19.7825
8174 1 37.1911 46.6867 21.3651
8175 1 35.6085 45.1041 22.9477
8176 1 37.1911 46.6867 24.5303
8177 1 35.6085 45.1041 26.1129
8178 1 37.1911 46.6867 27.6955
8179 1 35.6085 45.1041 29.2781
8180 1 37.1911 46.6867 30.8607
8181 1 35.6085 45.1041 32.4433
8182 1 37.1911 46.6867 34.0259
8183 1 35.6085 45.1041 35.6085
8184 1 37.1911 46.6867 37.1911
8185 1 35.6085 48.2693 13.4521
8186 1 37.1911 49.8519 15.0347
8187 1 35.6085 48.2693 16.6173
8188 1 37.1911 49.8519 18.1999
8189 1 35.6085 48.2693 19.7825
8190 1 37.1911 49.8519 21.3651
8191 1 35.6085 48.2693 22.9477
8192 1 37.1911 49.8519 24.5303
8193 1 35.6085 48.2693 26.1129
8194 1 37.1911 49.8519 27.6955
8195 1 35.6085 48.2693 29.2781
8196 1 37.1911 49.8519 30.8607
8197 1 35.6085 48.2693 32.4433
8198 1 37.1911 49.8519 34.0259
8199 1 35.6085 48.2693 35.6085
8200 1 37.1911 49.8519 37.1911
