./desired/DD-Bjorkas/11_6/125_10/cluster.dat


8203 atoms
0 bonds
0 angles
0 dihedrals
0 impropers

2 atom types
0 bond types
0 angle types
0 dihedral types
0 improper types


0.000      50.6432 xlo xhi
0.000      50.6432 ylo yhi
0.000      50.6432 zlo zhi


Atoms

1 1 16.6238 32.5117 13.4576
2 1 16.6055 32.536 16.6235
3 1 18.2058 34.1254 37.2447
4 1 18.2139 34.1126 15.0529
5 1 18.207 34.1177 18.2286
6 1 18.213 34.1107 21.3755
7 1 18.2244 34.0139 30.8766
8 1 16.6153 32.5539 19.799
9 1 16.6077 32.5179 22.969
10 1 18.2177 34.091 24.5811
11 1 16.6239 32.4624 26.145
12 1 18.2185 34.0358 27.7298
13 1 16.5728 32.5745 35.711
14 1 16.6295 32.4355 29.296
15 1 18.2053 34.0079 34.0415
16 1 16.5991 32.4236 32.4759
17 1 19.7952 32.5087 13.4634
18 1 19.7665 32.5754 19.7791
19 1 19.7879 32.5493 22.9581
20 1 19.8086 32.4769 26.1451
21 1 19.7994 32.5602 35.6943
22 1 19.7942 32.5242 16.6431
23 1 19.8074 32.4141 29.3051
24 1 19.7762 32.4248 32.4708
25 1 22.9746 32.5057 13.4854
26 1 22.9588 32.5392 16.6468
27 1 22.9567 32.5665 19.7769
28 1 21.3715 34.1084 15.0586
29 1 21.3848 34.1134 18.2187
30 1 22.9512 32.3935 26.1306
31 1 24.5529 34.0113 27.7491
32 1 26.1337 32.4955 13.4941
33 1 26.1317 32.5202 16.6317
34 1 26.1455 32.5158 19.7985
35 1 24.5552 34.0986 15.0661
36 1 24.5506 34.1054 18.229
37 1 24.5615 34.1091 21.4008
38 1 22.9533 32.5236 22.9691
39 1 27.7186 34.0914 15.0621
40 1 27.7285 34.103 18.2402
41 1 27.7292 34.1023 21.3987
42 1 24.5558 34.0984 34.0702
43 1 21.3784 34.1155 21.3846
44 1 24.5549 34.0621 24.5833
45 1 26.1466 32.4388 26.1657
46 1 21.3935 34.0609 24.5822
47 1 27.729 34.0224 27.7548
48 1 27.7379 34.1421 37.2034
49 1 24.5644 34.0481 30.8987
50 1 26.1374 32.5207 22.9801
51 1 24.5661 34.0807 37.2273
52 1 22.9844 32.3946 29.3266
53 1 26.1358 32.5279 32.4897
54 1 26.1428 32.4217 29.3325
55 1 27.7185 34.0581 24.6074
56 1 22.9957 32.5586 35.6901
57 1 21.4015 34.1278 37.2272
58 1 21.3936 34.0297 34.0593
59 1 21.4094 34.0159 27.7292
60 1 26.1815 32.5621 35.6713
61 1 27.7433 34.1455 34.0793
62 1 27.732 34.0854 30.9114
63 1 22.9915 32.4289 32.4589
64 1 21.4093 33.9917 30.8919
65 1 30.8875 34.0851 15.0738
66 1 30.903 34.1067 18.2356
67 1 30.9006 34.0954 21.4257
68 1 30.8918 34.0855 24.597
69 1 30.9388 34.1513 37.2487
70 1 30.8748 34.0626 27.7464
71 1 30.922 34.1913 34.0777
72 1 30.918 34.1193 30.9135
73 1 29.3168 32.5018 16.6516
74 1 29.2944 32.4897 13.4912
75 1 29.2932 32.5116 19.8126
76 1 29.3387 32.4338 29.3444
77 1 29.3564 32.5781 32.5497
78 1 29.3199 32.4539 26.1776
79 1 29.3192 32.5084 22.9775
80 1 29.3246 32.5736 35.6788
81 1 16.606 22.9975 13.4334
82 1 16.5546 23.0061 16.581
83 1 16.4862 23.0228 19.6594
84 1 16.4187 23.0294 22.8578
85 1 16.4038 23.1651 26.1529
86 1 16.6061 26.1593 13.4351
87 1 16.561 26.2152 16.565
88 1 16.5156 26.2286 19.7082
89 1 16.5316 26.2337 22.8239
90 1 19.1419 23.3608 26.2668
91 1 18.0747 24.6823 34.297
92 1 18.1021 27.8856 34.2894
93 1 16.5504 23.0012 35.7978
94 1 16.6159 29.3564 13.4457
95 1 16.6096 29.3717 16.5955
96 1 16.5489 29.4052 19.7452
97 1 16.5791 29.3753 22.9223
98 1 16.6608 26.0786 25.9492
99 1 16.5714 26.4143 29.5366
100 1 18.2555 27.6167 27.5666
101 1 16.5267 26.3228 32.6714
102 1 16.641 29.2432 29.2792
103 1 16.5744 29.5107 32.5903
104 1 18.1691 24.6021 15.0034
105 1 18.0814 24.6633 18.0968
106 1 18.0255 24.631 21.2393
107 1 18.2142 24.574 24.1161
108 1 16.4566 23.0883 29.4289
109 1 17.9698 24.7646 31.1561
110 1 18.176 27.7698 15.0242
111 1 18.1508 27.8144 18.1475
112 1 18.086 27.8555 21.2753
113 1 18.1747 27.7495 24.4146
114 1 18.1131 28.0119 31.1798
115 1 18.2338 24.6016 37.1963
116 1 16.5389 26.2532 35.8238
117 1 16.638 29.286 26.104
118 1 18.2231 27.8268 37.1893
119 1 17.8997 24.8126 27.9383
120 1 16.5644 23.0557 32.6768
121 1 16.55 29.4374 35.739
122 1 18.1674 30.9746 18.1817
123 1 19.7102 29.5347 32.7446
124 1 19.273 23.1738 29.4992
125 1 19.4123 23.1158 32.7919
126 1 18.1803 30.9115 24.5182
127 1 18.211 30.8247 27.6991
128 1 19.6415 26.2643 19.727
129 1 19.753 26.2017 16.5868
130 1 19.5089 26.4273 29.6529
131 1 19.5981 26.3447 32.8038
132 1 19.5844 23.0453 19.5392
133 1 19.7132 23.0219 16.6504
134 1 18.1846 30.9494 15.0136
135 1 18.1478 30.9793 21.3432
136 1 19.6261 22.9023 22.3605
137 1 18.2135 30.8155 30.8874
138 1 19.773 22.9843 13.4701
139 1 18.1925 30.9658 37.2656
140 1 19.726 29.3867 22.8593
141 1 19.779 29.3686 16.6037
142 1 19.7283 29.4275 19.7065
143 1 19.8156 29.4217 35.6328
144 1 19.7908 23.0121 35.599
145 1 19.8024 26.2321 35.6182
146 1 19.8161 26.0735 25.7652
147 1 19.7111 26.2699 22.617
148 1 18.1281 31.0962 34.1406
149 1 19.7947 26.16 13.471
150 1 19.7933 29.3527 13.4481
151 1 19.8251 29.1914 29.2331
152 1 19.7653 29.2758 26.058
153 1 22.9592 22.9855 13.5196
154 1 22.9467 22.9947 16.7092
155 1 22.9346 22.9274 19.5888
156 1 26.1451 26.1648 35.6052
157 1 22.9545 26.1466 13.498
158 1 21.3665 24.5834 15.07
159 1 22.9419 26.19 16.6318
160 1 21.3024 24.6275 18.1825
161 1 22.9432 26.2419 19.7656
162 1 22.8325 26.2111 22.6477
163 1 21.11 24.4634 23.9031
164 1 24.5462 24.9162 30.8188
165 1 20.8922 24.75 31.236
166 1 22.9573 29.3322 13.4644
167 1 21.3667 27.7479 15.0467
168 1 22.9611 29.3504 16.6307
169 1 21.3412 27.8163 18.2306
170 1 22.9521 29.4121 19.7458
171 1 24.5179 27.8407 21.3363
172 1 21.2803 27.8097 24.2956
173 1 22.916 23.0261 32.2275
174 1 21.398 24.5954 37.1795
175 1 22.9766 29.3801 35.6016
176 1 26.1165 22.9726 13.5147
177 1 26.1313 22.9845 16.7348
178 1 26.1371 26.1537 13.4962
179 1 24.5513 24.5604 15.1092
180 1 26.1442 26.1742 16.6568
181 1 24.549 24.6191 18.2523
182 1 21.3105 27.855 21.1593
183 2 23.9482 24.1092 23.7268
184 1 27.6978 27.7175 24.3108
185 2 25.4453 25.5251 25.2544
186 1 24.5658 24.5874 37.1472
187 1 26.1349 29.3258 13.4905
188 1 24.5547 27.7471 15.0698
189 1 26.1157 29.3337 16.638
190 1 24.536 27.7939 18.1894
191 1 26.1511 29.3741 19.7883
192 1 24.4719 27.8089 24.2353
193 1 26.1244 26.1631 22.7037
194 1 22.6328 25.9027 25.4541
195 1 24.5634 27.7721 34.0777
196 1 24.5484 24.5757 33.9549
197 1 24.5602 30.9237 15.0518
198 1 24.5645 30.9557 18.183
199 1 27.7022 24.5636 15.0967
200 1 27.7544 24.5906 18.2855
201 1 26.1714 22.971 19.6517
202 1 24.4699 24.5835 21.1531
203 2 21.833 23.4017 26.1821
204 1 27.7101 27.746 15.0639
205 1 27.7431 27.7636 18.2326
206 1 26.1581 26.2248 19.8203
207 1 22.8839 29.4709 25.9694
208 1 27.7598 24.5563 33.9906
209 1 22.8906 26.2258 32.4967
210 1 21.2503 28.0141 31.263
211 1 24.5835 27.7803 37.1848
212 1 21.3684 30.9545 18.18
213 1 21.3805 30.9274 15.0478
214 1 26.1524 29.2771 26.0834
215 1 26.2479 26.203 32.4845
216 1 27.7375 27.8085 21.3897
217 1 24.5689 30.7593 27.7366
218 1 26.9097 26.1624 29.7767
219 1 22.9092 29.4278 22.8385
220 2 24.2627 27.4824 26.8453
221 1 21.2115 24.6436 21.0098
222 1 22.9696 23.0129 35.5305
223 1 26.1485 23.0114 32.2551
224 1 22.3083 26.3697 29.7431
225 1 27.7307 24.5626 21.2211
226 1 21.4531 27.5911 27.4556
227 1 26.1969 29.2741 29.4057
228 1 26.1535 22.9992 35.5384
229 1 26.1643 29.3686 35.6027
230 1 27.0753 23.0306 26.2313
231 2 24.7819 26.966 28.9994
232 1 26.1446 29.4102 22.895
233 1 26.1986 29.4592 32.6979
234 1 24.5611 27.9886 31.2715
235 1 27.7567 27.8053 34.0773
236 1 21.3783 27.8346 34.123
237 1 24.5919 31.013 34.1283
238 1 22.9484 29.5133 32.6894
239 1 22.9711 29.1112 29.3028
240 1 21.4109 27.7961 37.1997
241 1 21.3606 24.597 34.007
242 1 26.6482 23.6051 23.5166
243 2 23.3027 24.9518 27.7977
244 1 27.8831 28.0317 31.238
245 1 24.566 30.9414 24.4711
246 2 26.9878 26.745 26.6714
247 2 21.9844 23.2557 29.5093
248 1 28.2287 27.9767 28.1898
249 1 20.6589 24.9335 27.9529
250 1 22.9861 26.1693 35.6061
251 1 27.7296 30.9001 24.5563
252 1 27.739 27.7745 37.1985
253 1 26.9341 22.9918 29.5175
254 1 28.2003 24.5337 31.2219
255 1 24.5756 30.9532 37.2254
256 1 21.3489 30.9742 21.3379
257 1 27.7426 24.5801 37.1645
258 2 25.7713 24.7178 27.8576
259 1 27.7368 30.9661 37.2234
260 1 28.3649 24.6776 27.9159
261 1 28.1808 24.9802 24.797
262 2 24.4029 23.0805 29.415
263 1 22.466 22.7992 22.2142
264 1 24.5544 30.9677 21.3601
265 2 24.4634 23.2202 26.1611
266 1 21.3249 30.9682 24.4712
267 1 27.7933 31.036 34.1445
268 1 27.7556 30.8778 30.9963
269 1 27.7414 30.9609 21.366
270 1 27.7155 30.934 15.0525
271 1 27.7305 30.9356 18.2299
272 1 21.377 30.7965 30.8968
273 1 21.382 30.8058 27.7106
274 1 27.7388 30.8126 27.7618
275 2 25.1607 22.1369 21.9635
276 1 21.395 30.954 37.2523
277 1 24.5574 30.8242 30.9162
278 1 21.3715 31.1021 34.1574
279 1 20.4283 21.8203 24.6343
280 1 29.2984 26.1571 13.5131
281 1 30.8765 24.5722 15.0722
282 1 30.9099 24.5945 18.2255
283 1 30.9562 27.7964 21.3666
284 1 31.044 24.6034 31.0884
285 1 30.8818 27.7424 15.0659
286 1 30.9034 27.7571 18.2186
287 1 30.9821 24.6628 24.521
288 1 31.0423 27.8909 31.0901
289 1 30.8913 30.9164 15.0746
290 1 30.9233 27.7859 37.1634
291 1 31.1534 24.6377 27.836
292 1 29.3065 26.1602 16.659
293 1 30.9437 24.5833 21.3576
294 1 30.9047 30.9345 21.3987
295 1 29.3052 22.9699 13.4928
296 1 29.3032 22.9832 16.6666
297 1 29.6897 26.2529 29.5519
298 1 31.0451 27.9549 27.8565
299 1 30.9437 27.8031 24.5026
300 1 30.9371 24.6041 37.1552
301 1 29.3402 26.1927 19.8617
302 1 31.0255 27.8373 34.2461
303 1 29.3669 23.1012 22.9894
304 1 29.6841 26.3752 26.3791
305 1 31.0283 24.6089 34.2375
306 1 30.8902 30.9194 18.2172
307 1 29.7054 22.9575 29.4879
308 1 29.3902 26.2017 22.7649
309 1 29.3449 29.3696 22.9442
310 1 29.3171 29.3321 13.4922
311 1 29.3105 29.3597 19.8015
312 1 29.3238 29.3389 16.6486
313 1 29.6139 22.9479 32.7179
314 1 29.6906 23.0503 26.2211
315 1 29.4731 29.5371 29.5618
316 1 29.3261 22.9934 35.587
317 1 29.3364 22.9797 19.8032
318 1 31.0046 31.0318 34.1497
319 1 29.3026 29.2168 26.107
320 1 29.445 29.4464 32.7198
321 1 30.9448 30.9847 37.2467
322 1 29.3294 26.2001 35.61
323 1 29.4763 26.2327 32.6963
324 1 29.3562 29.4083 35.6067
325 1 30.9044 30.9057 24.5685
326 1 30.9376 30.8595 27.7508
327 1 31.0135 31.0089 31.0123
328 1 16.5855 19.7845 35.6958
329 1 16.6173 13.4521 13.4521
330 1 16.619 13.4649 16.6102
331 1 16.6122 13.4458 19.7903
332 1 16.5982 13.457 22.9729
333 1 16.6016 13.4752 26.153
334 1 16.6205 13.4693 32.4756
335 1 16.6324 13.4795 35.6433
336 1 16.6031 16.6332 13.4261
337 1 16.5744 16.6076 16.5877
338 1 16.5726 16.5892 19.7617
339 1 16.5471 16.5888 22.9327
340 1 16.5385 16.6 26.1786
341 1 16.5567 16.6101 29.3664
342 1 18.2343 15.076 37.2429
343 1 16.6013 19.7946 13.4297
344 1 16.5463 19.7844 16.5576
345 1 16.4859 19.7498 19.6847
346 1 18.0635 18.1495 21.2982
347 1 16.4476 19.824 26.1581
348 1 16.5507 19.835 29.4171
349 1 16.5502 19.8086 32.5978
350 1 19.8152 19.8028 35.5667
351 1 16.6107 16.6238 35.6828
352 1 18.2001 15.0367 30.9235
353 1 18.1965 15.0343 15.048
354 1 18.1762 15.0104 18.1827
355 1 18.163 15.0337 21.3717
356 1 16.6162 13.4653 29.3255
357 1 18.1694 15.0618 27.7568
358 1 16.5759 16.6055 32.5428
359 1 18.2043 15.0477 34.0691
360 1 18.1635 18.2078 15.0075
361 1 18.1298 18.1743 18.1409
362 1 19.6346 19.7149 19.6738
363 1 17.9497 18.1737 24.5482
364 1 17.9715 18.2035 27.7971
365 1 18.1208 18.2118 30.9988
366 1 18.2319 18.23 37.2252
367 1 18.1778 15.0663 24.5638
368 1 18.1527 18.2098 34.1295
369 1 16.4387 19.8108 22.9138
370 1 18.1718 21.3952 15.0178
371 1 19.4275 19.8767 29.4377
372 1 19.2335 19.8243 26.2028
373 1 18.2272 21.4195 37.1616
374 1 19.206 19.8489 22.9306
375 1 19.7038 16.6754 29.3422
376 1 19.7505 16.6021 19.763
377 1 18.0883 21.3914 34.2702
378 1 17.8787 21.3775 21.2123
379 1 19.7771 13.4648 19.8035
380 1 19.7013 19.7616 16.5739
381 1 19.767 13.4572 16.6176
382 1 19.6708 19.7783 32.6389
383 1 19.6922 16.6372 22.9218
384 1 18.0908 21.3655 18.1078
385 1 17.954 21.4346 31.0519
386 1 19.789 16.6668 32.4845
387 1 19.8082 13.5086 32.4758
388 1 19.6658 16.7008 26.2132
389 1 19.7237 16.5858 16.581
390 1 19.8341 13.4905 35.6417
391 1 19.8089 16.644 35.6332
392 1 17.7556 21.4872 24.5302
393 1 19.8001 13.5309 26.1454
394 1 19.7825 19.8188 13.4568
395 1 17.8394 21.5138 27.8085
396 1 19.8107 13.5195 22.9999
397 1 19.8049 16.6313 13.4462
398 1 19.7932 13.4598 13.4584
399 1 19.8066 13.5113 29.3011
400 1 22.9516 13.4706 13.4615
401 1 21.3572 15.0441 15.0335
402 1 24.5679 15.088 21.3507
403 1 22.997 16.9442 26.1979
404 1 24.5678 15.089 30.9015
405 1 24.5646 15.0774 34.0489
406 1 21.385 15.0835 37.2205
407 1 22.9529 19.8102 13.4912
408 1 21.346 18.2122 15.02
409 1 22.9482 19.7715 16.6156
410 1 21.2428 18.1185 18.1164
411 1 22.8213 19.6868 19.4097
412 1 21.3855 18.1915 21.3372
413 1 22.9312 16.5838 19.7629
414 1 24.6021 17.9502 21.3877
415 2 22.4494 20.6015 30.0376
416 1 22.9626 16.6917 29.3086
417 1 26.1309 13.4651 13.467
418 1 26.15 13.4867 32.5021
419 1 26.1255 16.6485 13.4888
420 1 22.9595 16.6467 13.4642
421 1 26.147 16.6157 16.6109
422 1 22.9605 13.4684 16.6293
423 1 26.1504 13.4688 19.7892
424 1 26.1351 13.5303 22.9632
425 1 24.5489 15.0201 18.1885
426 1 26.3214 16.4097 22.9297
427 1 26.2646 19.5851 22.8419
428 1 26.6476 19.6709 29.3963
429 1 26.1765 16.6156 32.5
430 1 26.1748 19.8511 35.5255
431 1 26.1497 16.6473 35.6486
432 1 22.9718 16.6671 35.6159
433 1 26.1175 19.8182 13.4971
434 1 24.5391 18.2071 15.0527
435 1 24.5837 18.1736 18.2102
436 1 22.9633 16.609 16.6016
437 1 26.1121 19.7853 16.6719
438 1 26.1956 16.5827 19.7674
439 1 26.0514 19.8093 19.9517
440 1 21.3827 15.1684 27.7289
441 1 24.6621 18.2752 30.8101
442 1 22.9692 19.815 32.4664
443 1 27.7421 18.2725 37.2299
444 1 24.5838 18.2517 37.1894
445 1 22.9604 16.5129 22.9779
446 2 23.5548 19.1659 28.5895
447 1 24.5465 15.0574 15.0697
448 1 27.8201 18.139 21.34
449 1 24.5913 15.1065 37.2302
450 1 27.7509 15.084 37.2378
451 1 27.7319 18.2248 15.0705
452 1 27.7102 18.2269 18.238
453 1 27.7258 15.0325 18.1863
454 1 27.7971 18.1777 34.109
455 1 27.7019 15.0606 15.049
456 1 25.2257 17.8692 24.7698
457 1 27.8372 14.9797 30.9907
458 1 22.9826 19.8675 35.5737
459 1 21.3913 21.4309 37.1475
460 1 26.2798 19.718 32.5988
461 1 27.8995 18.1393 31.0094
462 1 26.3311 16.4787 29.3978
463 1 27.819 14.9891 21.2957
464 1 21.3569 15.0269 18.1967
465 1 24.6169 15.184 27.707
466 1 21.3906 18.2502 37.1905
467 1 27.7784 15.0368 34.0946
468 1 26.1542 13.4954 35.6593
469 1 22.9699 13.4947 35.6302
470 2 24.2093 19.8936 26.0775
471 1 24.5609 18.2206 34.0321
472 1 21.0883 18.3415 27.9225
473 1 24.5997 15.1515 24.6437
474 1 22.9843 13.5164 32.4741
475 1 26.6544 16.3379 26.15
476 1 25.2943 17.928 27.5706
477 2 23.6604 20.4963 21.4064
478 1 24.5635 21.4424 37.1399
479 1 22.9552 13.4846 19.8003
480 1 27.9011 14.8635 27.8379
481 2 25.629 21.4385 27.7499
482 1 24.9236 21.015 30.8534
483 1 22.9758 16.6912 32.4338
484 1 21.3979 15.0984 34.0408
485 2 23.5773 19.0648 23.6811
486 1 21.3444 15.1944 24.6106
487 1 28.0285 18.0586 24.4725
488 1 24.5234 21.4158 15.1034
489 1 21.3407 15.0806 21.38
490 1 21.3365 18.3449 30.8258
491 1 26.8501 19.7062 26.1647
492 1 26.1887 13.5245 26.141
493 1 26.1408 13.4815 16.623
494 1 22.9926 13.587 26.1623
495 1 21.3491 21.4031 15.1153
496 1 21.3777 15.1148 30.8756
497 1 22.9934 13.5473 29.2947
498 1 22.9901 13.5889 23.005
499 1 27.8986 14.8577 24.5058
500 1 21.381 18.2394 34.0274
501 1 26.1547 13.5463 29.3442
502 2 21.4887 20.2739 22.9256
503 1 28.1097 18.0581 27.784
504 1 28.0807 21.2998 31.1205
505 2 21.8228 20.0613 26.0095
506 1 28.2068 21.3698 24.5654
507 1 27.7426 21.4339 37.1449
508 1 28.3041 21.3372 27.8338
509 1 21.0568 21.3106 20.677
510 1 21.2527 21.3817 18.0142
511 1 27.7717 21.4302 33.9809
512 1 21.1749 18.0244 24.4971
513 1 27.7285 21.339 18.2533
514 1 27.7002 21.4 15.0873
515 1 24.5561 21.4577 33.9362
516 1 24.5212 21.3279 18.2428
517 1 27.76 21.4288 21.4308
518 2 25.5993 21.4323 24.5474
519 1 21.3656 21.457 33.9528
520 1 20.5021 21.6233 27.8059
521 2 23.0671 21.6794 27.6506
522 1 20.7262 21.6086 31.1394
523 2 23.0323 21.692 24.458
524 1 30.9509 18.1971 21.3449
525 1 31.0185 18.1636 34.1471
526 1 30.899 15.065 15.0327
527 1 30.9132 15.0421 18.1867
528 1 29.3622 16.6082 19.7642
529 1 30.9359 15.0763 37.2525
530 1 31.0095 14.9775 30.956
531 1 30.8884 18.2268 15.0674
532 1 30.9852 15.0099 21.34
533 1 30.9265 18.2397 37.2543
534 1 29.4594 16.4929 26.1366
535 1 30.9644 15.0128 34.1169
536 1 30.9222 18.2261 18.2125
537 1 31.0039 14.9886 24.5391
538 1 29.3084 13.4737 13.4803
539 1 30.9704 18.1173 27.7821
540 1 29.3241 13.453 16.6224
541 1 29.4092 16.5592 32.5603
542 1 29.2966 16.6334 16.6141
543 1 30.9349 18.1391 24.5167
544 1 29.3465 13.421 19.755
545 1 29.3118 16.6488 13.4856
546 1 29.3837 16.6301 35.6866
547 1 31.0242 18.1406 30.998
548 1 31.0036 14.9934 27.7787
549 1 29.4244 13.3986 26.1366
550 1 29.4318 19.7449 22.8752
551 1 29.3835 13.4392 32.5269
552 1 30.902 21.3842 18.2224
553 1 29.4148 13.3867 22.9157
554 1 29.4173 13.4028 29.3929
555 1 29.3558 13.493 35.6758
556 1 29.4685 16.5083 29.4075
557 1 29.3266 19.7957 19.8321
558 1 29.3024 19.8041 16.6335
559 1 29.3468 19.7889 35.5921
560 1 29.4335 16.5357 22.8917
561 1 30.9968 21.4075 24.4979
562 1 29.4597 19.7149 32.7009
563 1 29.2999 19.8206 13.4925
564 1 29.5438 19.7108 29.4571
565 1 29.6107 19.7405 26.161
566 1 31.0234 21.3473 34.2442
567 1 30.936 21.409 21.3748
568 1 31.112 21.3739 27.8181
569 1 30.9367 21.4196 37.1172
570 1 30.9874 21.3173 31.0503
571 1 30.8776 21.3996 15.0697
572 1 0.7913 0.7913 0.7913
573 1 2.3739 2.3739 2.3739
574 1 0.7913 0.7913 3.9565
575 1 2.3739 2.3739 5.5391
576 1 0.7913 0.7913 7.1217
577 1 2.3739 2.3739 8.7043
578 1 0.7913 0.7913 10.2869
579 1 2.3739 2.3739 11.8695
580 1 0.7913 0.7913 13.4521
581 1 2.3739 2.3739 15.0347
582 1 0.7913 0.7913 16.6173
583 1 2.3739 2.3739 18.1999
584 1 0.7913 0.7913 19.7825
585 1 2.3739 2.3739 21.3651
586 1 0.7913 0.7913 22.9477
587 1 2.3739 2.3739 24.5303
588 1 0.7913 0.7913 26.1129
589 1 2.3739 2.3739 27.6955
590 1 0.7913 0.7913 29.2781
591 1 2.3739 2.3739 30.8607
592 1 0.7913 0.7913 32.4433
593 1 2.3739 2.3739 34.0259
594 1 0.7913 0.7913 35.6085
595 1 2.3739 2.3739 37.1911
596 1 0.7913 0.7913 38.7737
597 1 2.3739 2.3739 40.3563
598 1 0.7913 0.7913 41.9389
599 1 2.3739 2.3739 43.5215
600 1 0.7913 0.7913 45.1041
601 1 2.3739 2.3739 46.6867
602 1 0.7913 0.7913 48.2693
603 1 2.3739 2.3739 49.8519
604 1 0.7913 3.9565 0.7913
605 1 2.3739 5.5391 2.3739
606 1 0.7913 3.9565 3.9565
607 1 2.3739 5.5391 5.5391
608 1 0.7913 3.9565 7.1217
609 1 2.3739 5.5391 8.7043
610 1 0.7913 3.9565 10.2869
611 1 2.3739 5.5391 11.8695
612 1 0.7913 3.9565 13.4521
613 1 2.3739 5.5391 15.0347
614 1 0.7913 3.9565 16.6173
615 1 2.3739 5.5391 18.1999
616 1 0.7913 3.9565 19.7825
617 1 2.3739 5.5391 21.3651
618 1 0.7913 3.9565 22.9477
619 1 2.3739 5.5391 24.5303
620 1 0.7913 3.9565 26.1129
621 1 2.3739 5.5391 27.6955
622 1 0.7913 3.9565 29.2781
623 1 2.3739 5.5391 30.8607
624 1 0.7913 3.9565 32.4433
625 1 2.3739 5.5391 34.0259
626 1 0.7913 3.9565 35.6085
627 1 2.3739 5.5391 37.1911
628 1 0.7913 3.9565 38.7737
629 1 2.3739 5.5391 40.3563
630 1 0.7913 3.9565 41.9389
631 1 2.3739 5.5391 43.5215
632 1 0.7913 3.9565 45.1041
633 1 2.3739 5.5391 46.6867
634 1 0.7913 3.9565 48.2693
635 1 2.3739 5.5391 49.8519
636 1 0.7913 7.1217 0.7913
637 1 2.3739 8.7043 2.3739
638 1 0.7913 7.1217 3.9565
639 1 2.3739 8.7043 5.5391
640 1 0.7913 7.1217 7.1217
641 1 2.3739 8.7043 8.7043
642 1 0.7913 7.1217 10.2869
643 1 2.3739 8.7043 11.8695
644 1 0.7913 7.1217 13.4521
645 1 2.3739 8.7043 15.0347
646 1 0.7913 7.1217 16.6173
647 1 2.3739 8.7043 18.1999
648 1 0.7913 7.1217 19.7825
649 1 2.3739 8.7043 21.3651
650 1 0.7913 7.1217 22.9477
651 1 2.3739 8.7043 24.5303
652 1 0.7913 7.1217 26.1129
653 1 2.3739 8.7043 27.6955
654 1 0.7913 7.1217 29.2781
655 1 2.3739 8.7043 30.8607
656 1 0.7913 7.1217 32.4433
657 1 2.3739 8.7043 34.0259
658 1 0.7913 7.1217 35.6085
659 1 2.3739 8.7043 37.1911
660 1 0.7913 7.1217 38.7737
661 1 2.3739 8.7043 40.3563
662 1 0.7913 7.1217 41.9389
663 1 2.3739 8.7043 43.5215
664 1 0.7913 7.1217 45.1041
665 1 2.3739 8.7043 46.6867
666 1 0.7913 7.1217 48.2693
667 1 2.3739 8.7043 49.8519
668 1 0.7913 10.2869 0.7913
669 1 2.3739 11.8695 2.3739
670 1 0.7913 10.2869 3.9565
671 1 2.3739 11.8695 5.5391
672 1 0.7913 10.2869 7.1217
673 1 2.3739 11.8695 8.7043
674 1 0.7913 10.2869 10.2869
675 1 2.3739 11.8695 11.8695
676 1 0.7913 10.2869 13.4521
677 1 2.3739 11.8695 15.0347
678 1 0.7913 10.2869 16.6173
679 1 2.3739 11.8695 18.1999
680 1 0.7913 10.2869 19.7825
681 1 2.3739 11.8695 21.3651
682 1 0.7913 10.2869 22.9477
683 1 2.3739 11.8695 24.5303
684 1 0.7913 10.2869 26.1129
685 1 2.3739 11.8695 27.6955
686 1 0.7913 10.2869 29.2781
687 1 2.3739 11.8695 30.8607
688 1 0.7913 10.2869 32.4433
689 1 2.3739 11.8695 34.0259
690 1 0.7913 10.2869 35.6085
691 1 2.3739 11.8695 37.1911
692 1 0.7913 10.2869 38.7737
693 1 2.3739 11.8695 40.3563
694 1 0.7913 10.2869 41.9389
695 1 2.3739 11.8695 43.5215
696 1 0.7913 10.2869 45.1041
697 1 2.3739 11.8695 46.6867
698 1 0.7913 10.2869 48.2693
699 1 2.3739 11.8695 49.8519
700 1 0.7913 13.4521 0.7913
701 1 2.3739 15.0347 2.3739
702 1 0.7913 13.4521 3.9565
703 1 2.3739 15.0347 5.5391
704 1 0.7913 13.4521 7.1217
705 1 2.3739 15.0347 8.7043
706 1 0.7913 13.4521 10.2869
707 1 2.3739 15.0347 11.8695
708 1 0.7913 13.4521 13.4521
709 1 2.3739 15.0347 15.0347
710 1 0.7913 13.4521 16.6173
711 1 2.3739 15.0347 18.1999
712 1 0.7913 13.4521 19.7825
713 1 2.3739 15.0347 21.3651
714 1 0.7913 13.4521 22.9477
715 1 2.3739 15.0347 24.5303
716 1 0.7913 13.4521 26.1129
717 1 2.3739 15.0347 27.6955
718 1 0.7913 13.4521 29.2781
719 1 2.3739 15.0347 30.8607
720 1 0.7913 13.4521 32.4433
721 1 2.3739 15.0347 34.0259
722 1 0.7913 13.4521 35.6085
723 1 2.3739 15.0347 37.1911
724 1 0.7913 13.4521 38.7737
725 1 2.3739 15.0347 40.3563
726 1 0.7913 13.4521 41.9389
727 1 2.3739 15.0347 43.5215
728 1 0.7913 13.4521 45.1041
729 1 2.3739 15.0347 46.6867
730 1 0.7913 13.4521 48.2693
731 1 2.3739 15.0347 49.8519
732 1 0.7913 16.6173 0.7913
733 1 2.3739 18.1999 2.3739
734 1 0.7913 16.6173 3.9565
735 1 2.3739 18.1999 5.5391
736 1 0.7913 16.6173 7.1217
737 1 2.3739 18.1999 8.7043
738 1 0.7913 16.6173 10.2869
739 1 2.3739 18.1999 11.8695
740 1 0.7913 16.6173 13.4521
741 1 2.3739 18.1999 15.0347
742 1 0.7913 16.6173 16.6173
743 1 2.3739 18.1999 18.1999
744 1 0.7913 16.6173 19.7825
745 1 2.3739 18.1999 21.3651
746 1 0.7913 16.6173 22.9477
747 1 2.3739 18.1999 24.5303
748 1 0.7913 16.6173 26.1129
749 1 2.3739 18.1999 27.6955
750 1 0.7913 16.6173 29.2781
751 1 2.3739 18.1999 30.8607
752 1 0.7913 16.6173 32.4433
753 1 2.3739 18.1999 34.0259
754 1 0.7913 16.6173 35.6085
755 1 2.3739 18.1999 37.1911
756 1 0.7913 16.6173 38.7737
757 1 2.3739 18.1999 40.3563
758 1 0.7913 16.6173 41.9389
759 1 2.3739 18.1999 43.5215
760 1 0.7913 16.6173 45.1041
761 1 2.3739 18.1999 46.6867
762 1 0.7913 16.6173 48.2693
763 1 2.3739 18.1999 49.8519
764 1 0.7913 19.7825 0.7913
765 1 2.3739 21.3651 2.3739
766 1 0.7913 19.7825 3.9565
767 1 2.3739 21.3651 5.5391
768 1 0.7913 19.7825 7.1217
769 1 2.3739 21.3651 8.7043
770 1 0.7913 19.7825 10.2869
771 1 2.3739 21.3651 11.8695
772 1 0.7913 19.7825 13.4521
773 1 2.3739 21.3651 15.0347
774 1 0.7913 19.7825 16.6173
775 1 2.3739 21.3651 18.1999
776 1 0.7913 19.7825 19.7825
777 1 2.3739 21.3651 21.3651
778 1 0.7913 19.7825 22.9477
779 1 2.3739 21.3651 24.5303
780 1 0.7913 19.7825 26.1129
781 1 2.3739 21.3651 27.6955
782 1 0.7913 19.7825 29.2781
783 1 2.3739 21.3651 30.8607
784 1 0.7913 19.7825 32.4433
785 1 2.3739 21.3651 34.0259
786 1 0.7913 19.7825 35.6085
787 1 2.3739 21.3651 37.1911
788 1 0.7913 19.7825 38.7737
789 1 2.3739 21.3651 40.3563
790 1 0.7913 19.7825 41.9389
791 1 2.3739 21.3651 43.5215
792 1 0.7913 19.7825 45.1041
793 1 2.3739 21.3651 46.6867
794 1 0.7913 19.7825 48.2693
795 1 2.3739 21.3651 49.8519
796 1 0.7913 22.9477 0.7913
797 1 2.3739 24.5303 2.3739
798 1 0.7913 22.9477 3.9565
799 1 2.3739 24.5303 5.5391
800 1 0.7913 22.9477 7.1217
801 1 2.3739 24.5303 8.7043
802 1 0.7913 22.9477 10.2869
803 1 2.3739 24.5303 11.8695
804 1 0.7913 22.9477 13.4521
805 1 2.3739 24.5303 15.0347
806 1 0.7913 22.9477 16.6173
807 1 2.3739 24.5303 18.1999
808 1 0.7913 22.9477 19.7825
809 1 2.3739 24.5303 21.3651
810 1 0.7913 22.9477 22.9477
811 1 2.3739 24.5303 24.5303
812 1 0.7913 22.9477 26.1129
813 1 2.3739 24.5303 27.6955
814 1 0.7913 22.9477 29.2781
815 1 2.3739 24.5303 30.8607
816 1 0.7913 22.9477 32.4433
817 1 2.3739 24.5303 34.0259
818 1 0.7913 22.9477 35.6085
819 1 2.3739 24.5303 37.1911
820 1 0.7913 22.9477 38.7737
821 1 2.3739 24.5303 40.3563
822 1 0.7913 22.9477 41.9389
823 1 2.3739 24.5303 43.5215
824 1 0.7913 22.9477 45.1041
825 1 2.3739 24.5303 46.6867
826 1 0.7913 22.9477 48.2693
827 1 2.3739 24.5303 49.8519
828 1 0.7913 26.1129 0.7913
829 1 2.3739 27.6955 2.3739
830 1 0.7913 26.1129 3.9565
831 1 2.3739 27.6955 5.5391
832 1 0.7913 26.1129 7.1217
833 1 2.3739 27.6955 8.7043
834 1 0.7913 26.1129 10.2869
835 1 2.3739 27.6955 11.8695
836 1 0.7913 26.1129 13.4521
837 1 2.3739 27.6955 15.0347
838 1 0.7913 26.1129 16.6173
839 1 2.3739 27.6955 18.1999
840 1 0.7913 26.1129 19.7825
841 1 2.3739 27.6955 21.3651
842 1 0.7913 26.1129 22.9477
843 1 2.3739 27.6955 24.5303
844 1 0.7913 26.1129 26.1129
845 1 2.3739 27.6955 27.6955
846 1 0.7913 26.1129 29.2781
847 1 2.3739 27.6955 30.8607
848 1 0.7913 26.1129 32.4433
849 1 2.3739 27.6955 34.0259
850 1 0.7913 26.1129 35.6085
851 1 2.3739 27.6955 37.1911
852 1 0.7913 26.1129 38.7737
853 1 2.3739 27.6955 40.3563
854 1 0.7913 26.1129 41.9389
855 1 2.3739 27.6955 43.5215
856 1 0.7913 26.1129 45.1041
857 1 2.3739 27.6955 46.6867
858 1 0.7913 26.1129 48.2693
859 1 2.3739 27.6955 49.8519
860 1 0.7913 29.2781 0.7913
861 1 2.3739 30.8607 2.3739
862 1 0.7913 29.2781 3.9565
863 1 2.3739 30.8607 5.5391
864 1 0.7913 29.2781 7.1217
865 1 2.3739 30.8607 8.7043
866 1 0.7913 29.2781 10.2869
867 1 2.3739 30.8607 11.8695
868 1 0.7913 29.2781 13.4521
869 1 2.3739 30.8607 15.0347
870 1 0.7913 29.2781 16.6173
871 1 2.3739 30.8607 18.1999
872 1 0.7913 29.2781 19.7825
873 1 2.3739 30.8607 21.3651
874 1 0.7913 29.2781 22.9477
875 1 2.3739 30.8607 24.5303
876 1 0.7913 29.2781 26.1129
877 1 2.3739 30.8607 27.6955
878 1 0.7913 29.2781 29.2781
879 1 2.3739 30.8607 30.8607
880 1 0.7913 29.2781 32.4433
881 1 2.3739 30.8607 34.0259
882 1 0.7913 29.2781 35.6085
883 1 2.3739 30.8607 37.1911
884 1 0.7913 29.2781 38.7737
885 1 2.3739 30.8607 40.3563
886 1 0.7913 29.2781 41.9389
887 1 2.3739 30.8607 43.5215
888 1 0.7913 29.2781 45.1041
889 1 2.3739 30.8607 46.6867
890 1 0.7913 29.2781 48.2693
891 1 2.3739 30.8607 49.8519
892 1 0.7913 32.4433 0.7913
893 1 2.3739 34.0259 2.3739
894 1 0.7913 32.4433 3.9565
895 1 2.3739 34.0259 5.5391
896 1 0.7913 32.4433 7.1217
897 1 2.3739 34.0259 8.7043
898 1 0.7913 32.4433 10.2869
899 1 2.3739 34.0259 11.8695
900 1 0.7913 32.4433 13.4521
901 1 2.3739 34.0259 15.0347
902 1 0.7913 32.4433 16.6173
903 1 2.3739 34.0259 18.1999
904 1 0.7913 32.4433 19.7825
905 1 2.3739 34.0259 21.3651
906 1 0.7913 32.4433 22.9477
907 1 2.3739 34.0259 24.5303
908 1 0.7913 32.4433 26.1129
909 1 2.3739 34.0259 27.6955
910 1 0.7913 32.4433 29.2781
911 1 2.3739 34.0259 30.8607
912 1 0.7913 32.4433 32.4433
913 1 2.3739 34.0259 34.0259
914 1 0.7913 32.4433 35.6085
915 1 2.3739 34.0259 37.1911
916 1 0.7913 32.4433 38.7737
917 1 2.3739 34.0259 40.3563
918 1 0.7913 32.4433 41.9389
919 1 2.3739 34.0259 43.5215
920 1 0.7913 32.4433 45.1041
921 1 2.3739 34.0259 46.6867
922 1 0.7913 32.4433 48.2693
923 1 2.3739 34.0259 49.8519
924 1 0.7913 35.6085 0.7913
925 1 2.3739 37.1911 2.3739
926 1 0.7913 35.6085 3.9565
927 1 2.3739 37.1911 5.5391
928 1 0.7913 35.6085 7.1217
929 1 2.3739 37.1911 8.7043
930 1 0.7913 35.6085 10.2869
931 1 2.3739 37.1911 11.8695
932 1 0.7913 35.6085 13.4521
933 1 2.3739 37.1911 15.0347
934 1 0.7913 35.6085 16.6173
935 1 2.3739 37.1911 18.1999
936 1 0.7913 35.6085 19.7825
937 1 2.3739 37.1911 21.3651
938 1 0.7913 35.6085 22.9477
939 1 2.3739 37.1911 24.5303
940 1 0.7913 35.6085 26.1129
941 1 2.3739 37.1911 27.6955
942 1 0.7913 35.6085 29.2781
943 1 2.3739 37.1911 30.8607
944 1 0.7913 35.6085 32.4433
945 1 2.3739 37.1911 34.0259
946 1 0.7913 35.6085 35.6085
947 1 2.3739 37.1911 37.1911
948 1 0.7913 35.6085 38.7737
949 1 2.3739 37.1911 40.3563
950 1 0.7913 35.6085 41.9389
951 1 2.3739 37.1911 43.5215
952 1 0.7913 35.6085 45.1041
953 1 2.3739 37.1911 46.6867
954 1 0.7913 35.6085 48.2693
955 1 2.3739 37.1911 49.8519
956 1 0.7913 38.7737 0.7913
957 1 2.3739 40.3563 2.3739
958 1 0.7913 38.7737 3.9565
959 1 2.3739 40.3563 5.5391
960 1 0.7913 38.7737 7.1217
961 1 2.3739 40.3563 8.7043
962 1 0.7913 38.7737 10.2869
963 1 2.3739 40.3563 11.8695
964 1 0.7913 38.7737 13.4521
965 1 2.3739 40.3563 15.0347
966 1 0.7913 38.7737 16.6173
967 1 2.3739 40.3563 18.1999
968 1 0.7913 38.7737 19.7825
969 1 2.3739 40.3563 21.3651
970 1 0.7913 38.7737 22.9477
971 1 2.3739 40.3563 24.5303
972 1 0.7913 38.7737 26.1129
973 1 2.3739 40.3563 27.6955
974 1 0.7913 38.7737 29.2781
975 1 2.3739 40.3563 30.8607
976 1 0.7913 38.7737 32.4433
977 1 2.3739 40.3563 34.0259
978 1 0.7913 38.7737 35.6085
979 1 2.3739 40.3563 37.1911
980 1 0.7913 38.7737 38.7737
981 1 2.3739 40.3563 40.3563
982 1 0.7913 38.7737 41.9389
983 1 2.3739 40.3563 43.5215
984 1 0.7913 38.7737 45.1041
985 1 2.3739 40.3563 46.6867
986 1 0.7913 38.7737 48.2693
987 1 2.3739 40.3563 49.8519
988 1 0.7913 41.9389 0.7913
989 1 2.3739 43.5215 2.3739
990 1 0.7913 41.9389 3.9565
991 1 2.3739 43.5215 5.5391
992 1 0.7913 41.9389 7.1217
993 1 2.3739 43.5215 8.7043
994 1 0.7913 41.9389 10.2869
995 1 2.3739 43.5215 11.8695
996 1 0.7913 41.9389 13.4521
997 1 2.3739 43.5215 15.0347
998 1 0.7913 41.9389 16.6173
999 1 2.3739 43.5215 18.1999
1000 1 0.7913 41.9389 19.7825
1001 1 2.3739 43.5215 21.3651
1002 1 0.7913 41.9389 22.9477
1003 1 2.3739 43.5215 24.5303
1004 1 0.7913 41.9389 26.1129
1005 1 2.3739 43.5215 27.6955
1006 1 0.7913 41.9389 29.2781
1007 1 2.3739 43.5215 30.8607
1008 1 0.7913 41.9389 32.4433
1009 1 2.3739 43.5215 34.0259
1010 1 0.7913 41.9389 35.6085
1011 1 2.3739 43.5215 37.1911
1012 1 0.7913 41.9389 38.7737
1013 1 2.3739 43.5215 40.3563
1014 1 0.7913 41.9389 41.9389
1015 1 2.3739 43.5215 43.5215
1016 1 0.7913 41.9389 45.1041
1017 1 2.3739 43.5215 46.6867
1018 1 0.7913 41.9389 48.2693
1019 1 2.3739 43.5215 49.8519
1020 1 0.7913 45.1041 0.7913
1021 1 2.3739 46.6867 2.3739
1022 1 0.7913 45.1041 3.9565
1023 1 2.3739 46.6867 5.5391
1024 1 0.7913 45.1041 7.1217
1025 1 2.3739 46.6867 8.7043
1026 1 0.7913 45.1041 10.2869
1027 1 2.3739 46.6867 11.8695
1028 1 0.7913 45.1041 13.4521
1029 1 2.3739 46.6867 15.0347
1030 1 0.7913 45.1041 16.6173
1031 1 2.3739 46.6867 18.1999
1032 1 0.7913 45.1041 19.7825
1033 1 2.3739 46.6867 21.3651
1034 1 0.7913 45.1041 22.9477
1035 1 2.3739 46.6867 24.5303
1036 1 0.7913 45.1041 26.1129
1037 1 2.3739 46.6867 27.6955
1038 1 0.7913 45.1041 29.2781
1039 1 2.3739 46.6867 30.8607
1040 1 0.7913 45.1041 32.4433
1041 1 2.3739 46.6867 34.0259
1042 1 0.7913 45.1041 35.6085
1043 1 2.3739 46.6867 37.1911
1044 1 0.7913 45.1041 38.7737
1045 1 2.3739 46.6867 40.3563
1046 1 0.7913 45.1041 41.9389
1047 1 2.3739 46.6867 43.5215
1048 1 0.7913 45.1041 45.1041
1049 1 2.3739 46.6867 46.6867
1050 1 0.7913 45.1041 48.2693
1051 1 2.3739 46.6867 49.8519
1052 1 0.7913 48.2693 0.7913
1053 1 2.3739 49.8519 2.3739
1054 1 0.7913 48.2693 3.9565
1055 1 2.3739 49.8519 5.5391
1056 1 0.7913 48.2693 7.1217
1057 1 2.3739 49.8519 8.7043
1058 1 0.7913 48.2693 10.2869
1059 1 2.3739 49.8519 11.8695
1060 1 0.7913 48.2693 13.4521
1061 1 2.3739 49.8519 15.0347
1062 1 0.7913 48.2693 16.6173
1063 1 2.3739 49.8519 18.1999
1064 1 0.7913 48.2693 19.7825
1065 1 2.3739 49.8519 21.3651
1066 1 0.7913 48.2693 22.9477
1067 1 2.3739 49.8519 24.5303
1068 1 0.7913 48.2693 26.1129
1069 1 2.3739 49.8519 27.6955
1070 1 0.7913 48.2693 29.2781
1071 1 2.3739 49.8519 30.8607
1072 1 0.7913 48.2693 32.4433
1073 1 2.3739 49.8519 34.0259
1074 1 0.7913 48.2693 35.6085
1075 1 2.3739 49.8519 37.1911
1076 1 0.7913 48.2693 38.7737
1077 1 2.3739 49.8519 40.3563
1078 1 0.7913 48.2693 41.9389
1079 1 2.3739 49.8519 43.5215
1080 1 0.7913 48.2693 45.1041
1081 1 2.3739 49.8519 46.6867
1082 1 0.7913 48.2693 48.2693
1083 1 2.3739 49.8519 49.8519
1084 1 3.9565 0.7913 0.7913
1085 1 5.5391 2.3739 2.3739
1086 1 3.9565 0.7913 3.9565
1087 1 5.5391 2.3739 5.5391
1088 1 3.9565 0.7913 7.1217
1089 1 5.5391 2.3739 8.7043
1090 1 3.9565 0.7913 10.2869
1091 1 5.5391 2.3739 11.8695
1092 1 3.9565 0.7913 13.4521
1093 1 5.5391 2.3739 15.0347
1094 1 3.9565 0.7913 16.6173
1095 1 5.5391 2.3739 18.1999
1096 1 3.9565 0.7913 19.7825
1097 1 5.5391 2.3739 21.3651
1098 1 3.9565 0.7913 22.9477
1099 1 5.5391 2.3739 24.5303
1100 1 3.9565 0.7913 26.1129
1101 1 5.5391 2.3739 27.6955
1102 1 3.9565 0.7913 29.2781
1103 1 5.5391 2.3739 30.8607
1104 1 3.9565 0.7913 32.4433
1105 1 5.5391 2.3739 34.0259
1106 1 3.9565 0.7913 35.6085
1107 1 5.5391 2.3739 37.1911
1108 1 3.9565 0.7913 38.7737
1109 1 5.5391 2.3739 40.3563
1110 1 3.9565 0.7913 41.9389
1111 1 5.5391 2.3739 43.5215
1112 1 3.9565 0.7913 45.1041
1113 1 5.5391 2.3739 46.6867
1114 1 3.9565 0.7913 48.2693
1115 1 5.5391 2.3739 49.8519
1116 1 3.9565 3.9565 0.7913
1117 1 5.5391 5.5391 2.3739
1118 1 3.9565 3.9565 3.9565
1119 1 5.5391 5.5391 5.5391
1120 1 3.9565 3.9565 7.1217
1121 1 5.5391 5.5391 8.7043
1122 1 3.9565 3.9565 10.2869
1123 1 5.5391 5.5391 11.8695
1124 1 3.9565 3.9565 13.4521
1125 1 5.5391 5.5391 15.0347
1126 1 3.9565 3.9565 16.6173
1127 1 5.5391 5.5391 18.1999
1128 1 3.9565 3.9565 19.7825
1129 1 5.5391 5.5391 21.3651
1130 1 3.9565 3.9565 22.9477
1131 1 5.5391 5.5391 24.5303
1132 1 3.9565 3.9565 26.1129
1133 1 5.5391 5.5391 27.6955
1134 1 3.9565 3.9565 29.2781
1135 1 5.5391 5.5391 30.8607
1136 1 3.9565 3.9565 32.4433
1137 1 5.5391 5.5391 34.0259
1138 1 3.9565 3.9565 35.6085
1139 1 5.5391 5.5391 37.1911
1140 1 3.9565 3.9565 38.7737
1141 1 5.5391 5.5391 40.3563
1142 1 3.9565 3.9565 41.9389
1143 1 5.5391 5.5391 43.5215
1144 1 3.9565 3.9565 45.1041
1145 1 5.5391 5.5391 46.6867
1146 1 3.9565 3.9565 48.2693
1147 1 5.5391 5.5391 49.8519
1148 1 3.9565 7.1217 0.7913
1149 1 5.5391 8.7043 2.3739
1150 1 3.9565 7.1217 3.9565
1151 1 5.5391 8.7043 5.5391
1152 1 3.9565 7.1217 7.1217
1153 1 5.5391 8.7043 8.7043
1154 1 3.9565 7.1217 10.2869
1155 1 5.5391 8.7043 11.8695
1156 1 3.9565 7.1217 13.4521
1157 1 5.5391 8.7043 15.0347
1158 1 3.9565 7.1217 16.6173
1159 1 5.5391 8.7043 18.1999
1160 1 3.9565 7.1217 19.7825
1161 1 5.5391 8.7043 21.3651
1162 1 3.9565 7.1217 22.9477
1163 1 5.5391 8.7043 24.5303
1164 1 3.9565 7.1217 26.1129
1165 1 5.5391 8.7043 27.6955
1166 1 3.9565 7.1217 29.2781
1167 1 5.5391 8.7043 30.8607
1168 1 3.9565 7.1217 32.4433
1169 1 5.5391 8.7043 34.0259
1170 1 3.9565 7.1217 35.6085
1171 1 5.5391 8.7043 37.1911
1172 1 3.9565 7.1217 38.7737
1173 1 5.5391 8.7043 40.3563
1174 1 3.9565 7.1217 41.9389
1175 1 5.5391 8.7043 43.5215
1176 1 3.9565 7.1217 45.1041
1177 1 5.5391 8.7043 46.6867
1178 1 3.9565 7.1217 48.2693
1179 1 5.5391 8.7043 49.8519
1180 1 3.9565 10.2869 0.7913
1181 1 5.5391 11.8695 2.3739
1182 1 3.9565 10.2869 3.9565
1183 1 5.5391 11.8695 5.5391
1184 1 3.9565 10.2869 7.1217
1185 1 5.5391 11.8695 8.7043
1186 1 3.9565 10.2869 10.2869
1187 1 5.5391 11.8695 11.8695
1188 1 3.9565 10.2869 13.4521
1189 1 5.5391 11.8695 15.0347
1190 1 3.9565 10.2869 16.6173
1191 1 5.5391 11.8695 18.1999
1192 1 3.9565 10.2869 19.7825
1193 1 5.5391 11.8695 21.3651
1194 1 3.9565 10.2869 22.9477
1195 1 5.5391 11.8695 24.5303
1196 1 3.9565 10.2869 26.1129
1197 1 5.5391 11.8695 27.6955
1198 1 3.9565 10.2869 29.2781
1199 1 5.5391 11.8695 30.8607
1200 1 3.9565 10.2869 32.4433
1201 1 5.5391 11.8695 34.0259
1202 1 3.9565 10.2869 35.6085
1203 1 5.5391 11.8695 37.1911
1204 1 3.9565 10.2869 38.7737
1205 1 5.5391 11.8695 40.3563
1206 1 3.9565 10.2869 41.9389
1207 1 5.5391 11.8695 43.5215
1208 1 3.9565 10.2869 45.1041
1209 1 5.5391 11.8695 46.6867
1210 1 3.9565 10.2869 48.2693
1211 1 5.5391 11.8695 49.8519
1212 1 3.9565 13.4521 0.7913
1213 1 5.5391 15.0347 2.3739
1214 1 3.9565 13.4521 3.9565
1215 1 5.5391 15.0347 5.5391
1216 1 3.9565 13.4521 7.1217
1217 1 5.5391 15.0347 8.7043
1218 1 3.9565 13.4521 10.2869
1219 1 5.5391 15.0347 11.8695
1220 1 3.9565 13.4521 13.4521
1221 1 5.5391 15.0347 15.0347
1222 1 3.9565 13.4521 16.6173
1223 1 5.5391 15.0347 18.1999
1224 1 3.9565 13.4521 19.7825
1225 1 5.5391 15.0347 21.3651
1226 1 3.9565 13.4521 22.9477
1227 1 5.5391 15.0347 24.5303
1228 1 3.9565 13.4521 26.1129
1229 1 5.5391 15.0347 27.6955
1230 1 3.9565 13.4521 29.2781
1231 1 5.5391 15.0347 30.8607
1232 1 3.9565 13.4521 32.4433
1233 1 5.5391 15.0347 34.0259
1234 1 3.9565 13.4521 35.6085
1235 1 5.5391 15.0347 37.1911
1236 1 3.9565 13.4521 38.7737
1237 1 5.5391 15.0347 40.3563
1238 1 3.9565 13.4521 41.9389
1239 1 5.5391 15.0347 43.5215
1240 1 3.9565 13.4521 45.1041
1241 1 5.5391 15.0347 46.6867
1242 1 3.9565 13.4521 48.2693
1243 1 5.5391 15.0347 49.8519
1244 1 3.9565 16.6173 0.7913
1245 1 5.5391 18.1999 2.3739
1246 1 3.9565 16.6173 3.9565
1247 1 5.5391 18.1999 5.5391
1248 1 3.9565 16.6173 7.1217
1249 1 5.5391 18.1999 8.7043
1250 1 3.9565 16.6173 10.2869
1251 1 5.5391 18.1999 11.8695
1252 1 3.9565 16.6173 13.4521
1253 1 5.5391 18.1999 15.0347
1254 1 3.9565 16.6173 16.6173
1255 1 5.5391 18.1999 18.1999
1256 1 3.9565 16.6173 19.7825
1257 1 5.5391 18.1999 21.3651
1258 1 3.9565 16.6173 22.9477
1259 1 5.5391 18.1999 24.5303
1260 1 3.9565 16.6173 26.1129
1261 1 5.5391 18.1999 27.6955
1262 1 3.9565 16.6173 29.2781
1263 1 5.5391 18.1999 30.8607
1264 1 3.9565 16.6173 32.4433
1265 1 5.5391 18.1999 34.0259
1266 1 3.9565 16.6173 35.6085
1267 1 5.5391 18.1999 37.1911
1268 1 3.9565 16.6173 38.7737
1269 1 5.5391 18.1999 40.3563
1270 1 3.9565 16.6173 41.9389
1271 1 5.5391 18.1999 43.5215
1272 1 3.9565 16.6173 45.1041
1273 1 5.5391 18.1999 46.6867
1274 1 3.9565 16.6173 48.2693
1275 1 5.5391 18.1999 49.8519
1276 1 3.9565 19.7825 0.7913
1277 1 5.5391 21.3651 2.3739
1278 1 3.9565 19.7825 3.9565
1279 1 5.5391 21.3651 5.5391
1280 1 3.9565 19.7825 7.1217
1281 1 5.5391 21.3651 8.7043
1282 1 3.9565 19.7825 10.2869
1283 1 5.5391 21.3651 11.8695
1284 1 3.9565 19.7825 13.4521
1285 1 5.5391 21.3651 15.0347
1286 1 3.9565 19.7825 16.6173
1287 1 5.5391 21.3651 18.1999
1288 1 3.9565 19.7825 19.7825
1289 1 5.5391 21.3651 21.3651
1290 1 3.9565 19.7825 22.9477
1291 1 5.5391 21.3651 24.5303
1292 1 3.9565 19.7825 26.1129
1293 1 5.5391 21.3651 27.6955
1294 1 3.9565 19.7825 29.2781
1295 1 5.5391 21.3651 30.8607
1296 1 3.9565 19.7825 32.4433
1297 1 5.5391 21.3651 34.0259
1298 1 3.9565 19.7825 35.6085
1299 1 5.5391 21.3651 37.1911
1300 1 3.9565 19.7825 38.7737
1301 1 5.5391 21.3651 40.3563
1302 1 3.9565 19.7825 41.9389
1303 1 5.5391 21.3651 43.5215
1304 1 3.9565 19.7825 45.1041
1305 1 5.5391 21.3651 46.6867
1306 1 3.9565 19.7825 48.2693
1307 1 5.5391 21.3651 49.8519
1308 1 3.9565 22.9477 0.7913
1309 1 5.5391 24.5303 2.3739
1310 1 3.9565 22.9477 3.9565
1311 1 5.5391 24.5303 5.5391
1312 1 3.9565 22.9477 7.1217
1313 1 5.5391 24.5303 8.7043
1314 1 3.9565 22.9477 10.2869
1315 1 5.5391 24.5303 11.8695
1316 1 3.9565 22.9477 13.4521
1317 1 5.5391 24.5303 15.0347
1318 1 3.9565 22.9477 16.6173
1319 1 5.5391 24.5303 18.1999
1320 1 3.9565 22.9477 19.7825
1321 1 5.5391 24.5303 21.3651
1322 1 3.9565 22.9477 22.9477
1323 1 5.5391 24.5303 24.5303
1324 1 3.9565 22.9477 26.1129
1325 1 5.5391 24.5303 27.6955
1326 1 3.9565 22.9477 29.2781
1327 1 5.5391 24.5303 30.8607
1328 1 3.9565 22.9477 32.4433
1329 1 5.5391 24.5303 34.0259
1330 1 3.9565 22.9477 35.6085
1331 1 5.5391 24.5303 37.1911
1332 1 3.9565 22.9477 38.7737
1333 1 5.5391 24.5303 40.3563
1334 1 3.9565 22.9477 41.9389
1335 1 5.5391 24.5303 43.5215
1336 1 3.9565 22.9477 45.1041
1337 1 5.5391 24.5303 46.6867
1338 1 3.9565 22.9477 48.2693
1339 1 5.5391 24.5303 49.8519
1340 1 3.9565 26.1129 0.7913
1341 1 5.5391 27.6955 2.3739
1342 1 3.9565 26.1129 3.9565
1343 1 5.5391 27.6955 5.5391
1344 1 3.9565 26.1129 7.1217
1345 1 5.5391 27.6955 8.7043
1346 1 3.9565 26.1129 10.2869
1347 1 5.5391 27.6955 11.8695
1348 1 3.9565 26.1129 13.4521
1349 1 5.5391 27.6955 15.0347
1350 1 3.9565 26.1129 16.6173
1351 1 5.5391 27.6955 18.1999
1352 1 3.9565 26.1129 19.7825
1353 1 5.5391 27.6955 21.3651
1354 1 3.9565 26.1129 22.9477
1355 1 5.5391 27.6955 24.5303
1356 1 3.9565 26.1129 26.1129
1357 1 5.5391 27.6955 27.6955
1358 1 3.9565 26.1129 29.2781
1359 1 5.5391 27.6955 30.8607
1360 1 3.9565 26.1129 32.4433
1361 1 5.5391 27.6955 34.0259
1362 1 3.9565 26.1129 35.6085
1363 1 5.5391 27.6955 37.1911
1364 1 3.9565 26.1129 38.7737
1365 1 5.5391 27.6955 40.3563
1366 1 3.9565 26.1129 41.9389
1367 1 5.5391 27.6955 43.5215
1368 1 3.9565 26.1129 45.1041
1369 1 5.5391 27.6955 46.6867
1370 1 3.9565 26.1129 48.2693
1371 1 5.5391 27.6955 49.8519
1372 1 3.9565 29.2781 0.7913
1373 1 5.5391 30.8607 2.3739
1374 1 3.9565 29.2781 3.9565
1375 1 5.5391 30.8607 5.5391
1376 1 3.9565 29.2781 7.1217
1377 1 5.5391 30.8607 8.7043
1378 1 3.9565 29.2781 10.2869
1379 1 5.5391 30.8607 11.8695
1380 1 3.9565 29.2781 13.4521
1381 1 5.5391 30.8607 15.0347
1382 1 3.9565 29.2781 16.6173
1383 1 5.5391 30.8607 18.1999
1384 1 3.9565 29.2781 19.7825
1385 1 5.5391 30.8607 21.3651
1386 1 3.9565 29.2781 22.9477
1387 1 5.5391 30.8607 24.5303
1388 1 3.9565 29.2781 26.1129
1389 1 5.5391 30.8607 27.6955
1390 1 3.9565 29.2781 29.2781
1391 1 5.5391 30.8607 30.8607
1392 1 3.9565 29.2781 32.4433
1393 1 5.5391 30.8607 34.0259
1394 1 3.9565 29.2781 35.6085
1395 1 5.5391 30.8607 37.1911
1396 1 3.9565 29.2781 38.7737
1397 1 5.5391 30.8607 40.3563
1398 1 3.9565 29.2781 41.9389
1399 1 5.5391 30.8607 43.5215
1400 1 3.9565 29.2781 45.1041
1401 1 5.5391 30.8607 46.6867
1402 1 3.9565 29.2781 48.2693
1403 1 5.5391 30.8607 49.8519
1404 1 3.9565 32.4433 0.7913
1405 1 5.5391 34.0259 2.3739
1406 1 3.9565 32.4433 3.9565
1407 1 5.5391 34.0259 5.5391
1408 1 3.9565 32.4433 7.1217
1409 1 5.5391 34.0259 8.7043
1410 1 3.9565 32.4433 10.2869
1411 1 5.5391 34.0259 11.8695
1412 1 3.9565 32.4433 13.4521
1413 1 5.5391 34.0259 15.0347
1414 1 3.9565 32.4433 16.6173
1415 1 5.5391 34.0259 18.1999
1416 1 3.9565 32.4433 19.7825
1417 1 5.5391 34.0259 21.3651
1418 1 3.9565 32.4433 22.9477
1419 1 5.5391 34.0259 24.5303
1420 1 3.9565 32.4433 26.1129
1421 1 5.5391 34.0259 27.6955
1422 1 3.9565 32.4433 29.2781
1423 1 5.5391 34.0259 30.8607
1424 1 3.9565 32.4433 32.4433
1425 1 5.5391 34.0259 34.0259
1426 1 3.9565 32.4433 35.6085
1427 1 5.5391 34.0259 37.1911
1428 1 3.9565 32.4433 38.7737
1429 1 5.5391 34.0259 40.3563
1430 1 3.9565 32.4433 41.9389
1431 1 5.5391 34.0259 43.5215
1432 1 3.9565 32.4433 45.1041
1433 1 5.5391 34.0259 46.6867
1434 1 3.9565 32.4433 48.2693
1435 1 5.5391 34.0259 49.8519
1436 1 3.9565 35.6085 0.7913
1437 1 5.5391 37.1911 2.3739
1438 1 3.9565 35.6085 3.9565
1439 1 5.5391 37.1911 5.5391
1440 1 3.9565 35.6085 7.1217
1441 1 5.5391 37.1911 8.7043
1442 1 3.9565 35.6085 10.2869
1443 1 5.5391 37.1911 11.8695
1444 1 3.9565 35.6085 13.4521
1445 1 5.5391 37.1911 15.0347
1446 1 3.9565 35.6085 16.6173
1447 1 5.5391 37.1911 18.1999
1448 1 3.9565 35.6085 19.7825
1449 1 5.5391 37.1911 21.3651
1450 1 3.9565 35.6085 22.9477
1451 1 5.5391 37.1911 24.5303
1452 1 3.9565 35.6085 26.1129
1453 1 5.5391 37.1911 27.6955
1454 1 3.9565 35.6085 29.2781
1455 1 5.5391 37.1911 30.8607
1456 1 3.9565 35.6085 32.4433
1457 1 5.5391 37.1911 34.0259
1458 1 3.9565 35.6085 35.6085
1459 1 5.5391 37.1911 37.1911
1460 1 3.9565 35.6085 38.7737
1461 1 5.5391 37.1911 40.3563
1462 1 3.9565 35.6085 41.9389
1463 1 5.5391 37.1911 43.5215
1464 1 3.9565 35.6085 45.1041
1465 1 5.5391 37.1911 46.6867
1466 1 3.9565 35.6085 48.2693
1467 1 5.5391 37.1911 49.8519
1468 1 3.9565 38.7737 0.7913
1469 1 5.5391 40.3563 2.3739
1470 1 3.9565 38.7737 3.9565
1471 1 5.5391 40.3563 5.5391
1472 1 3.9565 38.7737 7.1217
1473 1 5.5391 40.3563 8.7043
1474 1 3.9565 38.7737 10.2869
1475 1 5.5391 40.3563 11.8695
1476 1 3.9565 38.7737 13.4521
1477 1 5.5391 40.3563 15.0347
1478 1 3.9565 38.7737 16.6173
1479 1 5.5391 40.3563 18.1999
1480 1 3.9565 38.7737 19.7825
1481 1 5.5391 40.3563 21.3651
1482 1 3.9565 38.7737 22.9477
1483 1 5.5391 40.3563 24.5303
1484 1 3.9565 38.7737 26.1129
1485 1 5.5391 40.3563 27.6955
1486 1 3.9565 38.7737 29.2781
1487 1 5.5391 40.3563 30.8607
1488 1 3.9565 38.7737 32.4433
1489 1 5.5391 40.3563 34.0259
1490 1 3.9565 38.7737 35.6085
1491 1 5.5391 40.3563 37.1911
1492 1 3.9565 38.7737 38.7737
1493 1 5.5391 40.3563 40.3563
1494 1 3.9565 38.7737 41.9389
1495 1 5.5391 40.3563 43.5215
1496 1 3.9565 38.7737 45.1041
1497 1 5.5391 40.3563 46.6867
1498 1 3.9565 38.7737 48.2693
1499 1 5.5391 40.3563 49.8519
1500 1 3.9565 41.9389 0.7913
1501 1 5.5391 43.5215 2.3739
1502 1 3.9565 41.9389 3.9565
1503 1 5.5391 43.5215 5.5391
1504 1 3.9565 41.9389 7.1217
1505 1 5.5391 43.5215 8.7043
1506 1 3.9565 41.9389 10.2869
1507 1 5.5391 43.5215 11.8695
1508 1 3.9565 41.9389 13.4521
1509 1 5.5391 43.5215 15.0347
1510 1 3.9565 41.9389 16.6173
1511 1 5.5391 43.5215 18.1999
1512 1 3.9565 41.9389 19.7825
1513 1 5.5391 43.5215 21.3651
1514 1 3.9565 41.9389 22.9477
1515 1 5.5391 43.5215 24.5303
1516 1 3.9565 41.9389 26.1129
1517 1 5.5391 43.5215 27.6955
1518 1 3.9565 41.9389 29.2781
1519 1 5.5391 43.5215 30.8607
1520 1 3.9565 41.9389 32.4433
1521 1 5.5391 43.5215 34.0259
1522 1 3.9565 41.9389 35.6085
1523 1 5.5391 43.5215 37.1911
1524 1 3.9565 41.9389 38.7737
1525 1 5.5391 43.5215 40.3563
1526 1 3.9565 41.9389 41.9389
1527 1 5.5391 43.5215 43.5215
1528 1 3.9565 41.9389 45.1041
1529 1 5.5391 43.5215 46.6867
1530 1 3.9565 41.9389 48.2693
1531 1 5.5391 43.5215 49.8519
1532 1 3.9565 45.1041 0.7913
1533 1 5.5391 46.6867 2.3739
1534 1 3.9565 45.1041 3.9565
1535 1 5.5391 46.6867 5.5391
1536 1 3.9565 45.1041 7.1217
1537 1 5.5391 46.6867 8.7043
1538 1 3.9565 45.1041 10.2869
1539 1 5.5391 46.6867 11.8695
1540 1 3.9565 45.1041 13.4521
1541 1 5.5391 46.6867 15.0347
1542 1 3.9565 45.1041 16.6173
1543 1 5.5391 46.6867 18.1999
1544 1 3.9565 45.1041 19.7825
1545 1 5.5391 46.6867 21.3651
1546 1 3.9565 45.1041 22.9477
1547 1 5.5391 46.6867 24.5303
1548 1 3.9565 45.1041 26.1129
1549 1 5.5391 46.6867 27.6955
1550 1 3.9565 45.1041 29.2781
1551 1 5.5391 46.6867 30.8607
1552 1 3.9565 45.1041 32.4433
1553 1 5.5391 46.6867 34.0259
1554 1 3.9565 45.1041 35.6085
1555 1 5.5391 46.6867 37.1911
1556 1 3.9565 45.1041 38.7737
1557 1 5.5391 46.6867 40.3563
1558 1 3.9565 45.1041 41.9389
1559 1 5.5391 46.6867 43.5215
1560 1 3.9565 45.1041 45.1041
1561 1 5.5391 46.6867 46.6867
1562 1 3.9565 45.1041 48.2693
1563 1 5.5391 46.6867 49.8519
1564 1 3.9565 48.2693 0.7913
1565 1 5.5391 49.8519 2.3739
1566 1 3.9565 48.2693 3.9565
1567 1 5.5391 49.8519 5.5391
1568 1 3.9565 48.2693 7.1217
1569 1 5.5391 49.8519 8.7043
1570 1 3.9565 48.2693 10.2869
1571 1 5.5391 49.8519 11.8695
1572 1 3.9565 48.2693 13.4521
1573 1 5.5391 49.8519 15.0347
1574 1 3.9565 48.2693 16.6173
1575 1 5.5391 49.8519 18.1999
1576 1 3.9565 48.2693 19.7825
1577 1 5.5391 49.8519 21.3651
1578 1 3.9565 48.2693 22.9477
1579 1 5.5391 49.8519 24.5303
1580 1 3.9565 48.2693 26.1129
1581 1 5.5391 49.8519 27.6955
1582 1 3.9565 48.2693 29.2781
1583 1 5.5391 49.8519 30.8607
1584 1 3.9565 48.2693 32.4433
1585 1 5.5391 49.8519 34.0259
1586 1 3.9565 48.2693 35.6085
1587 1 5.5391 49.8519 37.1911
1588 1 3.9565 48.2693 38.7737
1589 1 5.5391 49.8519 40.3563
1590 1 3.9565 48.2693 41.9389
1591 1 5.5391 49.8519 43.5215
1592 1 3.9565 48.2693 45.1041
1593 1 5.5391 49.8519 46.6867
1594 1 3.9565 48.2693 48.2693
1595 1 5.5391 49.8519 49.8519
1596 1 7.1217 0.7913 0.7913
1597 1 8.7043 2.3739 2.3739
1598 1 7.1217 0.7913 3.9565
1599 1 8.7043 2.3739 5.5391
1600 1 7.1217 0.7913 7.1217
1601 1 8.7043 2.3739 8.7043
1602 1 7.1217 0.7913 10.2869
1603 1 8.7043 2.3739 11.8695
1604 1 7.1217 0.7913 13.4521
1605 1 8.7043 2.3739 15.0347
1606 1 7.1217 0.7913 16.6173
1607 1 8.7043 2.3739 18.1999
1608 1 7.1217 0.7913 19.7825
1609 1 8.7043 2.3739 21.3651
1610 1 7.1217 0.7913 22.9477
1611 1 8.7043 2.3739 24.5303
1612 1 7.1217 0.7913 26.1129
1613 1 8.7043 2.3739 27.6955
1614 1 7.1217 0.7913 29.2781
1615 1 8.7043 2.3739 30.8607
1616 1 7.1217 0.7913 32.4433
1617 1 8.7043 2.3739 34.0259
1618 1 7.1217 0.7913 35.6085
1619 1 8.7043 2.3739 37.1911
1620 1 7.1217 0.7913 38.7737
1621 1 8.7043 2.3739 40.3563
1622 1 7.1217 0.7913 41.9389
1623 1 8.7043 2.3739 43.5215
1624 1 7.1217 0.7913 45.1041
1625 1 8.7043 2.3739 46.6867
1626 1 7.1217 0.7913 48.2693
1627 1 8.7043 2.3739 49.8519
1628 1 7.1217 3.9565 0.7913
1629 1 8.7043 5.5391 2.3739
1630 1 7.1217 3.9565 3.9565
1631 1 8.7043 5.5391 5.5391
1632 1 7.1217 3.9565 7.1217
1633 1 8.7043 5.5391 8.7043
1634 1 7.1217 3.9565 10.2869
1635 1 8.7043 5.5391 11.8695
1636 1 7.1217 3.9565 13.4521
1637 1 8.7043 5.5391 15.0347
1638 1 7.1217 3.9565 16.6173
1639 1 8.7043 5.5391 18.1999
1640 1 7.1217 3.9565 19.7825
1641 1 8.7043 5.5391 21.3651
1642 1 7.1217 3.9565 22.9477
1643 1 8.7043 5.5391 24.5303
1644 1 7.1217 3.9565 26.1129
1645 1 8.7043 5.5391 27.6955
1646 1 7.1217 3.9565 29.2781
1647 1 8.7043 5.5391 30.8607
1648 1 7.1217 3.9565 32.4433
1649 1 8.7043 5.5391 34.0259
1650 1 7.1217 3.9565 35.6085
1651 1 8.7043 5.5391 37.1911
1652 1 7.1217 3.9565 38.7737
1653 1 8.7043 5.5391 40.3563
1654 1 7.1217 3.9565 41.9389
1655 1 8.7043 5.5391 43.5215
1656 1 7.1217 3.9565 45.1041
1657 1 8.7043 5.5391 46.6867
1658 1 7.1217 3.9565 48.2693
1659 1 8.7043 5.5391 49.8519
1660 1 7.1217 7.1217 0.7913
1661 1 8.7043 8.7043 2.3739
1662 1 7.1217 7.1217 3.9565
1663 1 8.7043 8.7043 5.5391
1664 1 7.1217 7.1217 7.1217
1665 1 8.7043 8.7043 8.7043
1666 1 7.1217 7.1217 10.2869
1667 1 8.7043 8.7043 11.8695
1668 1 7.1217 7.1217 13.4521
1669 1 8.7043 8.7043 15.0347
1670 1 7.1217 7.1217 16.6173
1671 1 8.7043 8.7043 18.1999
1672 1 7.1217 7.1217 19.7825
1673 1 8.7043 8.7043 21.3651
1674 1 7.1217 7.1217 22.9477
1675 1 8.7043 8.7043 24.5303
1676 1 7.1217 7.1217 26.1129
1677 1 8.7043 8.7043 27.6955
1678 1 7.1217 7.1217 29.2781
1679 1 8.7043 8.7043 30.8607
1680 1 7.1217 7.1217 32.4433
1681 1 8.7043 8.7043 34.0259
1682 1 7.1217 7.1217 35.6085
1683 1 8.7043 8.7043 37.1911
1684 1 7.1217 7.1217 38.7737
1685 1 8.7043 8.7043 40.3563
1686 1 7.1217 7.1217 41.9389
1687 1 8.7043 8.7043 43.5215
1688 1 7.1217 7.1217 45.1041
1689 1 8.7043 8.7043 46.6867
1690 1 7.1217 7.1217 48.2693
1691 1 8.7043 8.7043 49.8519
1692 1 7.1217 10.2869 0.7913
1693 1 8.7043 11.8695 2.3739
1694 1 7.1217 10.2869 3.9565
1695 1 8.7043 11.8695 5.5391
1696 1 7.1217 10.2869 7.1217
1697 1 8.7043 11.8695 8.7043
1698 1 7.1217 10.2869 10.2869
1699 1 8.7043 11.8695 11.8695
1700 1 7.1217 10.2869 13.4521
1701 1 8.7043 11.8695 15.0347
1702 1 7.1217 10.2869 16.6173
1703 1 8.7043 11.8695 18.1999
1704 1 7.1217 10.2869 19.7825
1705 1 8.7043 11.8695 21.3651
1706 1 7.1217 10.2869 22.9477
1707 1 8.7043 11.8695 24.5303
1708 1 7.1217 10.2869 26.1129
1709 1 8.7043 11.8695 27.6955
1710 1 7.1217 10.2869 29.2781
1711 1 8.7043 11.8695 30.8607
1712 1 7.1217 10.2869 32.4433
1713 1 8.7043 11.8695 34.0259
1714 1 7.1217 10.2869 35.6085
1715 1 8.7043 11.8695 37.1911
1716 1 7.1217 10.2869 38.7737
1717 1 8.7043 11.8695 40.3563
1718 1 7.1217 10.2869 41.9389
1719 1 8.7043 11.8695 43.5215
1720 1 7.1217 10.2869 45.1041
1721 1 8.7043 11.8695 46.6867
1722 1 7.1217 10.2869 48.2693
1723 1 8.7043 11.8695 49.8519
1724 1 7.1217 13.4521 0.7913
1725 1 8.7043 15.0347 2.3739
1726 1 7.1217 13.4521 3.9565
1727 1 8.7043 15.0347 5.5391
1728 1 7.1217 13.4521 7.1217
1729 1 8.7043 15.0347 8.7043
1730 1 7.1217 13.4521 10.2869
1731 1 8.7043 15.0347 11.8695
1732 1 7.1217 13.4521 13.4521
1733 1 8.7043 15.0347 15.0347
1734 1 7.1217 13.4521 16.6173
1735 1 8.7043 15.0347 18.1999
1736 1 7.1217 13.4521 19.7825
1737 1 8.7043 15.0347 21.3651
1738 1 7.1217 13.4521 22.9477
1739 1 8.7043 15.0347 24.5303
1740 1 7.1217 13.4521 26.1129
1741 1 8.7043 15.0347 27.6955
1742 1 7.1217 13.4521 29.2781
1743 1 8.7043 15.0347 30.8607
1744 1 7.1217 13.4521 32.4433
1745 1 8.7043 15.0347 34.0259
1746 1 7.1217 13.4521 35.6085
1747 1 8.7043 15.0347 37.1911
1748 1 7.1217 13.4521 38.7737
1749 1 8.7043 15.0347 40.3563
1750 1 7.1217 13.4521 41.9389
1751 1 8.7043 15.0347 43.5215
1752 1 7.1217 13.4521 45.1041
1753 1 8.7043 15.0347 46.6867
1754 1 7.1217 13.4521 48.2693
1755 1 8.7043 15.0347 49.8519
1756 1 7.1217 16.6173 0.7913
1757 1 8.7043 18.1999 2.3739
1758 1 7.1217 16.6173 3.9565
1759 1 8.7043 18.1999 5.5391
1760 1 7.1217 16.6173 7.1217
1761 1 8.7043 18.1999 8.7043
1762 1 7.1217 16.6173 10.2869
1763 1 8.7043 18.1999 11.8695
1764 1 7.1217 16.6173 13.4521
1765 1 8.7043 18.1999 15.0347
1766 1 7.1217 16.6173 16.6173
1767 1 8.7043 18.1999 18.1999
1768 1 7.1217 16.6173 19.7825
1769 1 8.7043 18.1999 21.3651
1770 1 7.1217 16.6173 22.9477
1771 1 8.7043 18.1999 24.5303
1772 1 7.1217 16.6173 26.1129
1773 1 8.7043 18.1999 27.6955
1774 1 7.1217 16.6173 29.2781
1775 1 8.7043 18.1999 30.8607
1776 1 7.1217 16.6173 32.4433
1777 1 8.7043 18.1999 34.0259
1778 1 7.1217 16.6173 35.6085
1779 1 8.7043 18.1999 37.1911
1780 1 7.1217 16.6173 38.7737
1781 1 8.7043 18.1999 40.3563
1782 1 7.1217 16.6173 41.9389
1783 1 8.7043 18.1999 43.5215
1784 1 7.1217 16.6173 45.1041
1785 1 8.7043 18.1999 46.6867
1786 1 7.1217 16.6173 48.2693
1787 1 8.7043 18.1999 49.8519
1788 1 7.1217 19.7825 0.7913
1789 1 8.7043 21.3651 2.3739
1790 1 7.1217 19.7825 3.9565
1791 1 8.7043 21.3651 5.5391
1792 1 7.1217 19.7825 7.1217
1793 1 8.7043 21.3651 8.7043
1794 1 7.1217 19.7825 10.2869
1795 1 8.7043 21.3651 11.8695
1796 1 7.1217 19.7825 13.4521
1797 1 8.7043 21.3651 15.0347
1798 1 7.1217 19.7825 16.6173
1799 1 8.7043 21.3651 18.1999
1800 1 7.1217 19.7825 19.7825
1801 1 8.7043 21.3651 21.3651
1802 1 7.1217 19.7825 22.9477
1803 1 8.7043 21.3651 24.5303
1804 1 7.1217 19.7825 26.1129
1805 1 8.7043 21.3651 27.6955
1806 1 7.1217 19.7825 29.2781
1807 1 8.7043 21.3651 30.8607
1808 1 7.1217 19.7825 32.4433
1809 1 8.7043 21.3651 34.0259
1810 1 7.1217 19.7825 35.6085
1811 1 8.7043 21.3651 37.1911
1812 1 7.1217 19.7825 38.7737
1813 1 8.7043 21.3651 40.3563
1814 1 7.1217 19.7825 41.9389
1815 1 8.7043 21.3651 43.5215
1816 1 7.1217 19.7825 45.1041
1817 1 8.7043 21.3651 46.6867
1818 1 7.1217 19.7825 48.2693
1819 1 8.7043 21.3651 49.8519
1820 1 7.1217 22.9477 0.7913
1821 1 8.7043 24.5303 2.3739
1822 1 7.1217 22.9477 3.9565
1823 1 8.7043 24.5303 5.5391
1824 1 7.1217 22.9477 7.1217
1825 1 8.7043 24.5303 8.7043
1826 1 7.1217 22.9477 10.2869
1827 1 8.7043 24.5303 11.8695
1828 1 7.1217 22.9477 13.4521
1829 1 8.7043 24.5303 15.0347
1830 1 7.1217 22.9477 16.6173
1831 1 8.7043 24.5303 18.1999
1832 1 7.1217 22.9477 19.7825
1833 1 8.7043 24.5303 21.3651
1834 1 7.1217 22.9477 22.9477
1835 1 8.7043 24.5303 24.5303
1836 1 7.1217 22.9477 26.1129
1837 1 8.7043 24.5303 27.6955
1838 1 7.1217 22.9477 29.2781
1839 1 8.7043 24.5303 30.8607
1840 1 7.1217 22.9477 32.4433
1841 1 8.7043 24.5303 34.0259
1842 1 7.1217 22.9477 35.6085
1843 1 8.7043 24.5303 37.1911
1844 1 7.1217 22.9477 38.7737
1845 1 8.7043 24.5303 40.3563
1846 1 7.1217 22.9477 41.9389
1847 1 8.7043 24.5303 43.5215
1848 1 7.1217 22.9477 45.1041
1849 1 8.7043 24.5303 46.6867
1850 1 7.1217 22.9477 48.2693
1851 1 8.7043 24.5303 49.8519
1852 1 7.1217 26.1129 0.7913
1853 1 8.7043 27.6955 2.3739
1854 1 7.1217 26.1129 3.9565
1855 1 8.7043 27.6955 5.5391
1856 1 7.1217 26.1129 7.1217
1857 1 8.7043 27.6955 8.7043
1858 1 7.1217 26.1129 10.2869
1859 1 8.7043 27.6955 11.8695
1860 1 7.1217 26.1129 13.4521
1861 1 8.7043 27.6955 15.0347
1862 1 7.1217 26.1129 16.6173
1863 1 8.7043 27.6955 18.1999
1864 1 7.1217 26.1129 19.7825
1865 1 8.7043 27.6955 21.3651
1866 1 7.1217 26.1129 22.9477
1867 1 8.7043 27.6955 24.5303
1868 1 7.1217 26.1129 26.1129
1869 1 8.7043 27.6955 27.6955
1870 1 7.1217 26.1129 29.2781
1871 1 8.7043 27.6955 30.8607
1872 1 7.1217 26.1129 32.4433
1873 1 8.7043 27.6955 34.0259
1874 1 7.1217 26.1129 35.6085
1875 1 8.7043 27.6955 37.1911
1876 1 7.1217 26.1129 38.7737
1877 1 8.7043 27.6955 40.3563
1878 1 7.1217 26.1129 41.9389
1879 1 8.7043 27.6955 43.5215
1880 1 7.1217 26.1129 45.1041
1881 1 8.7043 27.6955 46.6867
1882 1 7.1217 26.1129 48.2693
1883 1 8.7043 27.6955 49.8519
1884 1 7.1217 29.2781 0.7913
1885 1 8.7043 30.8607 2.3739
1886 1 7.1217 29.2781 3.9565
1887 1 8.7043 30.8607 5.5391
1888 1 7.1217 29.2781 7.1217
1889 1 8.7043 30.8607 8.7043
1890 1 7.1217 29.2781 10.2869
1891 1 8.7043 30.8607 11.8695
1892 1 7.1217 29.2781 13.4521
1893 1 8.7043 30.8607 15.0347
1894 1 7.1217 29.2781 16.6173
1895 1 8.7043 30.8607 18.1999
1896 1 7.1217 29.2781 19.7825
1897 1 8.7043 30.8607 21.3651
1898 1 7.1217 29.2781 22.9477
1899 1 8.7043 30.8607 24.5303
1900 1 7.1217 29.2781 26.1129
1901 1 8.7043 30.8607 27.6955
1902 1 7.1217 29.2781 29.2781
1903 1 8.7043 30.8607 30.8607
1904 1 7.1217 29.2781 32.4433
1905 1 8.7043 30.8607 34.0259
1906 1 7.1217 29.2781 35.6085
1907 1 8.7043 30.8607 37.1911
1908 1 7.1217 29.2781 38.7737
1909 1 8.7043 30.8607 40.3563
1910 1 7.1217 29.2781 41.9389
1911 1 8.7043 30.8607 43.5215
1912 1 7.1217 29.2781 45.1041
1913 1 8.7043 30.8607 46.6867
1914 1 7.1217 29.2781 48.2693
1915 1 8.7043 30.8607 49.8519
1916 1 7.1217 32.4433 0.7913
1917 1 8.7043 34.0259 2.3739
1918 1 7.1217 32.4433 3.9565
1919 1 8.7043 34.0259 5.5391
1920 1 7.1217 32.4433 7.1217
1921 1 8.7043 34.0259 8.7043
1922 1 7.1217 32.4433 10.2869
1923 1 8.7043 34.0259 11.8695
1924 1 7.1217 32.4433 13.4521
1925 1 8.7043 34.0259 15.0347
1926 1 7.1217 32.4433 16.6173
1927 1 8.7043 34.0259 18.1999
1928 1 7.1217 32.4433 19.7825
1929 1 8.7043 34.0259 21.3651
1930 1 7.1217 32.4433 22.9477
1931 1 8.7043 34.0259 24.5303
1932 1 7.1217 32.4433 26.1129
1933 1 8.7043 34.0259 27.6955
1934 1 7.1217 32.4433 29.2781
1935 1 8.7043 34.0259 30.8607
1936 1 7.1217 32.4433 32.4433
1937 1 8.7043 34.0259 34.0259
1938 1 7.1217 32.4433 35.6085
1939 1 8.7043 34.0259 37.1911
1940 1 7.1217 32.4433 38.7737
1941 1 8.7043 34.0259 40.3563
1942 1 7.1217 32.4433 41.9389
1943 1 8.7043 34.0259 43.5215
1944 1 7.1217 32.4433 45.1041
1945 1 8.7043 34.0259 46.6867
1946 1 7.1217 32.4433 48.2693
1947 1 8.7043 34.0259 49.8519
1948 1 7.1217 35.6085 0.7913
1949 1 8.7043 37.1911 2.3739
1950 1 7.1217 35.6085 3.9565
1951 1 8.7043 37.1911 5.5391
1952 1 7.1217 35.6085 7.1217
1953 1 8.7043 37.1911 8.7043
1954 1 7.1217 35.6085 10.2869
1955 1 8.7043 37.1911 11.8695
1956 1 7.1217 35.6085 13.4521
1957 1 8.7043 37.1911 15.0347
1958 1 7.1217 35.6085 16.6173
1959 1 8.7043 37.1911 18.1999
1960 1 7.1217 35.6085 19.7825
1961 1 8.7043 37.1911 21.3651
1962 1 7.1217 35.6085 22.9477
1963 1 8.7043 37.1911 24.5303
1964 1 7.1217 35.6085 26.1129
1965 1 8.7043 37.1911 27.6955
1966 1 7.1217 35.6085 29.2781
1967 1 8.7043 37.1911 30.8607
1968 1 7.1217 35.6085 32.4433
1969 1 8.7043 37.1911 34.0259
1970 1 7.1217 35.6085 35.6085
1971 1 8.7043 37.1911 37.1911
1972 1 7.1217 35.6085 38.7737
1973 1 8.7043 37.1911 40.3563
1974 1 7.1217 35.6085 41.9389
1975 1 8.7043 37.1911 43.5215
1976 1 7.1217 35.6085 45.1041
1977 1 8.7043 37.1911 46.6867
1978 1 7.1217 35.6085 48.2693
1979 1 8.7043 37.1911 49.8519
1980 1 7.1217 38.7737 0.7913
1981 1 8.7043 40.3563 2.3739
1982 1 7.1217 38.7737 3.9565
1983 1 8.7043 40.3563 5.5391
1984 1 7.1217 38.7737 7.1217
1985 1 8.7043 40.3563 8.7043
1986 1 7.1217 38.7737 10.2869
1987 1 8.7043 40.3563 11.8695
1988 1 7.1217 38.7737 13.4521
1989 1 8.7043 40.3563 15.0347
1990 1 7.1217 38.7737 16.6173
1991 1 8.7043 40.3563 18.1999
1992 1 7.1217 38.7737 19.7825
1993 1 8.7043 40.3563 21.3651
1994 1 7.1217 38.7737 22.9477
1995 1 8.7043 40.3563 24.5303
1996 1 7.1217 38.7737 26.1129
1997 1 8.7043 40.3563 27.6955
1998 1 7.1217 38.7737 29.2781
1999 1 8.7043 40.3563 30.8607
2000 1 7.1217 38.7737 32.4433
2001 1 8.7043 40.3563 34.0259
2002 1 7.1217 38.7737 35.6085
2003 1 8.7043 40.3563 37.1911
2004 1 7.1217 38.7737 38.7737
2005 1 8.7043 40.3563 40.3563
2006 1 7.1217 38.7737 41.9389
2007 1 8.7043 40.3563 43.5215
2008 1 7.1217 38.7737 45.1041
2009 1 8.7043 40.3563 46.6867
2010 1 7.1217 38.7737 48.2693
2011 1 8.7043 40.3563 49.8519
2012 1 7.1217 41.9389 0.7913
2013 1 8.7043 43.5215 2.3739
2014 1 7.1217 41.9389 3.9565
2015 1 8.7043 43.5215 5.5391
2016 1 7.1217 41.9389 7.1217
2017 1 8.7043 43.5215 8.7043
2018 1 7.1217 41.9389 10.2869
2019 1 8.7043 43.5215 11.8695
2020 1 7.1217 41.9389 13.4521
2021 1 8.7043 43.5215 15.0347
2022 1 7.1217 41.9389 16.6173
2023 1 8.7043 43.5215 18.1999
2024 1 7.1217 41.9389 19.7825
2025 1 8.7043 43.5215 21.3651
2026 1 7.1217 41.9389 22.9477
2027 1 8.7043 43.5215 24.5303
2028 1 7.1217 41.9389 26.1129
2029 1 8.7043 43.5215 27.6955
2030 1 7.1217 41.9389 29.2781
2031 1 8.7043 43.5215 30.8607
2032 1 7.1217 41.9389 32.4433
2033 1 8.7043 43.5215 34.0259
2034 1 7.1217 41.9389 35.6085
2035 1 8.7043 43.5215 37.1911
2036 1 7.1217 41.9389 38.7737
2037 1 8.7043 43.5215 40.3563
2038 1 7.1217 41.9389 41.9389
2039 1 8.7043 43.5215 43.5215
2040 1 7.1217 41.9389 45.1041
2041 1 8.7043 43.5215 46.6867
2042 1 7.1217 41.9389 48.2693
2043 1 8.7043 43.5215 49.8519
2044 1 7.1217 45.1041 0.7913
2045 1 8.7043 46.6867 2.3739
2046 1 7.1217 45.1041 3.9565
2047 1 8.7043 46.6867 5.5391
2048 1 7.1217 45.1041 7.1217
2049 1 8.7043 46.6867 8.7043
2050 1 7.1217 45.1041 10.2869
2051 1 8.7043 46.6867 11.8695
2052 1 7.1217 45.1041 13.4521
2053 1 8.7043 46.6867 15.0347
2054 1 7.1217 45.1041 16.6173
2055 1 8.7043 46.6867 18.1999
2056 1 7.1217 45.1041 19.7825
2057 1 8.7043 46.6867 21.3651
2058 1 7.1217 45.1041 22.9477
2059 1 8.7043 46.6867 24.5303
2060 1 7.1217 45.1041 26.1129
2061 1 8.7043 46.6867 27.6955
2062 1 7.1217 45.1041 29.2781
2063 1 8.7043 46.6867 30.8607
2064 1 7.1217 45.1041 32.4433
2065 1 8.7043 46.6867 34.0259
2066 1 7.1217 45.1041 35.6085
2067 1 8.7043 46.6867 37.1911
2068 1 7.1217 45.1041 38.7737
2069 1 8.7043 46.6867 40.3563
2070 1 7.1217 45.1041 41.9389
2071 1 8.7043 46.6867 43.5215
2072 1 7.1217 45.1041 45.1041
2073 1 8.7043 46.6867 46.6867
2074 1 7.1217 45.1041 48.2693
2075 1 8.7043 46.6867 49.8519
2076 1 7.1217 48.2693 0.7913
2077 1 8.7043 49.8519 2.3739
2078 1 7.1217 48.2693 3.9565
2079 1 8.7043 49.8519 5.5391
2080 1 7.1217 48.2693 7.1217
2081 1 8.7043 49.8519 8.7043
2082 1 7.1217 48.2693 10.2869
2083 1 8.7043 49.8519 11.8695
2084 1 7.1217 48.2693 13.4521
2085 1 8.7043 49.8519 15.0347
2086 1 7.1217 48.2693 16.6173
2087 1 8.7043 49.8519 18.1999
2088 1 7.1217 48.2693 19.7825
2089 1 8.7043 49.8519 21.3651
2090 1 7.1217 48.2693 22.9477
2091 1 8.7043 49.8519 24.5303
2092 1 7.1217 48.2693 26.1129
2093 1 8.7043 49.8519 27.6955
2094 1 7.1217 48.2693 29.2781
2095 1 8.7043 49.8519 30.8607
2096 1 7.1217 48.2693 32.4433
2097 1 8.7043 49.8519 34.0259
2098 1 7.1217 48.2693 35.6085
2099 1 8.7043 49.8519 37.1911
2100 1 7.1217 48.2693 38.7737
2101 1 8.7043 49.8519 40.3563
2102 1 7.1217 48.2693 41.9389
2103 1 8.7043 49.8519 43.5215
2104 1 7.1217 48.2693 45.1041
2105 1 8.7043 49.8519 46.6867
2106 1 7.1217 48.2693 48.2693
2107 1 8.7043 49.8519 49.8519
2108 1 10.2869 0.7913 0.7913
2109 1 11.8695 2.3739 2.3739
2110 1 10.2869 0.7913 3.9565
2111 1 11.8695 2.3739 5.5391
2112 1 10.2869 0.7913 7.1217
2113 1 11.8695 2.3739 8.7043
2114 1 10.2869 0.7913 10.2869
2115 1 11.8695 2.3739 11.8695
2116 1 10.2869 0.7913 13.4521
2117 1 11.8695 2.3739 15.0347
2118 1 10.2869 0.7913 16.6173
2119 1 11.8695 2.3739 18.1999
2120 1 10.2869 0.7913 19.7825
2121 1 11.8695 2.3739 21.3651
2122 1 10.2869 0.7913 22.9477
2123 1 11.8695 2.3739 24.5303
2124 1 10.2869 0.7913 26.1129
2125 1 11.8695 2.3739 27.6955
2126 1 10.2869 0.7913 29.2781
2127 1 11.8695 2.3739 30.8607
2128 1 10.2869 0.7913 32.4433
2129 1 11.8695 2.3739 34.0259
2130 1 10.2869 0.7913 35.6085
2131 1 11.8695 2.3739 37.1911
2132 1 10.2869 0.7913 38.7737
2133 1 11.8695 2.3739 40.3563
2134 1 10.2869 0.7913 41.9389
2135 1 11.8695 2.3739 43.5215
2136 1 10.2869 0.7913 45.1041
2137 1 11.8695 2.3739 46.6867
2138 1 10.2869 0.7913 48.2693
2139 1 11.8695 2.3739 49.8519
2140 1 10.2869 3.9565 0.7913
2141 1 11.8695 5.5391 2.3739
2142 1 10.2869 3.9565 3.9565
2143 1 11.8695 5.5391 5.5391
2144 1 10.2869 3.9565 7.1217
2145 1 11.8695 5.5391 8.7043
2146 1 10.2869 3.9565 10.2869
2147 1 11.8695 5.5391 11.8695
2148 1 10.2869 3.9565 13.4521
2149 1 11.8695 5.5391 15.0347
2150 1 10.2869 3.9565 16.6173
2151 1 11.8695 5.5391 18.1999
2152 1 10.2869 3.9565 19.7825
2153 1 11.8695 5.5391 21.3651
2154 1 10.2869 3.9565 22.9477
2155 1 11.8695 5.5391 24.5303
2156 1 10.2869 3.9565 26.1129
2157 1 11.8695 5.5391 27.6955
2158 1 10.2869 3.9565 29.2781
2159 1 11.8695 5.5391 30.8607
2160 1 10.2869 3.9565 32.4433
2161 1 11.8695 5.5391 34.0259
2162 1 10.2869 3.9565 35.6085
2163 1 11.8695 5.5391 37.1911
2164 1 10.2869 3.9565 38.7737
2165 1 11.8695 5.5391 40.3563
2166 1 10.2869 3.9565 41.9389
2167 1 11.8695 5.5391 43.5215
2168 1 10.2869 3.9565 45.1041
2169 1 11.8695 5.5391 46.6867
2170 1 10.2869 3.9565 48.2693
2171 1 11.8695 5.5391 49.8519
2172 1 10.2869 7.1217 0.7913
2173 1 11.8695 8.7043 2.3739
2174 1 10.2869 7.1217 3.9565
2175 1 11.8695 8.7043 5.5391
2176 1 10.2869 7.1217 7.1217
2177 1 11.8695 8.7043 8.7043
2178 1 10.2869 7.1217 10.2869
2179 1 11.8695 8.7043 11.8695
2180 1 10.2869 7.1217 13.4521
2181 1 11.8695 8.7043 15.0347
2182 1 10.2869 7.1217 16.6173
2183 1 11.8695 8.7043 18.1999
2184 1 10.2869 7.1217 19.7825
2185 1 11.8695 8.7043 21.3651
2186 1 10.2869 7.1217 22.9477
2187 1 11.8695 8.7043 24.5303
2188 1 10.2869 7.1217 26.1129
2189 1 11.8695 8.7043 27.6955
2190 1 10.2869 7.1217 29.2781
2191 1 11.8695 8.7043 30.8607
2192 1 10.2869 7.1217 32.4433
2193 1 11.8695 8.7043 34.0259
2194 1 10.2869 7.1217 35.6085
2195 1 11.8695 8.7043 37.1911
2196 1 10.2869 7.1217 38.7737
2197 1 11.8695 8.7043 40.3563
2198 1 10.2869 7.1217 41.9389
2199 1 11.8695 8.7043 43.5215
2200 1 10.2869 7.1217 45.1041
2201 1 11.8695 8.7043 46.6867
2202 1 10.2869 7.1217 48.2693
2203 1 11.8695 8.7043 49.8519
2204 1 10.2869 10.2869 0.7913
2205 1 11.8695 11.8695 2.3739
2206 1 10.2869 10.2869 3.9565
2207 1 11.8695 11.8695 5.5391
2208 1 10.2869 10.2869 7.1217
2209 1 11.8695 11.8695 8.7043
2210 1 10.2869 10.2869 10.2869
2211 1 11.8695 11.8695 11.8695
2212 1 10.2869 10.2869 13.4521
2213 1 11.8695 11.8695 15.0347
2214 1 10.2869 10.2869 16.6173
2215 1 11.8695 11.8695 18.1999
2216 1 10.2869 10.2869 19.7825
2217 1 11.8695 11.8695 21.3651
2218 1 10.2869 10.2869 22.9477
2219 1 11.8695 11.8695 24.5303
2220 1 10.2869 10.2869 26.1129
2221 1 11.8695 11.8695 27.6955
2222 1 10.2869 10.2869 29.2781
2223 1 11.8695 11.8695 30.8607
2224 1 10.2869 10.2869 32.4433
2225 1 11.8695 11.8695 34.0259
2226 1 10.2869 10.2869 35.6085
2227 1 11.8695 11.8695 37.1911
2228 1 10.2869 10.2869 38.7737
2229 1 11.8695 11.8695 40.3563
2230 1 10.2869 10.2869 41.9389
2231 1 11.8695 11.8695 43.5215
2232 1 10.2869 10.2869 45.1041
2233 1 11.8695 11.8695 46.6867
2234 1 10.2869 10.2869 48.2693
2235 1 11.8695 11.8695 49.8519
2236 1 10.2869 13.4521 0.7913
2237 1 11.8695 15.0347 2.3739
2238 1 10.2869 13.4521 3.9565
2239 1 11.8695 15.0347 5.5391
2240 1 10.2869 13.4521 7.1217
2241 1 11.8695 15.0347 8.7043
2242 1 10.2869 13.4521 10.2869
2243 1 11.8695 15.0347 11.8695
2244 1 10.2869 13.4521 13.4521
2245 1 11.8695 15.0347 15.0347
2246 1 10.2869 13.4521 16.6173
2247 1 11.8695 15.0347 18.1999
2248 1 10.2869 13.4521 19.7825
2249 1 11.8695 15.0347 21.3651
2250 1 10.2869 13.4521 22.9477
2251 1 11.8695 15.0347 24.5303
2252 1 10.2869 13.4521 26.1129
2253 1 11.8695 15.0347 27.6955
2254 1 10.2869 13.4521 29.2781
2255 1 11.8695 15.0347 30.8607
2256 1 10.2869 13.4521 32.4433
2257 1 11.8695 15.0347 34.0259
2258 1 10.2869 13.4521 35.6085
2259 1 11.8695 15.0347 37.1911
2260 1 10.2869 13.4521 38.7737
2261 1 11.8695 15.0347 40.3563
2262 1 10.2869 13.4521 41.9389
2263 1 11.8695 15.0347 43.5215
2264 1 10.2869 13.4521 45.1041
2265 1 11.8695 15.0347 46.6867
2266 1 10.2869 13.4521 48.2693
2267 1 11.8695 15.0347 49.8519
2268 1 10.2869 16.6173 0.7913
2269 1 11.8695 18.1999 2.3739
2270 1 10.2869 16.6173 3.9565
2271 1 11.8695 18.1999 5.5391
2272 1 10.2869 16.6173 7.1217
2273 1 11.8695 18.1999 8.7043
2274 1 10.2869 16.6173 10.2869
2275 1 11.8695 18.1999 11.8695
2276 1 10.2869 16.6173 13.4521
2277 1 11.8695 18.1999 15.0347
2278 1 10.2869 16.6173 16.6173
2279 1 11.8695 18.1999 18.1999
2280 1 10.2869 16.6173 19.7825
2281 1 11.8695 18.1999 21.3651
2282 1 10.2869 16.6173 22.9477
2283 1 11.8695 18.1999 24.5303
2284 1 10.2869 16.6173 26.1129
2285 1 11.8695 18.1999 27.6955
2286 1 10.2869 16.6173 29.2781
2287 1 11.8695 18.1999 30.8607
2288 1 10.2869 16.6173 32.4433
2289 1 11.8695 18.1999 34.0259
2290 1 10.2869 16.6173 35.6085
2291 1 11.8695 18.1999 37.1911
2292 1 10.2869 16.6173 38.7737
2293 1 11.8695 18.1999 40.3563
2294 1 10.2869 16.6173 41.9389
2295 1 11.8695 18.1999 43.5215
2296 1 10.2869 16.6173 45.1041
2297 1 11.8695 18.1999 46.6867
2298 1 10.2869 16.6173 48.2693
2299 1 11.8695 18.1999 49.8519
2300 1 10.2869 19.7825 0.7913
2301 1 11.8695 21.3651 2.3739
2302 1 10.2869 19.7825 3.9565
2303 1 11.8695 21.3651 5.5391
2304 1 10.2869 19.7825 7.1217
2305 1 11.8695 21.3651 8.7043
2306 1 10.2869 19.7825 10.2869
2307 1 11.8695 21.3651 11.8695
2308 1 10.2869 19.7825 13.4521
2309 1 11.8695 21.3651 15.0347
2310 1 10.2869 19.7825 16.6173
2311 1 11.8695 21.3651 18.1999
2312 1 10.2869 19.7825 19.7825
2313 1 11.8695 21.3651 21.3651
2314 1 10.2869 19.7825 22.9477
2315 1 11.8695 21.3651 24.5303
2316 1 10.2869 19.7825 26.1129
2317 1 11.8695 21.3651 27.6955
2318 1 10.2869 19.7825 29.2781
2319 1 11.8695 21.3651 30.8607
2320 1 10.2869 19.7825 32.4433
2321 1 11.8695 21.3651 34.0259
2322 1 10.2869 19.7825 35.6085
2323 1 11.8695 21.3651 37.1911
2324 1 10.2869 19.7825 38.7737
2325 1 11.8695 21.3651 40.3563
2326 1 10.2869 19.7825 41.9389
2327 1 11.8695 21.3651 43.5215
2328 1 10.2869 19.7825 45.1041
2329 1 11.8695 21.3651 46.6867
2330 1 10.2869 19.7825 48.2693
2331 1 11.8695 21.3651 49.8519
2332 1 10.2869 22.9477 0.7913
2333 1 11.8695 24.5303 2.3739
2334 1 10.2869 22.9477 3.9565
2335 1 11.8695 24.5303 5.5391
2336 1 10.2869 22.9477 7.1217
2337 1 11.8695 24.5303 8.7043
2338 1 10.2869 22.9477 10.2869
2339 1 11.8695 24.5303 11.8695
2340 1 10.2869 22.9477 13.4521
2341 1 11.8695 24.5303 15.0347
2342 1 10.2869 22.9477 16.6173
2343 1 11.8695 24.5303 18.1999
2344 1 10.2869 22.9477 19.7825
2345 1 11.8695 24.5303 21.3651
2346 1 10.2869 22.9477 22.9477
2347 1 11.8695 24.5303 24.5303
2348 1 10.2869 22.9477 26.1129
2349 1 11.8695 24.5303 27.6955
2350 1 10.2869 22.9477 29.2781
2351 1 11.8695 24.5303 30.8607
2352 1 10.2869 22.9477 32.4433
2353 1 11.8695 24.5303 34.0259
2354 1 10.2869 22.9477 35.6085
2355 1 11.8695 24.5303 37.1911
2356 1 10.2869 22.9477 38.7737
2357 1 11.8695 24.5303 40.3563
2358 1 10.2869 22.9477 41.9389
2359 1 11.8695 24.5303 43.5215
2360 1 10.2869 22.9477 45.1041
2361 1 11.8695 24.5303 46.6867
2362 1 10.2869 22.9477 48.2693
2363 1 11.8695 24.5303 49.8519
2364 1 10.2869 26.1129 0.7913
2365 1 11.8695 27.6955 2.3739
2366 1 10.2869 26.1129 3.9565
2367 1 11.8695 27.6955 5.5391
2368 1 10.2869 26.1129 7.1217
2369 1 11.8695 27.6955 8.7043
2370 1 10.2869 26.1129 10.2869
2371 1 11.8695 27.6955 11.8695
2372 1 10.2869 26.1129 13.4521
2373 1 11.8695 27.6955 15.0347
2374 1 10.2869 26.1129 16.6173
2375 1 11.8695 27.6955 18.1999
2376 1 10.2869 26.1129 19.7825
2377 1 11.8695 27.6955 21.3651
2378 1 10.2869 26.1129 22.9477
2379 1 11.8695 27.6955 24.5303
2380 1 10.2869 26.1129 26.1129
2381 1 11.8695 27.6955 27.6955
2382 1 10.2869 26.1129 29.2781
2383 1 11.8695 27.6955 30.8607
2384 1 10.2869 26.1129 32.4433
2385 1 11.8695 27.6955 34.0259
2386 1 10.2869 26.1129 35.6085
2387 1 11.8695 27.6955 37.1911
2388 1 10.2869 26.1129 38.7737
2389 1 11.8695 27.6955 40.3563
2390 1 10.2869 26.1129 41.9389
2391 1 11.8695 27.6955 43.5215
2392 1 10.2869 26.1129 45.1041
2393 1 11.8695 27.6955 46.6867
2394 1 10.2869 26.1129 48.2693
2395 1 11.8695 27.6955 49.8519
2396 1 10.2869 29.2781 0.7913
2397 1 11.8695 30.8607 2.3739
2398 1 10.2869 29.2781 3.9565
2399 1 11.8695 30.8607 5.5391
2400 1 10.2869 29.2781 7.1217
2401 1 11.8695 30.8607 8.7043
2402 1 10.2869 29.2781 10.2869
2403 1 11.8695 30.8607 11.8695
2404 1 10.2869 29.2781 13.4521
2405 1 11.8695 30.8607 15.0347
2406 1 10.2869 29.2781 16.6173
2407 1 11.8695 30.8607 18.1999
2408 1 10.2869 29.2781 19.7825
2409 1 11.8695 30.8607 21.3651
2410 1 10.2869 29.2781 22.9477
2411 1 11.8695 30.8607 24.5303
2412 1 10.2869 29.2781 26.1129
2413 1 11.8695 30.8607 27.6955
2414 1 10.2869 29.2781 29.2781
2415 1 11.8695 30.8607 30.8607
2416 1 10.2869 29.2781 32.4433
2417 1 11.8695 30.8607 34.0259
2418 1 10.2869 29.2781 35.6085
2419 1 11.8695 30.8607 37.1911
2420 1 10.2869 29.2781 38.7737
2421 1 11.8695 30.8607 40.3563
2422 1 10.2869 29.2781 41.9389
2423 1 11.8695 30.8607 43.5215
2424 1 10.2869 29.2781 45.1041
2425 1 11.8695 30.8607 46.6867
2426 1 10.2869 29.2781 48.2693
2427 1 11.8695 30.8607 49.8519
2428 1 10.2869 32.4433 0.7913
2429 1 11.8695 34.0259 2.3739
2430 1 10.2869 32.4433 3.9565
2431 1 11.8695 34.0259 5.5391
2432 1 10.2869 32.4433 7.1217
2433 1 11.8695 34.0259 8.7043
2434 1 10.2869 32.4433 10.2869
2435 1 11.8695 34.0259 11.8695
2436 1 10.2869 32.4433 13.4521
2437 1 11.8695 34.0259 15.0347
2438 1 10.2869 32.4433 16.6173
2439 1 11.8695 34.0259 18.1999
2440 1 10.2869 32.4433 19.7825
2441 1 11.8695 34.0259 21.3651
2442 1 10.2869 32.4433 22.9477
2443 1 11.8695 34.0259 24.5303
2444 1 10.2869 32.4433 26.1129
2445 1 11.8695 34.0259 27.6955
2446 1 10.2869 32.4433 29.2781
2447 1 11.8695 34.0259 30.8607
2448 1 10.2869 32.4433 32.4433
2449 1 11.8695 34.0259 34.0259
2450 1 10.2869 32.4433 35.6085
2451 1 11.8695 34.0259 37.1911
2452 1 10.2869 32.4433 38.7737
2453 1 11.8695 34.0259 40.3563
2454 1 10.2869 32.4433 41.9389
2455 1 11.8695 34.0259 43.5215
2456 1 10.2869 32.4433 45.1041
2457 1 11.8695 34.0259 46.6867
2458 1 10.2869 32.4433 48.2693
2459 1 11.8695 34.0259 49.8519
2460 1 10.2869 35.6085 0.7913
2461 1 11.8695 37.1911 2.3739
2462 1 10.2869 35.6085 3.9565
2463 1 11.8695 37.1911 5.5391
2464 1 10.2869 35.6085 7.1217
2465 1 11.8695 37.1911 8.7043
2466 1 10.2869 35.6085 10.2869
2467 1 11.8695 37.1911 11.8695
2468 1 10.2869 35.6085 13.4521
2469 1 11.8695 37.1911 15.0347
2470 1 10.2869 35.6085 16.6173
2471 1 11.8695 37.1911 18.1999
2472 1 10.2869 35.6085 19.7825
2473 1 11.8695 37.1911 21.3651
2474 1 10.2869 35.6085 22.9477
2475 1 11.8695 37.1911 24.5303
2476 1 10.2869 35.6085 26.1129
2477 1 11.8695 37.1911 27.6955
2478 1 10.2869 35.6085 29.2781
2479 1 11.8695 37.1911 30.8607
2480 1 10.2869 35.6085 32.4433
2481 1 11.8695 37.1911 34.0259
2482 1 10.2869 35.6085 35.6085
2483 1 11.8695 37.1911 37.1911
2484 1 10.2869 35.6085 38.7737
2485 1 11.8695 37.1911 40.3563
2486 1 10.2869 35.6085 41.9389
2487 1 11.8695 37.1911 43.5215
2488 1 10.2869 35.6085 45.1041
2489 1 11.8695 37.1911 46.6867
2490 1 10.2869 35.6085 48.2693
2491 1 11.8695 37.1911 49.8519
2492 1 10.2869 38.7737 0.7913
2493 1 11.8695 40.3563 2.3739
2494 1 10.2869 38.7737 3.9565
2495 1 11.8695 40.3563 5.5391
2496 1 10.2869 38.7737 7.1217
2497 1 11.8695 40.3563 8.7043
2498 1 10.2869 38.7737 10.2869
2499 1 11.8695 40.3563 11.8695
2500 1 10.2869 38.7737 13.4521
2501 1 11.8695 40.3563 15.0347
2502 1 10.2869 38.7737 16.6173
2503 1 11.8695 40.3563 18.1999
2504 1 10.2869 38.7737 19.7825
2505 1 11.8695 40.3563 21.3651
2506 1 10.2869 38.7737 22.9477
2507 1 11.8695 40.3563 24.5303
2508 1 10.2869 38.7737 26.1129
2509 1 11.8695 40.3563 27.6955
2510 1 10.2869 38.7737 29.2781
2511 1 11.8695 40.3563 30.8607
2512 1 10.2869 38.7737 32.4433
2513 1 11.8695 40.3563 34.0259
2514 1 10.2869 38.7737 35.6085
2515 1 11.8695 40.3563 37.1911
2516 1 10.2869 38.7737 38.7737
2517 1 11.8695 40.3563 40.3563
2518 1 10.2869 38.7737 41.9389
2519 1 11.8695 40.3563 43.5215
2520 1 10.2869 38.7737 45.1041
2521 1 11.8695 40.3563 46.6867
2522 1 10.2869 38.7737 48.2693
2523 1 11.8695 40.3563 49.8519
2524 1 10.2869 41.9389 0.7913
2525 1 11.8695 43.5215 2.3739
2526 1 10.2869 41.9389 3.9565
2527 1 11.8695 43.5215 5.5391
2528 1 10.2869 41.9389 7.1217
2529 1 11.8695 43.5215 8.7043
2530 1 10.2869 41.9389 10.2869
2531 1 11.8695 43.5215 11.8695
2532 1 10.2869 41.9389 13.4521
2533 1 11.8695 43.5215 15.0347
2534 1 10.2869 41.9389 16.6173
2535 1 11.8695 43.5215 18.1999
2536 1 10.2869 41.9389 19.7825
2537 1 11.8695 43.5215 21.3651
2538 1 10.2869 41.9389 22.9477
2539 1 11.8695 43.5215 24.5303
2540 1 10.2869 41.9389 26.1129
2541 1 11.8695 43.5215 27.6955
2542 1 10.2869 41.9389 29.2781
2543 1 11.8695 43.5215 30.8607
2544 1 10.2869 41.9389 32.4433
2545 1 11.8695 43.5215 34.0259
2546 1 10.2869 41.9389 35.6085
2547 1 11.8695 43.5215 37.1911
2548 1 10.2869 41.9389 38.7737
2549 1 11.8695 43.5215 40.3563
2550 1 10.2869 41.9389 41.9389
2551 1 11.8695 43.5215 43.5215
2552 1 10.2869 41.9389 45.1041
2553 1 11.8695 43.5215 46.6867
2554 1 10.2869 41.9389 48.2693
2555 1 11.8695 43.5215 49.8519
2556 1 10.2869 45.1041 0.7913
2557 1 11.8695 46.6867 2.3739
2558 1 10.2869 45.1041 3.9565
2559 1 11.8695 46.6867 5.5391
2560 1 10.2869 45.1041 7.1217
2561 1 11.8695 46.6867 8.7043
2562 1 10.2869 45.1041 10.2869
2563 1 11.8695 46.6867 11.8695
2564 1 10.2869 45.1041 13.4521
2565 1 11.8695 46.6867 15.0347
2566 1 10.2869 45.1041 16.6173
2567 1 11.8695 46.6867 18.1999
2568 1 10.2869 45.1041 19.7825
2569 1 11.8695 46.6867 21.3651
2570 1 10.2869 45.1041 22.9477
2571 1 11.8695 46.6867 24.5303
2572 1 10.2869 45.1041 26.1129
2573 1 11.8695 46.6867 27.6955
2574 1 10.2869 45.1041 29.2781
2575 1 11.8695 46.6867 30.8607
2576 1 10.2869 45.1041 32.4433
2577 1 11.8695 46.6867 34.0259
2578 1 10.2869 45.1041 35.6085
2579 1 11.8695 46.6867 37.1911
2580 1 10.2869 45.1041 38.7737
2581 1 11.8695 46.6867 40.3563
2582 1 10.2869 45.1041 41.9389
2583 1 11.8695 46.6867 43.5215
2584 1 10.2869 45.1041 45.1041
2585 1 11.8695 46.6867 46.6867
2586 1 10.2869 45.1041 48.2693
2587 1 11.8695 46.6867 49.8519
2588 1 10.2869 48.2693 0.7913
2589 1 11.8695 49.8519 2.3739
2590 1 10.2869 48.2693 3.9565
2591 1 11.8695 49.8519 5.5391
2592 1 10.2869 48.2693 7.1217
2593 1 11.8695 49.8519 8.7043
2594 1 10.2869 48.2693 10.2869
2595 1 11.8695 49.8519 11.8695
2596 1 10.2869 48.2693 13.4521
2597 1 11.8695 49.8519 15.0347
2598 1 10.2869 48.2693 16.6173
2599 1 11.8695 49.8519 18.1999
2600 1 10.2869 48.2693 19.7825
2601 1 11.8695 49.8519 21.3651
2602 1 10.2869 48.2693 22.9477
2603 1 11.8695 49.8519 24.5303
2604 1 10.2869 48.2693 26.1129
2605 1 11.8695 49.8519 27.6955
2606 1 10.2869 48.2693 29.2781
2607 1 11.8695 49.8519 30.8607
2608 1 10.2869 48.2693 32.4433
2609 1 11.8695 49.8519 34.0259
2610 1 10.2869 48.2693 35.6085
2611 1 11.8695 49.8519 37.1911
2612 1 10.2869 48.2693 38.7737
2613 1 11.8695 49.8519 40.3563
2614 1 10.2869 48.2693 41.9389
2615 1 11.8695 49.8519 43.5215
2616 1 10.2869 48.2693 45.1041
2617 1 11.8695 49.8519 46.6867
2618 1 10.2869 48.2693 48.2693
2619 1 11.8695 49.8519 49.8519
2620 1 13.4521 0.7913 0.7913
2621 1 15.0347 2.3739 2.3739
2622 1 13.4521 0.7913 3.9565
2623 1 15.0347 2.3739 5.5391
2624 1 13.4521 0.7913 7.1217
2625 1 15.0347 2.3739 8.7043
2626 1 13.4521 0.7913 10.2869
2627 1 15.0347 2.3739 11.8695
2628 1 13.4521 0.7913 13.4521
2629 1 15.0347 2.3739 15.0347
2630 1 13.4521 0.7913 16.6173
2631 1 15.0347 2.3739 18.1999
2632 1 13.4521 0.7913 19.7825
2633 1 15.0347 2.3739 21.3651
2634 1 13.4521 0.7913 22.9477
2635 1 15.0347 2.3739 24.5303
2636 1 13.4521 0.7913 26.1129
2637 1 15.0347 2.3739 27.6955
2638 1 13.4521 0.7913 29.2781
2639 1 15.0347 2.3739 30.8607
2640 1 13.4521 0.7913 32.4433
2641 1 15.0347 2.3739 34.0259
2642 1 13.4521 0.7913 35.6085
2643 1 15.0347 2.3739 37.1911
2644 1 13.4521 0.7913 38.7737
2645 1 15.0347 2.3739 40.3563
2646 1 13.4521 0.7913 41.9389
2647 1 15.0347 2.3739 43.5215
2648 1 13.4521 0.7913 45.1041
2649 1 15.0347 2.3739 46.6867
2650 1 13.4521 0.7913 48.2693
2651 1 15.0347 2.3739 49.8519
2652 1 13.4521 3.9565 0.7913
2653 1 15.0347 5.5391 2.3739
2654 1 13.4521 3.9565 3.9565
2655 1 15.0347 5.5391 5.5391
2656 1 13.4521 3.9565 7.1217
2657 1 15.0347 5.5391 8.7043
2658 1 13.4521 3.9565 10.2869
2659 1 15.0347 5.5391 11.8695
2660 1 13.4521 3.9565 13.4521
2661 1 15.0347 5.5391 15.0347
2662 1 13.4521 3.9565 16.6173
2663 1 15.0347 5.5391 18.1999
2664 1 13.4521 3.9565 19.7825
2665 1 15.0347 5.5391 21.3651
2666 1 13.4521 3.9565 22.9477
2667 1 15.0347 5.5391 24.5303
2668 1 13.4521 3.9565 26.1129
2669 1 15.0347 5.5391 27.6955
2670 1 13.4521 3.9565 29.2781
2671 1 15.0347 5.5391 30.8607
2672 1 13.4521 3.9565 32.4433
2673 1 15.0347 5.5391 34.0259
2674 1 13.4521 3.9565 35.6085
2675 1 15.0347 5.5391 37.1911
2676 1 13.4521 3.9565 38.7737
2677 1 15.0347 5.5391 40.3563
2678 1 13.4521 3.9565 41.9389
2679 1 15.0347 5.5391 43.5215
2680 1 13.4521 3.9565 45.1041
2681 1 15.0347 5.5391 46.6867
2682 1 13.4521 3.9565 48.2693
2683 1 15.0347 5.5391 49.8519
2684 1 13.4521 7.1217 0.7913
2685 1 15.0347 8.7043 2.3739
2686 1 13.4521 7.1217 3.9565
2687 1 15.0347 8.7043 5.5391
2688 1 13.4521 7.1217 7.1217
2689 1 15.0347 8.7043 8.7043
2690 1 13.4521 7.1217 10.2869
2691 1 15.0347 8.7043 11.8695
2692 1 13.4521 7.1217 13.4521
2693 1 15.0347 8.7043 15.0347
2694 1 13.4521 7.1217 16.6173
2695 1 15.0347 8.7043 18.1999
2696 1 13.4521 7.1217 19.7825
2697 1 15.0347 8.7043 21.3651
2698 1 13.4521 7.1217 22.9477
2699 1 15.0347 8.7043 24.5303
2700 1 13.4521 7.1217 26.1129
2701 1 15.0347 8.7043 27.6955
2702 1 13.4521 7.1217 29.2781
2703 1 15.0347 8.7043 30.8607
2704 1 13.4521 7.1217 32.4433
2705 1 15.0347 8.7043 34.0259
2706 1 13.4521 7.1217 35.6085
2707 1 15.0347 8.7043 37.1911
2708 1 13.4521 7.1217 38.7737
2709 1 15.0347 8.7043 40.3563
2710 1 13.4521 7.1217 41.9389
2711 1 15.0347 8.7043 43.5215
2712 1 13.4521 7.1217 45.1041
2713 1 15.0347 8.7043 46.6867
2714 1 13.4521 7.1217 48.2693
2715 1 15.0347 8.7043 49.8519
2716 1 13.4521 10.2869 0.7913
2717 1 15.0347 11.8695 2.3739
2718 1 13.4521 10.2869 3.9565
2719 1 15.0347 11.8695 5.5391
2720 1 13.4521 10.2869 7.1217
2721 1 15.0347 11.8695 8.7043
2722 1 13.4521 10.2869 10.2869
2723 1 15.0347 11.8695 11.8695
2724 1 13.4521 10.2869 13.4521
2725 1 15.0347 11.8695 15.0347
2726 1 13.4521 10.2869 16.6173
2727 1 15.0347 11.8695 18.1999
2728 1 13.4521 10.2869 19.7825
2729 1 15.0347 11.8695 21.3651
2730 1 13.4521 10.2869 22.9477
2731 1 15.0347 11.8695 24.5303
2732 1 13.4521 10.2869 26.1129
2733 1 15.0347 11.8695 27.6955
2734 1 13.4521 10.2869 29.2781
2735 1 15.0347 11.8695 30.8607
2736 1 13.4521 10.2869 32.4433
2737 1 15.0347 11.8695 34.0259
2738 1 13.4521 10.2869 35.6085
2739 1 15.0347 11.8695 37.1911
2740 1 13.4521 10.2869 38.7737
2741 1 15.0347 11.8695 40.3563
2742 1 13.4521 10.2869 41.9389
2743 1 15.0347 11.8695 43.5215
2744 1 13.4521 10.2869 45.1041
2745 1 15.0347 11.8695 46.6867
2746 1 13.4521 10.2869 48.2693
2747 1 15.0347 11.8695 49.8519
2748 1 13.4521 13.4521 0.7913
2749 1 15.0347 15.0347 2.3739
2750 1 13.4521 13.4521 3.9565
2751 1 15.0347 15.0347 5.5391
2752 1 13.4521 13.4521 7.1217
2753 1 15.0347 15.0347 8.7043
2754 1 13.4521 13.4521 10.2869
2755 1 15.0347 15.0347 11.8695
2756 1 13.4521 13.4521 13.4521
2757 1 15.0347 15.0347 15.0347
2758 1 13.4521 13.4521 16.6173
2759 1 15.0347 15.0347 18.1999
2760 1 13.4521 13.4521 19.7825
2761 1 15.0347 15.0347 21.3651
2762 1 13.4521 13.4521 22.9477
2763 1 15.0347 15.0347 24.5303
2764 1 13.4521 13.4521 26.1129
2765 1 15.0347 15.0347 27.6955
2766 1 13.4521 13.4521 29.2781
2767 1 15.0347 15.0347 30.8607
2768 1 13.4521 13.4521 32.4433
2769 1 15.0347 15.0347 34.0259
2770 1 13.4521 13.4521 35.6085
2771 1 15.0347 15.0347 37.1911
2772 1 13.4521 13.4521 38.7737
2773 1 15.0347 15.0347 40.3563
2774 1 13.4521 13.4521 41.9389
2775 1 15.0347 15.0347 43.5215
2776 1 13.4521 13.4521 45.1041
2777 1 15.0347 15.0347 46.6867
2778 1 13.4521 13.4521 48.2693
2779 1 15.0347 15.0347 49.8519
2780 1 13.4521 16.6173 0.7913
2781 1 15.0347 18.1999 2.3739
2782 1 13.4521 16.6173 3.9565
2783 1 15.0347 18.1999 5.5391
2784 1 13.4521 16.6173 7.1217
2785 1 15.0347 18.1999 8.7043
2786 1 13.4521 16.6173 10.2869
2787 1 15.0347 18.1999 11.8695
2788 1 13.4521 16.6173 13.4521
2789 1 15.0347 18.1999 15.0347
2790 1 13.4521 16.6173 16.6173
2791 1 15.0347 18.1999 18.1999
2792 1 13.4521 16.6173 19.7825
2793 1 15.0347 18.1999 21.3651
2794 1 13.4521 16.6173 22.9477
2795 1 15.0347 18.1999 24.5303
2796 1 13.4521 16.6173 26.1129
2797 1 15.0347 18.1999 27.6955
2798 1 13.4521 16.6173 29.2781
2799 1 15.0347 18.1999 30.8607
2800 1 13.4521 16.6173 32.4433
2801 1 15.0347 18.1999 34.0259
2802 1 13.4521 16.6173 35.6085
2803 1 15.0347 18.1999 37.1911
2804 1 13.4521 16.6173 38.7737
2805 1 15.0347 18.1999 40.3563
2806 1 13.4521 16.6173 41.9389
2807 1 15.0347 18.1999 43.5215
2808 1 13.4521 16.6173 45.1041
2809 1 15.0347 18.1999 46.6867
2810 1 13.4521 16.6173 48.2693
2811 1 15.0347 18.1999 49.8519
2812 1 13.4521 19.7825 0.7913
2813 1 15.0347 21.3651 2.3739
2814 1 13.4521 19.7825 3.9565
2815 1 15.0347 21.3651 5.5391
2816 1 13.4521 19.7825 7.1217
2817 1 15.0347 21.3651 8.7043
2818 1 13.4521 19.7825 10.2869
2819 1 15.0347 21.3651 11.8695
2820 1 13.4521 19.7825 13.4521
2821 1 15.0347 21.3651 15.0347
2822 1 13.4521 19.7825 16.6173
2823 1 15.0347 21.3651 18.1999
2824 1 13.4521 19.7825 19.7825
2825 1 15.0347 21.3651 21.3651
2826 1 13.4521 19.7825 22.9477
2827 1 15.0347 21.3651 24.5303
2828 1 13.4521 19.7825 26.1129
2829 1 15.0347 21.3651 27.6955
2830 1 13.4521 19.7825 29.2781
2831 1 15.0347 21.3651 30.8607
2832 1 13.4521 19.7825 32.4433
2833 1 15.0347 21.3651 34.0259
2834 1 13.4521 19.7825 35.6085
2835 1 15.0347 21.3651 37.1911
2836 1 13.4521 19.7825 38.7737
2837 1 15.0347 21.3651 40.3563
2838 1 13.4521 19.7825 41.9389
2839 1 15.0347 21.3651 43.5215
2840 1 13.4521 19.7825 45.1041
2841 1 15.0347 21.3651 46.6867
2842 1 13.4521 19.7825 48.2693
2843 1 15.0347 21.3651 49.8519
2844 1 13.4521 22.9477 0.7913
2845 1 15.0347 24.5303 2.3739
2846 1 13.4521 22.9477 3.9565
2847 1 15.0347 24.5303 5.5391
2848 1 13.4521 22.9477 7.1217
2849 1 15.0347 24.5303 8.7043
2850 1 13.4521 22.9477 10.2869
2851 1 15.0347 24.5303 11.8695
2852 1 13.4521 22.9477 13.4521
2853 1 15.0347 24.5303 15.0347
2854 1 13.4521 22.9477 16.6173
2855 1 15.0347 24.5303 18.1999
2856 1 13.4521 22.9477 19.7825
2857 1 15.0347 24.5303 21.3651
2858 1 13.4521 22.9477 22.9477
2859 1 15.0347 24.5303 24.5303
2860 1 13.4521 22.9477 26.1129
2861 1 15.0347 24.5303 27.6955
2862 1 13.4521 22.9477 29.2781
2863 1 15.0347 24.5303 30.8607
2864 1 13.4521 22.9477 32.4433
2865 1 15.0347 24.5303 34.0259
2866 1 13.4521 22.9477 35.6085
2867 1 15.0347 24.5303 37.1911
2868 1 13.4521 22.9477 38.7737
2869 1 15.0347 24.5303 40.3563
2870 1 13.4521 22.9477 41.9389
2871 1 15.0347 24.5303 43.5215
2872 1 13.4521 22.9477 45.1041
2873 1 15.0347 24.5303 46.6867
2874 1 13.4521 22.9477 48.2693
2875 1 15.0347 24.5303 49.8519
2876 1 13.4521 26.1129 0.7913
2877 1 15.0347 27.6955 2.3739
2878 1 13.4521 26.1129 3.9565
2879 1 15.0347 27.6955 5.5391
2880 1 13.4521 26.1129 7.1217
2881 1 15.0347 27.6955 8.7043
2882 1 13.4521 26.1129 10.2869
2883 1 15.0347 27.6955 11.8695
2884 1 13.4521 26.1129 13.4521
2885 1 15.0347 27.6955 15.0347
2886 1 13.4521 26.1129 16.6173
2887 1 15.0347 27.6955 18.1999
2888 1 13.4521 26.1129 19.7825
2889 1 15.0347 27.6955 21.3651
2890 1 13.4521 26.1129 22.9477
2891 1 15.0347 27.6955 24.5303
2892 1 13.4521 26.1129 26.1129
2893 1 15.0347 27.6955 27.6955
2894 1 13.4521 26.1129 29.2781
2895 1 15.0347 27.6955 30.8607
2896 1 13.4521 26.1129 32.4433
2897 1 15.0347 27.6955 34.0259
2898 1 13.4521 26.1129 35.6085
2899 1 15.0347 27.6955 37.1911
2900 1 13.4521 26.1129 38.7737
2901 1 15.0347 27.6955 40.3563
2902 1 13.4521 26.1129 41.9389
2903 1 15.0347 27.6955 43.5215
2904 1 13.4521 26.1129 45.1041
2905 1 15.0347 27.6955 46.6867
2906 1 13.4521 26.1129 48.2693
2907 1 15.0347 27.6955 49.8519
2908 1 13.4521 29.2781 0.7913
2909 1 15.0347 30.8607 2.3739
2910 1 13.4521 29.2781 3.9565
2911 1 15.0347 30.8607 5.5391
2912 1 13.4521 29.2781 7.1217
2913 1 15.0347 30.8607 8.7043
2914 1 13.4521 29.2781 10.2869
2915 1 15.0347 30.8607 11.8695
2916 1 13.4521 29.2781 13.4521
2917 1 15.0347 30.8607 15.0347
2918 1 13.4521 29.2781 16.6173
2919 1 15.0347 30.8607 18.1999
2920 1 13.4521 29.2781 19.7825
2921 1 15.0347 30.8607 21.3651
2922 1 13.4521 29.2781 22.9477
2923 1 15.0347 30.8607 24.5303
2924 1 13.4521 29.2781 26.1129
2925 1 15.0347 30.8607 27.6955
2926 1 13.4521 29.2781 29.2781
2927 1 15.0347 30.8607 30.8607
2928 1 13.4521 29.2781 32.4433
2929 1 15.0347 30.8607 34.0259
2930 1 13.4521 29.2781 35.6085
2931 1 15.0347 30.8607 37.1911
2932 1 13.4521 29.2781 38.7737
2933 1 15.0347 30.8607 40.3563
2934 1 13.4521 29.2781 41.9389
2935 1 15.0347 30.8607 43.5215
2936 1 13.4521 29.2781 45.1041
2937 1 15.0347 30.8607 46.6867
2938 1 13.4521 29.2781 48.2693
2939 1 15.0347 30.8607 49.8519
2940 1 13.4521 32.4433 0.7913
2941 1 15.0347 34.0259 2.3739
2942 1 13.4521 32.4433 3.9565
2943 1 15.0347 34.0259 5.5391
2944 1 13.4521 32.4433 7.1217
2945 1 15.0347 34.0259 8.7043
2946 1 13.4521 32.4433 10.2869
2947 1 15.0347 34.0259 11.8695
2948 1 13.4521 32.4433 13.4521
2949 1 15.0347 34.0259 15.0347
2950 1 13.4521 32.4433 16.6173
2951 1 15.0347 34.0259 18.1999
2952 1 13.4521 32.4433 19.7825
2953 1 15.0347 34.0259 21.3651
2954 1 13.4521 32.4433 22.9477
2955 1 15.0347 34.0259 24.5303
2956 1 13.4521 32.4433 26.1129
2957 1 15.0347 34.0259 27.6955
2958 1 13.4521 32.4433 29.2781
2959 1 15.0347 34.0259 30.8607
2960 1 13.4521 32.4433 32.4433
2961 1 15.0347 34.0259 34.0259
2962 1 13.4521 32.4433 35.6085
2963 1 15.0347 34.0259 37.1911
2964 1 13.4521 32.4433 38.7737
2965 1 15.0347 34.0259 40.3563
2966 1 13.4521 32.4433 41.9389
2967 1 15.0347 34.0259 43.5215
2968 1 13.4521 32.4433 45.1041
2969 1 15.0347 34.0259 46.6867
2970 1 13.4521 32.4433 48.2693
2971 1 15.0347 34.0259 49.8519
2972 1 13.4521 35.6085 0.7913
2973 1 15.0347 37.1911 2.3739
2974 1 13.4521 35.6085 3.9565
2975 1 15.0347 37.1911 5.5391
2976 1 13.4521 35.6085 7.1217
2977 1 15.0347 37.1911 8.7043
2978 1 13.4521 35.6085 10.2869
2979 1 15.0347 37.1911 11.8695
2980 1 13.4521 35.6085 13.4521
2981 1 15.0347 37.1911 15.0347
2982 1 13.4521 35.6085 16.6173
2983 1 15.0347 37.1911 18.1999
2984 1 13.4521 35.6085 19.7825
2985 1 15.0347 37.1911 21.3651
2986 1 13.4521 35.6085 22.9477
2987 1 15.0347 37.1911 24.5303
2988 1 13.4521 35.6085 26.1129
2989 1 15.0347 37.1911 27.6955
2990 1 13.4521 35.6085 29.2781
2991 1 15.0347 37.1911 30.8607
2992 1 13.4521 35.6085 32.4433
2993 1 15.0347 37.1911 34.0259
2994 1 13.4521 35.6085 35.6085
2995 1 15.0347 37.1911 37.1911
2996 1 13.4521 35.6085 38.7737
2997 1 15.0347 37.1911 40.3563
2998 1 13.4521 35.6085 41.9389
2999 1 15.0347 37.1911 43.5215
3000 1 13.4521 35.6085 45.1041
3001 1 15.0347 37.1911 46.6867
3002 1 13.4521 35.6085 48.2693
3003 1 15.0347 37.1911 49.8519
3004 1 13.4521 38.7737 0.7913
3005 1 15.0347 40.3563 2.3739
3006 1 13.4521 38.7737 3.9565
3007 1 15.0347 40.3563 5.5391
3008 1 13.4521 38.7737 7.1217
3009 1 15.0347 40.3563 8.7043
3010 1 13.4521 38.7737 10.2869
3011 1 15.0347 40.3563 11.8695
3012 1 13.4521 38.7737 13.4521
3013 1 15.0347 40.3563 15.0347
3014 1 13.4521 38.7737 16.6173
3015 1 15.0347 40.3563 18.1999
3016 1 13.4521 38.7737 19.7825
3017 1 15.0347 40.3563 21.3651
3018 1 13.4521 38.7737 22.9477
3019 1 15.0347 40.3563 24.5303
3020 1 13.4521 38.7737 26.1129
3021 1 15.0347 40.3563 27.6955
3022 1 13.4521 38.7737 29.2781
3023 1 15.0347 40.3563 30.8607
3024 1 13.4521 38.7737 32.4433
3025 1 15.0347 40.3563 34.0259
3026 1 13.4521 38.7737 35.6085
3027 1 15.0347 40.3563 37.1911
3028 1 13.4521 38.7737 38.7737
3029 1 15.0347 40.3563 40.3563
3030 1 13.4521 38.7737 41.9389
3031 1 15.0347 40.3563 43.5215
3032 1 13.4521 38.7737 45.1041
3033 1 15.0347 40.3563 46.6867
3034 1 13.4521 38.7737 48.2693
3035 1 15.0347 40.3563 49.8519
3036 1 13.4521 41.9389 0.7913
3037 1 15.0347 43.5215 2.3739
3038 1 13.4521 41.9389 3.9565
3039 1 15.0347 43.5215 5.5391
3040 1 13.4521 41.9389 7.1217
3041 1 15.0347 43.5215 8.7043
3042 1 13.4521 41.9389 10.2869
3043 1 15.0347 43.5215 11.8695
3044 1 13.4521 41.9389 13.4521
3045 1 15.0347 43.5215 15.0347
3046 1 13.4521 41.9389 16.6173
3047 1 15.0347 43.5215 18.1999
3048 1 13.4521 41.9389 19.7825
3049 1 15.0347 43.5215 21.3651
3050 1 13.4521 41.9389 22.9477
3051 1 15.0347 43.5215 24.5303
3052 1 13.4521 41.9389 26.1129
3053 1 15.0347 43.5215 27.6955
3054 1 13.4521 41.9389 29.2781
3055 1 15.0347 43.5215 30.8607
3056 1 13.4521 41.9389 32.4433
3057 1 15.0347 43.5215 34.0259
3058 1 13.4521 41.9389 35.6085
3059 1 15.0347 43.5215 37.1911
3060 1 13.4521 41.9389 38.7737
3061 1 15.0347 43.5215 40.3563
3062 1 13.4521 41.9389 41.9389
3063 1 15.0347 43.5215 43.5215
3064 1 13.4521 41.9389 45.1041
3065 1 15.0347 43.5215 46.6867
3066 1 13.4521 41.9389 48.2693
3067 1 15.0347 43.5215 49.8519
3068 1 13.4521 45.1041 0.7913
3069 1 15.0347 46.6867 2.3739
3070 1 13.4521 45.1041 3.9565
3071 1 15.0347 46.6867 5.5391
3072 1 13.4521 45.1041 7.1217
3073 1 15.0347 46.6867 8.7043
3074 1 13.4521 45.1041 10.2869
3075 1 15.0347 46.6867 11.8695
3076 1 13.4521 45.1041 13.4521
3077 1 15.0347 46.6867 15.0347
3078 1 13.4521 45.1041 16.6173
3079 1 15.0347 46.6867 18.1999
3080 1 13.4521 45.1041 19.7825
3081 1 15.0347 46.6867 21.3651
3082 1 13.4521 45.1041 22.9477
3083 1 15.0347 46.6867 24.5303
3084 1 13.4521 45.1041 26.1129
3085 1 15.0347 46.6867 27.6955
3086 1 13.4521 45.1041 29.2781
3087 1 15.0347 46.6867 30.8607
3088 1 13.4521 45.1041 32.4433
3089 1 15.0347 46.6867 34.0259
3090 1 13.4521 45.1041 35.6085
3091 1 15.0347 46.6867 37.1911
3092 1 13.4521 45.1041 38.7737
3093 1 15.0347 46.6867 40.3563
3094 1 13.4521 45.1041 41.9389
3095 1 15.0347 46.6867 43.5215
3096 1 13.4521 45.1041 45.1041
3097 1 15.0347 46.6867 46.6867
3098 1 13.4521 45.1041 48.2693
3099 1 15.0347 46.6867 49.8519
3100 1 13.4521 48.2693 0.7913
3101 1 15.0347 49.8519 2.3739
3102 1 13.4521 48.2693 3.9565
3103 1 15.0347 49.8519 5.5391
3104 1 13.4521 48.2693 7.1217
3105 1 15.0347 49.8519 8.7043
3106 1 13.4521 48.2693 10.2869
3107 1 15.0347 49.8519 11.8695
3108 1 13.4521 48.2693 13.4521
3109 1 15.0347 49.8519 15.0347
3110 1 13.4521 48.2693 16.6173
3111 1 15.0347 49.8519 18.1999
3112 1 13.4521 48.2693 19.7825
3113 1 15.0347 49.8519 21.3651
3114 1 13.4521 48.2693 22.9477
3115 1 15.0347 49.8519 24.5303
3116 1 13.4521 48.2693 26.1129
3117 1 15.0347 49.8519 27.6955
3118 1 13.4521 48.2693 29.2781
3119 1 15.0347 49.8519 30.8607
3120 1 13.4521 48.2693 32.4433
3121 1 15.0347 49.8519 34.0259
3122 1 13.4521 48.2693 35.6085
3123 1 15.0347 49.8519 37.1911
3124 1 13.4521 48.2693 38.7737
3125 1 15.0347 49.8519 40.3563
3126 1 13.4521 48.2693 41.9389
3127 1 15.0347 49.8519 43.5215
3128 1 13.4521 48.2693 45.1041
3129 1 15.0347 49.8519 46.6867
3130 1 13.4521 48.2693 48.2693
3131 1 15.0347 49.8519 49.8519
3132 1 32.4433 0.7913 0.7913
3133 1 34.0259 2.3739 2.3739
3134 1 32.4433 0.7913 3.9565
3135 1 34.0259 2.3739 5.5391
3136 1 32.4433 0.7913 7.1217
3137 1 34.0259 2.3739 8.7043
3138 1 32.4433 0.7913 10.2869
3139 1 34.0259 2.3739 11.8695
3140 1 32.4433 0.7913 13.4521
3141 1 34.0259 2.3739 15.0347
3142 1 32.4433 0.7913 16.6173
3143 1 34.0259 2.3739 18.1999
3144 1 32.4433 0.7913 19.7825
3145 1 34.0259 2.3739 21.3651
3146 1 32.4433 0.7913 22.9477
3147 1 34.0259 2.3739 24.5303
3148 1 32.4433 0.7913 26.1129
3149 1 34.0259 2.3739 27.6955
3150 1 32.4433 0.7913 29.2781
3151 1 34.0259 2.3739 30.8607
3152 1 32.4433 0.7913 32.4433
3153 1 34.0259 2.3739 34.0259
3154 1 32.4433 0.7913 35.6085
3155 1 34.0259 2.3739 37.1911
3156 1 32.4433 0.7913 38.7737
3157 1 34.0259 2.3739 40.3563
3158 1 32.4433 0.7913 41.9389
3159 1 34.0259 2.3739 43.5215
3160 1 32.4433 0.7913 45.1041
3161 1 34.0259 2.3739 46.6867
3162 1 32.4433 0.7913 48.2693
3163 1 34.0259 2.3739 49.8519
3164 1 32.4433 3.9565 0.7913
3165 1 34.0259 5.5391 2.3739
3166 1 32.4433 3.9565 3.9565
3167 1 34.0259 5.5391 5.5391
3168 1 32.4433 3.9565 7.1217
3169 1 34.0259 5.5391 8.7043
3170 1 32.4433 3.9565 10.2869
3171 1 34.0259 5.5391 11.8695
3172 1 32.4433 3.9565 13.4521
3173 1 34.0259 5.5391 15.0347
3174 1 32.4433 3.9565 16.6173
3175 1 34.0259 5.5391 18.1999
3176 1 32.4433 3.9565 19.7825
3177 1 34.0259 5.5391 21.3651
3178 1 32.4433 3.9565 22.9477
3179 1 34.0259 5.5391 24.5303
3180 1 32.4433 3.9565 26.1129
3181 1 34.0259 5.5391 27.6955
3182 1 32.4433 3.9565 29.2781
3183 1 34.0259 5.5391 30.8607
3184 1 32.4433 3.9565 32.4433
3185 1 34.0259 5.5391 34.0259
3186 1 32.4433 3.9565 35.6085
3187 1 34.0259 5.5391 37.1911
3188 1 32.4433 3.9565 38.7737
3189 1 34.0259 5.5391 40.3563
3190 1 32.4433 3.9565 41.9389
3191 1 34.0259 5.5391 43.5215
3192 1 32.4433 3.9565 45.1041
3193 1 34.0259 5.5391 46.6867
3194 1 32.4433 3.9565 48.2693
3195 1 34.0259 5.5391 49.8519
3196 1 32.4433 7.1217 0.7913
3197 1 34.0259 8.7043 2.3739
3198 1 32.4433 7.1217 3.9565
3199 1 34.0259 8.7043 5.5391
3200 1 32.4433 7.1217 7.1217
3201 1 34.0259 8.7043 8.7043
3202 1 32.4433 7.1217 10.2869
3203 1 34.0259 8.7043 11.8695
3204 1 32.4433 7.1217 13.4521
3205 1 34.0259 8.7043 15.0347
3206 1 32.4433 7.1217 16.6173
3207 1 34.0259 8.7043 18.1999
3208 1 32.4433 7.1217 19.7825
3209 1 34.0259 8.7043 21.3651
3210 1 32.4433 7.1217 22.9477
3211 1 34.0259 8.7043 24.5303
3212 1 32.4433 7.1217 26.1129
3213 1 34.0259 8.7043 27.6955
3214 1 32.4433 7.1217 29.2781
3215 1 34.0259 8.7043 30.8607
3216 1 32.4433 7.1217 32.4433
3217 1 34.0259 8.7043 34.0259
3218 1 32.4433 7.1217 35.6085
3219 1 34.0259 8.7043 37.1911
3220 1 32.4433 7.1217 38.7737
3221 1 34.0259 8.7043 40.3563
3222 1 32.4433 7.1217 41.9389
3223 1 34.0259 8.7043 43.5215
3224 1 32.4433 7.1217 45.1041
3225 1 34.0259 8.7043 46.6867
3226 1 32.4433 7.1217 48.2693
3227 1 34.0259 8.7043 49.8519
3228 1 32.4433 10.2869 0.7913
3229 1 34.0259 11.8695 2.3739
3230 1 32.4433 10.2869 3.9565
3231 1 34.0259 11.8695 5.5391
3232 1 32.4433 10.2869 7.1217
3233 1 34.0259 11.8695 8.7043
3234 1 32.4433 10.2869 10.2869
3235 1 34.0259 11.8695 11.8695
3236 1 32.4433 10.2869 13.4521
3237 1 34.0259 11.8695 15.0347
3238 1 32.4433 10.2869 16.6173
3239 1 34.0259 11.8695 18.1999
3240 1 32.4433 10.2869 19.7825
3241 1 34.0259 11.8695 21.3651
3242 1 32.4433 10.2869 22.9477
3243 1 34.0259 11.8695 24.5303
3244 1 32.4433 10.2869 26.1129
3245 1 34.0259 11.8695 27.6955
3246 1 32.4433 10.2869 29.2781
3247 1 34.0259 11.8695 30.8607
3248 1 32.4433 10.2869 32.4433
3249 1 34.0259 11.8695 34.0259
3250 1 32.4433 10.2869 35.6085
3251 1 34.0259 11.8695 37.1911
3252 1 32.4433 10.2869 38.7737
3253 1 34.0259 11.8695 40.3563
3254 1 32.4433 10.2869 41.9389
3255 1 34.0259 11.8695 43.5215
3256 1 32.4433 10.2869 45.1041
3257 1 34.0259 11.8695 46.6867
3258 1 32.4433 10.2869 48.2693
3259 1 34.0259 11.8695 49.8519
3260 1 32.4433 13.4521 0.7913
3261 1 34.0259 15.0347 2.3739
3262 1 32.4433 13.4521 3.9565
3263 1 34.0259 15.0347 5.5391
3264 1 32.4433 13.4521 7.1217
3265 1 34.0259 15.0347 8.7043
3266 1 32.4433 13.4521 10.2869
3267 1 34.0259 15.0347 11.8695
3268 1 32.4433 13.4521 13.4521
3269 1 34.0259 15.0347 15.0347
3270 1 32.4433 13.4521 16.6173
3271 1 34.0259 15.0347 18.1999
3272 1 32.4433 13.4521 19.7825
3273 1 34.0259 15.0347 21.3651
3274 1 32.4433 13.4521 22.9477
3275 1 34.0259 15.0347 24.5303
3276 1 32.4433 13.4521 26.1129
3277 1 34.0259 15.0347 27.6955
3278 1 32.4433 13.4521 29.2781
3279 1 34.0259 15.0347 30.8607
3280 1 32.4433 13.4521 32.4433
3281 1 34.0259 15.0347 34.0259
3282 1 32.4433 13.4521 35.6085
3283 1 34.0259 15.0347 37.1911
3284 1 32.4433 13.4521 38.7737
3285 1 34.0259 15.0347 40.3563
3286 1 32.4433 13.4521 41.9389
3287 1 34.0259 15.0347 43.5215
3288 1 32.4433 13.4521 45.1041
3289 1 34.0259 15.0347 46.6867
3290 1 32.4433 13.4521 48.2693
3291 1 34.0259 15.0347 49.8519
3292 1 32.4433 16.6173 0.7913
3293 1 34.0259 18.1999 2.3739
3294 1 32.4433 16.6173 3.9565
3295 1 34.0259 18.1999 5.5391
3296 1 32.4433 16.6173 7.1217
3297 1 34.0259 18.1999 8.7043
3298 1 32.4433 16.6173 10.2869
3299 1 34.0259 18.1999 11.8695
3300 1 32.4433 16.6173 13.4521
3301 1 34.0259 18.1999 15.0347
3302 1 32.4433 16.6173 16.6173
3303 1 34.0259 18.1999 18.1999
3304 1 32.4433 16.6173 19.7825
3305 1 34.0259 18.1999 21.3651
3306 1 32.4433 16.6173 22.9477
3307 1 34.0259 18.1999 24.5303
3308 1 32.4433 16.6173 26.1129
3309 1 34.0259 18.1999 27.6955
3310 1 32.4433 16.6173 29.2781
3311 1 34.0259 18.1999 30.8607
3312 1 32.4433 16.6173 32.4433
3313 1 34.0259 18.1999 34.0259
3314 1 32.4433 16.6173 35.6085
3315 1 34.0259 18.1999 37.1911
3316 1 32.4433 16.6173 38.7737
3317 1 34.0259 18.1999 40.3563
3318 1 32.4433 16.6173 41.9389
3319 1 34.0259 18.1999 43.5215
3320 1 32.4433 16.6173 45.1041
3321 1 34.0259 18.1999 46.6867
3322 1 32.4433 16.6173 48.2693
3323 1 34.0259 18.1999 49.8519
3324 1 32.4433 19.7825 0.7913
3325 1 34.0259 21.3651 2.3739
3326 1 32.4433 19.7825 3.9565
3327 1 34.0259 21.3651 5.5391
3328 1 32.4433 19.7825 7.1217
3329 1 34.0259 21.3651 8.7043
3330 1 32.4433 19.7825 10.2869
3331 1 34.0259 21.3651 11.8695
3332 1 32.4433 19.7825 13.4521
3333 1 34.0259 21.3651 15.0347
3334 1 32.4433 19.7825 16.6173
3335 1 34.0259 21.3651 18.1999
3336 1 32.4433 19.7825 19.7825
3337 1 34.0259 21.3651 21.3651
3338 1 32.4433 19.7825 22.9477
3339 1 34.0259 21.3651 24.5303
3340 1 32.4433 19.7825 26.1129
3341 1 34.0259 21.3651 27.6955
3342 1 32.4433 19.7825 29.2781
3343 1 34.0259 21.3651 30.8607
3344 1 32.4433 19.7825 32.4433
3345 1 34.0259 21.3651 34.0259
3346 1 32.4433 19.7825 35.6085
3347 1 34.0259 21.3651 37.1911
3348 1 32.4433 19.7825 38.7737
3349 1 34.0259 21.3651 40.3563
3350 1 32.4433 19.7825 41.9389
3351 1 34.0259 21.3651 43.5215
3352 1 32.4433 19.7825 45.1041
3353 1 34.0259 21.3651 46.6867
3354 1 32.4433 19.7825 48.2693
3355 1 34.0259 21.3651 49.8519
3356 1 32.4433 22.9477 0.7913
3357 1 34.0259 24.5303 2.3739
3358 1 32.4433 22.9477 3.9565
3359 1 34.0259 24.5303 5.5391
3360 1 32.4433 22.9477 7.1217
3361 1 34.0259 24.5303 8.7043
3362 1 32.4433 22.9477 10.2869
3363 1 34.0259 24.5303 11.8695
3364 1 32.4433 22.9477 13.4521
3365 1 34.0259 24.5303 15.0347
3366 1 32.4433 22.9477 16.6173
3367 1 34.0259 24.5303 18.1999
3368 1 32.4433 22.9477 19.7825
3369 1 34.0259 24.5303 21.3651
3370 1 32.4433 22.9477 22.9477
3371 1 34.0259 24.5303 24.5303
3372 1 32.4433 22.9477 26.1129
3373 1 34.0259 24.5303 27.6955
3374 1 32.4433 22.9477 29.2781
3375 1 34.0259 24.5303 30.8607
3376 1 32.4433 22.9477 32.4433
3377 1 34.0259 24.5303 34.0259
3378 1 32.4433 22.9477 35.6085
3379 1 34.0259 24.5303 37.1911
3380 1 32.4433 22.9477 38.7737
3381 1 34.0259 24.5303 40.3563
3382 1 32.4433 22.9477 41.9389
3383 1 34.0259 24.5303 43.5215
3384 1 32.4433 22.9477 45.1041
3385 1 34.0259 24.5303 46.6867
3386 1 32.4433 22.9477 48.2693
3387 1 34.0259 24.5303 49.8519
3388 1 32.4433 26.1129 0.7913
3389 1 34.0259 27.6955 2.3739
3390 1 32.4433 26.1129 3.9565
3391 1 34.0259 27.6955 5.5391
3392 1 32.4433 26.1129 7.1217
3393 1 34.0259 27.6955 8.7043
3394 1 32.4433 26.1129 10.2869
3395 1 34.0259 27.6955 11.8695
3396 1 32.4433 26.1129 13.4521
3397 1 34.0259 27.6955 15.0347
3398 1 32.4433 26.1129 16.6173
3399 1 34.0259 27.6955 18.1999
3400 1 32.4433 26.1129 19.7825
3401 1 34.0259 27.6955 21.3651
3402 1 32.4433 26.1129 22.9477
3403 1 34.0259 27.6955 24.5303
3404 1 32.4433 26.1129 26.1129
3405 1 34.0259 27.6955 27.6955
3406 1 32.4433 26.1129 29.2781
3407 1 34.0259 27.6955 30.8607
3408 1 32.4433 26.1129 32.4433
3409 1 34.0259 27.6955 34.0259
3410 1 32.4433 26.1129 35.6085
3411 1 34.0259 27.6955 37.1911
3412 1 32.4433 26.1129 38.7737
3413 1 34.0259 27.6955 40.3563
3414 1 32.4433 26.1129 41.9389
3415 1 34.0259 27.6955 43.5215
3416 1 32.4433 26.1129 45.1041
3417 1 34.0259 27.6955 46.6867
3418 1 32.4433 26.1129 48.2693
3419 1 34.0259 27.6955 49.8519
3420 1 32.4433 29.2781 0.7913
3421 1 34.0259 30.8607 2.3739
3422 1 32.4433 29.2781 3.9565
3423 1 34.0259 30.8607 5.5391
3424 1 32.4433 29.2781 7.1217
3425 1 34.0259 30.8607 8.7043
3426 1 32.4433 29.2781 10.2869
3427 1 34.0259 30.8607 11.8695
3428 1 32.4433 29.2781 13.4521
3429 1 34.0259 30.8607 15.0347
3430 1 32.4433 29.2781 16.6173
3431 1 34.0259 30.8607 18.1999
3432 1 32.4433 29.2781 19.7825
3433 1 34.0259 30.8607 21.3651
3434 1 32.4433 29.2781 22.9477
3435 1 34.0259 30.8607 24.5303
3436 1 32.4433 29.2781 26.1129
3437 1 34.0259 30.8607 27.6955
3438 1 32.4433 29.2781 29.2781
3439 1 34.0259 30.8607 30.8607
3440 1 32.4433 29.2781 32.4433
3441 1 34.0259 30.8607 34.0259
3442 1 32.4433 29.2781 35.6085
3443 1 34.0259 30.8607 37.1911
3444 1 32.4433 29.2781 38.7737
3445 1 34.0259 30.8607 40.3563
3446 1 32.4433 29.2781 41.9389
3447 1 34.0259 30.8607 43.5215
3448 1 32.4433 29.2781 45.1041
3449 1 34.0259 30.8607 46.6867
3450 1 32.4433 29.2781 48.2693
3451 1 34.0259 30.8607 49.8519
3452 1 32.4433 32.4433 0.7913
3453 1 34.0259 34.0259 2.3739
3454 1 32.4433 32.4433 3.9565
3455 1 34.0259 34.0259 5.5391
3456 1 32.4433 32.4433 7.1217
3457 1 34.0259 34.0259 8.7043
3458 1 32.4433 32.4433 10.2869
3459 1 34.0259 34.0259 11.8695
3460 1 32.4433 32.4433 13.4521
3461 1 34.0259 34.0259 15.0347
3462 1 32.4433 32.4433 16.6173
3463 1 34.0259 34.0259 18.1999
3464 1 32.4433 32.4433 19.7825
3465 1 34.0259 34.0259 21.3651
3466 1 32.4433 32.4433 22.9477
3467 1 34.0259 34.0259 24.5303
3468 1 32.4433 32.4433 26.1129
3469 1 34.0259 34.0259 27.6955
3470 1 32.4433 32.4433 29.2781
3471 1 34.0259 34.0259 30.8607
3472 1 32.4433 32.4433 32.4433
3473 1 34.0259 34.0259 34.0259
3474 1 32.4433 32.4433 35.6085
3475 1 34.0259 34.0259 37.1911
3476 1 32.4433 32.4433 38.7737
3477 1 34.0259 34.0259 40.3563
3478 1 32.4433 32.4433 41.9389
3479 1 34.0259 34.0259 43.5215
3480 1 32.4433 32.4433 45.1041
3481 1 34.0259 34.0259 46.6867
3482 1 32.4433 32.4433 48.2693
3483 1 34.0259 34.0259 49.8519
3484 1 32.4433 35.6085 0.7913
3485 1 34.0259 37.1911 2.3739
3486 1 32.4433 35.6085 3.9565
3487 1 34.0259 37.1911 5.5391
3488 1 32.4433 35.6085 7.1217
3489 1 34.0259 37.1911 8.7043
3490 1 32.4433 35.6085 10.2869
3491 1 34.0259 37.1911 11.8695
3492 1 32.4433 35.6085 13.4521
3493 1 34.0259 37.1911 15.0347
3494 1 32.4433 35.6085 16.6173
3495 1 34.0259 37.1911 18.1999
3496 1 32.4433 35.6085 19.7825
3497 1 34.0259 37.1911 21.3651
3498 1 32.4433 35.6085 22.9477
3499 1 34.0259 37.1911 24.5303
3500 1 32.4433 35.6085 26.1129
3501 1 34.0259 37.1911 27.6955
3502 1 32.4433 35.6085 29.2781
3503 1 34.0259 37.1911 30.8607
3504 1 32.4433 35.6085 32.4433
3505 1 34.0259 37.1911 34.0259
3506 1 32.4433 35.6085 35.6085
3507 1 34.0259 37.1911 37.1911
3508 1 32.4433 35.6085 38.7737
3509 1 34.0259 37.1911 40.3563
3510 1 32.4433 35.6085 41.9389
3511 1 34.0259 37.1911 43.5215
3512 1 32.4433 35.6085 45.1041
3513 1 34.0259 37.1911 46.6867
3514 1 32.4433 35.6085 48.2693
3515 1 34.0259 37.1911 49.8519
3516 1 32.4433 38.7737 0.7913
3517 1 34.0259 40.3563 2.3739
3518 1 32.4433 38.7737 3.9565
3519 1 34.0259 40.3563 5.5391
3520 1 32.4433 38.7737 7.1217
3521 1 34.0259 40.3563 8.7043
3522 1 32.4433 38.7737 10.2869
3523 1 34.0259 40.3563 11.8695
3524 1 32.4433 38.7737 13.4521
3525 1 34.0259 40.3563 15.0347
3526 1 32.4433 38.7737 16.6173
3527 1 34.0259 40.3563 18.1999
3528 1 32.4433 38.7737 19.7825
3529 1 34.0259 40.3563 21.3651
3530 1 32.4433 38.7737 22.9477
3531 1 34.0259 40.3563 24.5303
3532 1 32.4433 38.7737 26.1129
3533 1 34.0259 40.3563 27.6955
3534 1 32.4433 38.7737 29.2781
3535 1 34.0259 40.3563 30.8607
3536 1 32.4433 38.7737 32.4433
3537 1 34.0259 40.3563 34.0259
3538 1 32.4433 38.7737 35.6085
3539 1 34.0259 40.3563 37.1911
3540 1 32.4433 38.7737 38.7737
3541 1 34.0259 40.3563 40.3563
3542 1 32.4433 38.7737 41.9389
3543 1 34.0259 40.3563 43.5215
3544 1 32.4433 38.7737 45.1041
3545 1 34.0259 40.3563 46.6867
3546 1 32.4433 38.7737 48.2693
3547 1 34.0259 40.3563 49.8519
3548 1 32.4433 41.9389 0.7913
3549 1 34.0259 43.5215 2.3739
3550 1 32.4433 41.9389 3.9565
3551 1 34.0259 43.5215 5.5391
3552 1 32.4433 41.9389 7.1217
3553 1 34.0259 43.5215 8.7043
3554 1 32.4433 41.9389 10.2869
3555 1 34.0259 43.5215 11.8695
3556 1 32.4433 41.9389 13.4521
3557 1 34.0259 43.5215 15.0347
3558 1 32.4433 41.9389 16.6173
3559 1 34.0259 43.5215 18.1999
3560 1 32.4433 41.9389 19.7825
3561 1 34.0259 43.5215 21.3651
3562 1 32.4433 41.9389 22.9477
3563 1 34.0259 43.5215 24.5303
3564 1 32.4433 41.9389 26.1129
3565 1 34.0259 43.5215 27.6955
3566 1 32.4433 41.9389 29.2781
3567 1 34.0259 43.5215 30.8607
3568 1 32.4433 41.9389 32.4433
3569 1 34.0259 43.5215 34.0259
3570 1 32.4433 41.9389 35.6085
3571 1 34.0259 43.5215 37.1911
3572 1 32.4433 41.9389 38.7737
3573 1 34.0259 43.5215 40.3563
3574 1 32.4433 41.9389 41.9389
3575 1 34.0259 43.5215 43.5215
3576 1 32.4433 41.9389 45.1041
3577 1 34.0259 43.5215 46.6867
3578 1 32.4433 41.9389 48.2693
3579 1 34.0259 43.5215 49.8519
3580 1 32.4433 45.1041 0.7913
3581 1 34.0259 46.6867 2.3739
3582 1 32.4433 45.1041 3.9565
3583 1 34.0259 46.6867 5.5391
3584 1 32.4433 45.1041 7.1217
3585 1 34.0259 46.6867 8.7043
3586 1 32.4433 45.1041 10.2869
3587 1 34.0259 46.6867 11.8695
3588 1 32.4433 45.1041 13.4521
3589 1 34.0259 46.6867 15.0347
3590 1 32.4433 45.1041 16.6173
3591 1 34.0259 46.6867 18.1999
3592 1 32.4433 45.1041 19.7825
3593 1 34.0259 46.6867 21.3651
3594 1 32.4433 45.1041 22.9477
3595 1 34.0259 46.6867 24.5303
3596 1 32.4433 45.1041 26.1129
3597 1 34.0259 46.6867 27.6955
3598 1 32.4433 45.1041 29.2781
3599 1 34.0259 46.6867 30.8607
3600 1 32.4433 45.1041 32.4433
3601 1 34.0259 46.6867 34.0259
3602 1 32.4433 45.1041 35.6085
3603 1 34.0259 46.6867 37.1911
3604 1 32.4433 45.1041 38.7737
3605 1 34.0259 46.6867 40.3563
3606 1 32.4433 45.1041 41.9389
3607 1 34.0259 46.6867 43.5215
3608 1 32.4433 45.1041 45.1041
3609 1 34.0259 46.6867 46.6867
3610 1 32.4433 45.1041 48.2693
3611 1 34.0259 46.6867 49.8519
3612 1 32.4433 48.2693 0.7913
3613 1 34.0259 49.8519 2.3739
3614 1 32.4433 48.2693 3.9565
3615 1 34.0259 49.8519 5.5391
3616 1 32.4433 48.2693 7.1217
3617 1 34.0259 49.8519 8.7043
3618 1 32.4433 48.2693 10.2869
3619 1 34.0259 49.8519 11.8695
3620 1 32.4433 48.2693 13.4521
3621 1 34.0259 49.8519 15.0347
3622 1 32.4433 48.2693 16.6173
3623 1 34.0259 49.8519 18.1999
3624 1 32.4433 48.2693 19.7825
3625 1 34.0259 49.8519 21.3651
3626 1 32.4433 48.2693 22.9477
3627 1 34.0259 49.8519 24.5303
3628 1 32.4433 48.2693 26.1129
3629 1 34.0259 49.8519 27.6955
3630 1 32.4433 48.2693 29.2781
3631 1 34.0259 49.8519 30.8607
3632 1 32.4433 48.2693 32.4433
3633 1 34.0259 49.8519 34.0259
3634 1 32.4433 48.2693 35.6085
3635 1 34.0259 49.8519 37.1911
3636 1 32.4433 48.2693 38.7737
3637 1 34.0259 49.8519 40.3563
3638 1 32.4433 48.2693 41.9389
3639 1 34.0259 49.8519 43.5215
3640 1 32.4433 48.2693 45.1041
3641 1 34.0259 49.8519 46.6867
3642 1 32.4433 48.2693 48.2693
3643 1 34.0259 49.8519 49.8519
3644 1 35.6085 0.7913 0.7913
3645 1 37.1911 2.3739 2.3739
3646 1 35.6085 0.7913 3.9565
3647 1 37.1911 2.3739 5.5391
3648 1 35.6085 0.7913 7.1217
3649 1 37.1911 2.3739 8.7043
3650 1 35.6085 0.7913 10.2869
3651 1 37.1911 2.3739 11.8695
3652 1 35.6085 0.7913 13.4521
3653 1 37.1911 2.3739 15.0347
3654 1 35.6085 0.7913 16.6173
3655 1 37.1911 2.3739 18.1999
3656 1 35.6085 0.7913 19.7825
3657 1 37.1911 2.3739 21.3651
3658 1 35.6085 0.7913 22.9477
3659 1 37.1911 2.3739 24.5303
3660 1 35.6085 0.7913 26.1129
3661 1 37.1911 2.3739 27.6955
3662 1 35.6085 0.7913 29.2781
3663 1 37.1911 2.3739 30.8607
3664 1 35.6085 0.7913 32.4433
3665 1 37.1911 2.3739 34.0259
3666 1 35.6085 0.7913 35.6085
3667 1 37.1911 2.3739 37.1911
3668 1 35.6085 0.7913 38.7737
3669 1 37.1911 2.3739 40.3563
3670 1 35.6085 0.7913 41.9389
3671 1 37.1911 2.3739 43.5215
3672 1 35.6085 0.7913 45.1041
3673 1 37.1911 2.3739 46.6867
3674 1 35.6085 0.7913 48.2693
3675 1 37.1911 2.3739 49.8519
3676 1 35.6085 3.9565 0.7913
3677 1 37.1911 5.5391 2.3739
3678 1 35.6085 3.9565 3.9565
3679 1 37.1911 5.5391 5.5391
3680 1 35.6085 3.9565 7.1217
3681 1 37.1911 5.5391 8.7043
3682 1 35.6085 3.9565 10.2869
3683 1 37.1911 5.5391 11.8695
3684 1 35.6085 3.9565 13.4521
3685 1 37.1911 5.5391 15.0347
3686 1 35.6085 3.9565 16.6173
3687 1 37.1911 5.5391 18.1999
3688 1 35.6085 3.9565 19.7825
3689 1 37.1911 5.5391 21.3651
3690 1 35.6085 3.9565 22.9477
3691 1 37.1911 5.5391 24.5303
3692 1 35.6085 3.9565 26.1129
3693 1 37.1911 5.5391 27.6955
3694 1 35.6085 3.9565 29.2781
3695 1 37.1911 5.5391 30.8607
3696 1 35.6085 3.9565 32.4433
3697 1 37.1911 5.5391 34.0259
3698 1 35.6085 3.9565 35.6085
3699 1 37.1911 5.5391 37.1911
3700 1 35.6085 3.9565 38.7737
3701 1 37.1911 5.5391 40.3563
3702 1 35.6085 3.9565 41.9389
3703 1 37.1911 5.5391 43.5215
3704 1 35.6085 3.9565 45.1041
3705 1 37.1911 5.5391 46.6867
3706 1 35.6085 3.9565 48.2693
3707 1 37.1911 5.5391 49.8519
3708 1 35.6085 7.1217 0.7913
3709 1 37.1911 8.7043 2.3739
3710 1 35.6085 7.1217 3.9565
3711 1 37.1911 8.7043 5.5391
3712 1 35.6085 7.1217 7.1217
3713 1 37.1911 8.7043 8.7043
3714 1 35.6085 7.1217 10.2869
3715 1 37.1911 8.7043 11.8695
3716 1 35.6085 7.1217 13.4521
3717 1 37.1911 8.7043 15.0347
3718 1 35.6085 7.1217 16.6173
3719 1 37.1911 8.7043 18.1999
3720 1 35.6085 7.1217 19.7825
3721 1 37.1911 8.7043 21.3651
3722 1 35.6085 7.1217 22.9477
3723 1 37.1911 8.7043 24.5303
3724 1 35.6085 7.1217 26.1129
3725 1 37.1911 8.7043 27.6955
3726 1 35.6085 7.1217 29.2781
3727 1 37.1911 8.7043 30.8607
3728 1 35.6085 7.1217 32.4433
3729 1 37.1911 8.7043 34.0259
3730 1 35.6085 7.1217 35.6085
3731 1 37.1911 8.7043 37.1911
3732 1 35.6085 7.1217 38.7737
3733 1 37.1911 8.7043 40.3563
3734 1 35.6085 7.1217 41.9389
3735 1 37.1911 8.7043 43.5215
3736 1 35.6085 7.1217 45.1041
3737 1 37.1911 8.7043 46.6867
3738 1 35.6085 7.1217 48.2693
3739 1 37.1911 8.7043 49.8519
3740 1 35.6085 10.2869 0.7913
3741 1 37.1911 11.8695 2.3739
3742 1 35.6085 10.2869 3.9565
3743 1 37.1911 11.8695 5.5391
3744 1 35.6085 10.2869 7.1217
3745 1 37.1911 11.8695 8.7043
3746 1 35.6085 10.2869 10.2869
3747 1 37.1911 11.8695 11.8695
3748 1 35.6085 10.2869 13.4521
3749 1 37.1911 11.8695 15.0347
3750 1 35.6085 10.2869 16.6173
3751 1 37.1911 11.8695 18.1999
3752 1 35.6085 10.2869 19.7825
3753 1 37.1911 11.8695 21.3651
3754 1 35.6085 10.2869 22.9477
3755 1 37.1911 11.8695 24.5303
3756 1 35.6085 10.2869 26.1129
3757 1 37.1911 11.8695 27.6955
3758 1 35.6085 10.2869 29.2781
3759 1 37.1911 11.8695 30.8607
3760 1 35.6085 10.2869 32.4433
3761 1 37.1911 11.8695 34.0259
3762 1 35.6085 10.2869 35.6085
3763 1 37.1911 11.8695 37.1911
3764 1 35.6085 10.2869 38.7737
3765 1 37.1911 11.8695 40.3563
3766 1 35.6085 10.2869 41.9389
3767 1 37.1911 11.8695 43.5215
3768 1 35.6085 10.2869 45.1041
3769 1 37.1911 11.8695 46.6867
3770 1 35.6085 10.2869 48.2693
3771 1 37.1911 11.8695 49.8519
3772 1 35.6085 13.4521 0.7913
3773 1 37.1911 15.0347 2.3739
3774 1 35.6085 13.4521 3.9565
3775 1 37.1911 15.0347 5.5391
3776 1 35.6085 13.4521 7.1217
3777 1 37.1911 15.0347 8.7043
3778 1 35.6085 13.4521 10.2869
3779 1 37.1911 15.0347 11.8695
3780 1 35.6085 13.4521 13.4521
3781 1 37.1911 15.0347 15.0347
3782 1 35.6085 13.4521 16.6173
3783 1 37.1911 15.0347 18.1999
3784 1 35.6085 13.4521 19.7825
3785 1 37.1911 15.0347 21.3651
3786 1 35.6085 13.4521 22.9477
3787 1 37.1911 15.0347 24.5303
3788 1 35.6085 13.4521 26.1129
3789 1 37.1911 15.0347 27.6955
3790 1 35.6085 13.4521 29.2781
3791 1 37.1911 15.0347 30.8607
3792 1 35.6085 13.4521 32.4433
3793 1 37.1911 15.0347 34.0259
3794 1 35.6085 13.4521 35.6085
3795 1 37.1911 15.0347 37.1911
3796 1 35.6085 13.4521 38.7737
3797 1 37.1911 15.0347 40.3563
3798 1 35.6085 13.4521 41.9389
3799 1 37.1911 15.0347 43.5215
3800 1 35.6085 13.4521 45.1041
3801 1 37.1911 15.0347 46.6867
3802 1 35.6085 13.4521 48.2693
3803 1 37.1911 15.0347 49.8519
3804 1 35.6085 16.6173 0.7913
3805 1 37.1911 18.1999 2.3739
3806 1 35.6085 16.6173 3.9565
3807 1 37.1911 18.1999 5.5391
3808 1 35.6085 16.6173 7.1217
3809 1 37.1911 18.1999 8.7043
3810 1 35.6085 16.6173 10.2869
3811 1 37.1911 18.1999 11.8695
3812 1 35.6085 16.6173 13.4521
3813 1 37.1911 18.1999 15.0347
3814 1 35.6085 16.6173 16.6173
3815 1 37.1911 18.1999 18.1999
3816 1 35.6085 16.6173 19.7825
3817 1 37.1911 18.1999 21.3651
3818 1 35.6085 16.6173 22.9477
3819 1 37.1911 18.1999 24.5303
3820 1 35.6085 16.6173 26.1129
3821 1 37.1911 18.1999 27.6955
3822 1 35.6085 16.6173 29.2781
3823 1 37.1911 18.1999 30.8607
3824 1 35.6085 16.6173 32.4433
3825 1 37.1911 18.1999 34.0259
3826 1 35.6085 16.6173 35.6085
3827 1 37.1911 18.1999 37.1911
3828 1 35.6085 16.6173 38.7737
3829 1 37.1911 18.1999 40.3563
3830 1 35.6085 16.6173 41.9389
3831 1 37.1911 18.1999 43.5215
3832 1 35.6085 16.6173 45.1041
3833 1 37.1911 18.1999 46.6867
3834 1 35.6085 16.6173 48.2693
3835 1 37.1911 18.1999 49.8519
3836 1 35.6085 19.7825 0.7913
3837 1 37.1911 21.3651 2.3739
3838 1 35.6085 19.7825 3.9565
3839 1 37.1911 21.3651 5.5391
3840 1 35.6085 19.7825 7.1217
3841 1 37.1911 21.3651 8.7043
3842 1 35.6085 19.7825 10.2869
3843 1 37.1911 21.3651 11.8695
3844 1 35.6085 19.7825 13.4521
3845 1 37.1911 21.3651 15.0347
3846 1 35.6085 19.7825 16.6173
3847 1 37.1911 21.3651 18.1999
3848 1 35.6085 19.7825 19.7825
3849 1 37.1911 21.3651 21.3651
3850 1 35.6085 19.7825 22.9477
3851 1 37.1911 21.3651 24.5303
3852 1 35.6085 19.7825 26.1129
3853 1 37.1911 21.3651 27.6955
3854 1 35.6085 19.7825 29.2781
3855 1 37.1911 21.3651 30.8607
3856 1 35.6085 19.7825 32.4433
3857 1 37.1911 21.3651 34.0259
3858 1 35.6085 19.7825 35.6085
3859 1 37.1911 21.3651 37.1911
3860 1 35.6085 19.7825 38.7737
3861 1 37.1911 21.3651 40.3563
3862 1 35.6085 19.7825 41.9389
3863 1 37.1911 21.3651 43.5215
3864 1 35.6085 19.7825 45.1041
3865 1 37.1911 21.3651 46.6867
3866 1 35.6085 19.7825 48.2693
3867 1 37.1911 21.3651 49.8519
3868 1 35.6085 22.9477 0.7913
3869 1 37.1911 24.5303 2.3739
3870 1 35.6085 22.9477 3.9565
3871 1 37.1911 24.5303 5.5391
3872 1 35.6085 22.9477 7.1217
3873 1 37.1911 24.5303 8.7043
3874 1 35.6085 22.9477 10.2869
3875 1 37.1911 24.5303 11.8695
3876 1 35.6085 22.9477 13.4521
3877 1 37.1911 24.5303 15.0347
3878 1 35.6085 22.9477 16.6173
3879 1 37.1911 24.5303 18.1999
3880 1 35.6085 22.9477 19.7825
3881 1 37.1911 24.5303 21.3651
3882 1 35.6085 22.9477 22.9477
3883 1 37.1911 24.5303 24.5303
3884 1 35.6085 22.9477 26.1129
3885 1 37.1911 24.5303 27.6955
3886 1 35.6085 22.9477 29.2781
3887 1 37.1911 24.5303 30.8607
3888 1 35.6085 22.9477 32.4433
3889 1 37.1911 24.5303 34.0259
3890 1 35.6085 22.9477 35.6085
3891 1 37.1911 24.5303 37.1911
3892 1 35.6085 22.9477 38.7737
3893 1 37.1911 24.5303 40.3563
3894 1 35.6085 22.9477 41.9389
3895 1 37.1911 24.5303 43.5215
3896 1 35.6085 22.9477 45.1041
3897 1 37.1911 24.5303 46.6867
3898 1 35.6085 22.9477 48.2693
3899 1 37.1911 24.5303 49.8519
3900 1 35.6085 26.1129 0.7913
3901 1 37.1911 27.6955 2.3739
3902 1 35.6085 26.1129 3.9565
3903 1 37.1911 27.6955 5.5391
3904 1 35.6085 26.1129 7.1217
3905 1 37.1911 27.6955 8.7043
3906 1 35.6085 26.1129 10.2869
3907 1 37.1911 27.6955 11.8695
3908 1 35.6085 26.1129 13.4521
3909 1 37.1911 27.6955 15.0347
3910 1 35.6085 26.1129 16.6173
3911 1 37.1911 27.6955 18.1999
3912 1 35.6085 26.1129 19.7825
3913 1 37.1911 27.6955 21.3651
3914 1 35.6085 26.1129 22.9477
3915 1 37.1911 27.6955 24.5303
3916 1 35.6085 26.1129 26.1129
3917 1 37.1911 27.6955 27.6955
3918 1 35.6085 26.1129 29.2781
3919 1 37.1911 27.6955 30.8607
3920 1 35.6085 26.1129 32.4433
3921 1 37.1911 27.6955 34.0259
3922 1 35.6085 26.1129 35.6085
3923 1 37.1911 27.6955 37.1911
3924 1 35.6085 26.1129 38.7737
3925 1 37.1911 27.6955 40.3563
3926 1 35.6085 26.1129 41.9389
3927 1 37.1911 27.6955 43.5215
3928 1 35.6085 26.1129 45.1041
3929 1 37.1911 27.6955 46.6867
3930 1 35.6085 26.1129 48.2693
3931 1 37.1911 27.6955 49.8519
3932 1 35.6085 29.2781 0.7913
3933 1 37.1911 30.8607 2.3739
3934 1 35.6085 29.2781 3.9565
3935 1 37.1911 30.8607 5.5391
3936 1 35.6085 29.2781 7.1217
3937 1 37.1911 30.8607 8.7043
3938 1 35.6085 29.2781 10.2869
3939 1 37.1911 30.8607 11.8695
3940 1 35.6085 29.2781 13.4521
3941 1 37.1911 30.8607 15.0347
3942 1 35.6085 29.2781 16.6173
3943 1 37.1911 30.8607 18.1999
3944 1 35.6085 29.2781 19.7825
3945 1 37.1911 30.8607 21.3651
3946 1 35.6085 29.2781 22.9477
3947 1 37.1911 30.8607 24.5303
3948 1 35.6085 29.2781 26.1129
3949 1 37.1911 30.8607 27.6955
3950 1 35.6085 29.2781 29.2781
3951 1 37.1911 30.8607 30.8607
3952 1 35.6085 29.2781 32.4433
3953 1 37.1911 30.8607 34.0259
3954 1 35.6085 29.2781 35.6085
3955 1 37.1911 30.8607 37.1911
3956 1 35.6085 29.2781 38.7737
3957 1 37.1911 30.8607 40.3563
3958 1 35.6085 29.2781 41.9389
3959 1 37.1911 30.8607 43.5215
3960 1 35.6085 29.2781 45.1041
3961 1 37.1911 30.8607 46.6867
3962 1 35.6085 29.2781 48.2693
3963 1 37.1911 30.8607 49.8519
3964 1 35.6085 32.4433 0.7913
3965 1 37.1911 34.0259 2.3739
3966 1 35.6085 32.4433 3.9565
3967 1 37.1911 34.0259 5.5391
3968 1 35.6085 32.4433 7.1217
3969 1 37.1911 34.0259 8.7043
3970 1 35.6085 32.4433 10.2869
3971 1 37.1911 34.0259 11.8695
3972 1 35.6085 32.4433 13.4521
3973 1 37.1911 34.0259 15.0347
3974 1 35.6085 32.4433 16.6173
3975 1 37.1911 34.0259 18.1999
3976 1 35.6085 32.4433 19.7825
3977 1 37.1911 34.0259 21.3651
3978 1 35.6085 32.4433 22.9477
3979 1 37.1911 34.0259 24.5303
3980 1 35.6085 32.4433 26.1129
3981 1 37.1911 34.0259 27.6955
3982 1 35.6085 32.4433 29.2781
3983 1 37.1911 34.0259 30.8607
3984 1 35.6085 32.4433 32.4433
3985 1 37.1911 34.0259 34.0259
3986 1 35.6085 32.4433 35.6085
3987 1 37.1911 34.0259 37.1911
3988 1 35.6085 32.4433 38.7737
3989 1 37.1911 34.0259 40.3563
3990 1 35.6085 32.4433 41.9389
3991 1 37.1911 34.0259 43.5215
3992 1 35.6085 32.4433 45.1041
3993 1 37.1911 34.0259 46.6867
3994 1 35.6085 32.4433 48.2693
3995 1 37.1911 34.0259 49.8519
3996 1 35.6085 35.6085 0.7913
3997 1 37.1911 37.1911 2.3739
3998 1 35.6085 35.6085 3.9565
3999 1 37.1911 37.1911 5.5391
4000 1 35.6085 35.6085 7.1217
4001 1 37.1911 37.1911 8.7043
4002 1 35.6085 35.6085 10.2869
4003 1 37.1911 37.1911 11.8695
4004 1 35.6085 35.6085 13.4521
4005 1 37.1911 37.1911 15.0347
4006 1 35.6085 35.6085 16.6173
4007 1 37.1911 37.1911 18.1999
4008 1 35.6085 35.6085 19.7825
4009 1 37.1911 37.1911 21.3651
4010 1 35.6085 35.6085 22.9477
4011 1 37.1911 37.1911 24.5303
4012 1 35.6085 35.6085 26.1129
4013 1 37.1911 37.1911 27.6955
4014 1 35.6085 35.6085 29.2781
4015 1 37.1911 37.1911 30.8607
4016 1 35.6085 35.6085 32.4433
4017 1 37.1911 37.1911 34.0259
4018 1 35.6085 35.6085 35.6085
4019 1 37.1911 37.1911 37.1911
4020 1 35.6085 35.6085 38.7737
4021 1 37.1911 37.1911 40.3563
4022 1 35.6085 35.6085 41.9389
4023 1 37.1911 37.1911 43.5215
4024 1 35.6085 35.6085 45.1041
4025 1 37.1911 37.1911 46.6867
4026 1 35.6085 35.6085 48.2693
4027 1 37.1911 37.1911 49.8519
4028 1 35.6085 38.7737 0.7913
4029 1 37.1911 40.3563 2.3739
4030 1 35.6085 38.7737 3.9565
4031 1 37.1911 40.3563 5.5391
4032 1 35.6085 38.7737 7.1217
4033 1 37.1911 40.3563 8.7043
4034 1 35.6085 38.7737 10.2869
4035 1 37.1911 40.3563 11.8695
4036 1 35.6085 38.7737 13.4521
4037 1 37.1911 40.3563 15.0347
4038 1 35.6085 38.7737 16.6173
4039 1 37.1911 40.3563 18.1999
4040 1 35.6085 38.7737 19.7825
4041 1 37.1911 40.3563 21.3651
4042 1 35.6085 38.7737 22.9477
4043 1 37.1911 40.3563 24.5303
4044 1 35.6085 38.7737 26.1129
4045 1 37.1911 40.3563 27.6955
4046 1 35.6085 38.7737 29.2781
4047 1 37.1911 40.3563 30.8607
4048 1 35.6085 38.7737 32.4433
4049 1 37.1911 40.3563 34.0259
4050 1 35.6085 38.7737 35.6085
4051 1 37.1911 40.3563 37.1911
4052 1 35.6085 38.7737 38.7737
4053 1 37.1911 40.3563 40.3563
4054 1 35.6085 38.7737 41.9389
4055 1 37.1911 40.3563 43.5215
4056 1 35.6085 38.7737 45.1041
4057 1 37.1911 40.3563 46.6867
4058 1 35.6085 38.7737 48.2693
4059 1 37.1911 40.3563 49.8519
4060 1 35.6085 41.9389 0.7913
4061 1 37.1911 43.5215 2.3739
4062 1 35.6085 41.9389 3.9565
4063 1 37.1911 43.5215 5.5391
4064 1 35.6085 41.9389 7.1217
4065 1 37.1911 43.5215 8.7043
4066 1 35.6085 41.9389 10.2869
4067 1 37.1911 43.5215 11.8695
4068 1 35.6085 41.9389 13.4521
4069 1 37.1911 43.5215 15.0347
4070 1 35.6085 41.9389 16.6173
4071 1 37.1911 43.5215 18.1999
4072 1 35.6085 41.9389 19.7825
4073 1 37.1911 43.5215 21.3651
4074 1 35.6085 41.9389 22.9477
4075 1 37.1911 43.5215 24.5303
4076 1 35.6085 41.9389 26.1129
4077 1 37.1911 43.5215 27.6955
4078 1 35.6085 41.9389 29.2781
4079 1 37.1911 43.5215 30.8607
4080 1 35.6085 41.9389 32.4433
4081 1 37.1911 43.5215 34.0259
4082 1 35.6085 41.9389 35.6085
4083 1 37.1911 43.5215 37.1911
4084 1 35.6085 41.9389 38.7737
4085 1 37.1911 43.5215 40.3563
4086 1 35.6085 41.9389 41.9389
4087 1 37.1911 43.5215 43.5215
4088 1 35.6085 41.9389 45.1041
4089 1 37.1911 43.5215 46.6867
4090 1 35.6085 41.9389 48.2693
4091 1 37.1911 43.5215 49.8519
4092 1 35.6085 45.1041 0.7913
4093 1 37.1911 46.6867 2.3739
4094 1 35.6085 45.1041 3.9565
4095 1 37.1911 46.6867 5.5391
4096 1 35.6085 45.1041 7.1217
4097 1 37.1911 46.6867 8.7043
4098 1 35.6085 45.1041 10.2869
4099 1 37.1911 46.6867 11.8695
4100 1 35.6085 45.1041 13.4521
4101 1 37.1911 46.6867 15.0347
4102 1 35.6085 45.1041 16.6173
4103 1 37.1911 46.6867 18.1999
4104 1 35.6085 45.1041 19.7825
4105 1 37.1911 46.6867 21.3651
4106 1 35.6085 45.1041 22.9477
4107 1 37.1911 46.6867 24.5303
4108 1 35.6085 45.1041 26.1129
4109 1 37.1911 46.6867 27.6955
4110 1 35.6085 45.1041 29.2781
4111 1 37.1911 46.6867 30.8607
4112 1 35.6085 45.1041 32.4433
4113 1 37.1911 46.6867 34.0259
4114 1 35.6085 45.1041 35.6085
4115 1 37.1911 46.6867 37.1911
4116 1 35.6085 45.1041 38.7737
4117 1 37.1911 46.6867 40.3563
4118 1 35.6085 45.1041 41.9389
4119 1 37.1911 46.6867 43.5215
4120 1 35.6085 45.1041 45.1041
4121 1 37.1911 46.6867 46.6867
4122 1 35.6085 45.1041 48.2693
4123 1 37.1911 46.6867 49.8519
4124 1 35.6085 48.2693 0.7913
4125 1 37.1911 49.8519 2.3739
4126 1 35.6085 48.2693 3.9565
4127 1 37.1911 49.8519 5.5391
4128 1 35.6085 48.2693 7.1217
4129 1 37.1911 49.8519 8.7043
4130 1 35.6085 48.2693 10.2869
4131 1 37.1911 49.8519 11.8695
4132 1 35.6085 48.2693 13.4521
4133 1 37.1911 49.8519 15.0347
4134 1 35.6085 48.2693 16.6173
4135 1 37.1911 49.8519 18.1999
4136 1 35.6085 48.2693 19.7825
4137 1 37.1911 49.8519 21.3651
4138 1 35.6085 48.2693 22.9477
4139 1 37.1911 49.8519 24.5303
4140 1 35.6085 48.2693 26.1129
4141 1 37.1911 49.8519 27.6955
4142 1 35.6085 48.2693 29.2781
4143 1 37.1911 49.8519 30.8607
4144 1 35.6085 48.2693 32.4433
4145 1 37.1911 49.8519 34.0259
4146 1 35.6085 48.2693 35.6085
4147 1 37.1911 49.8519 37.1911
4148 1 35.6085 48.2693 38.7737
4149 1 37.1911 49.8519 40.3563
4150 1 35.6085 48.2693 41.9389
4151 1 37.1911 49.8519 43.5215
4152 1 35.6085 48.2693 45.1041
4153 1 37.1911 49.8519 46.6867
4154 1 35.6085 48.2693 48.2693
4155 1 37.1911 49.8519 49.8519
4156 1 38.7737 0.7913 0.7913
4157 1 40.3563 2.3739 2.3739
4158 1 38.7737 0.7913 3.9565
4159 1 40.3563 2.3739 5.5391
4160 1 38.7737 0.7913 7.1217
4161 1 40.3563 2.3739 8.7043
4162 1 38.7737 0.7913 10.2869
4163 1 40.3563 2.3739 11.8695
4164 1 38.7737 0.7913 13.4521
4165 1 40.3563 2.3739 15.0347
4166 1 38.7737 0.7913 16.6173
4167 1 40.3563 2.3739 18.1999
4168 1 38.7737 0.7913 19.7825
4169 1 40.3563 2.3739 21.3651
4170 1 38.7737 0.7913 22.9477
4171 1 40.3563 2.3739 24.5303
4172 1 38.7737 0.7913 26.1129
4173 1 40.3563 2.3739 27.6955
4174 1 38.7737 0.7913 29.2781
4175 1 40.3563 2.3739 30.8607
4176 1 38.7737 0.7913 32.4433
4177 1 40.3563 2.3739 34.0259
4178 1 38.7737 0.7913 35.6085
4179 1 40.3563 2.3739 37.1911
4180 1 38.7737 0.7913 38.7737
4181 1 40.3563 2.3739 40.3563
4182 1 38.7737 0.7913 41.9389
4183 1 40.3563 2.3739 43.5215
4184 1 38.7737 0.7913 45.1041
4185 1 40.3563 2.3739 46.6867
4186 1 38.7737 0.7913 48.2693
4187 1 40.3563 2.3739 49.8519
4188 1 38.7737 3.9565 0.7913
4189 1 40.3563 5.5391 2.3739
4190 1 38.7737 3.9565 3.9565
4191 1 40.3563 5.5391 5.5391
4192 1 38.7737 3.9565 7.1217
4193 1 40.3563 5.5391 8.7043
4194 1 38.7737 3.9565 10.2869
4195 1 40.3563 5.5391 11.8695
4196 1 38.7737 3.9565 13.4521
4197 1 40.3563 5.5391 15.0347
4198 1 38.7737 3.9565 16.6173
4199 1 40.3563 5.5391 18.1999
4200 1 38.7737 3.9565 19.7825
4201 1 40.3563 5.5391 21.3651
4202 1 38.7737 3.9565 22.9477
4203 1 40.3563 5.5391 24.5303
4204 1 38.7737 3.9565 26.1129
4205 1 40.3563 5.5391 27.6955
4206 1 38.7737 3.9565 29.2781
4207 1 40.3563 5.5391 30.8607
4208 1 38.7737 3.9565 32.4433
4209 1 40.3563 5.5391 34.0259
4210 1 38.7737 3.9565 35.6085
4211 1 40.3563 5.5391 37.1911
4212 1 38.7737 3.9565 38.7737
4213 1 40.3563 5.5391 40.3563
4214 1 38.7737 3.9565 41.9389
4215 1 40.3563 5.5391 43.5215
4216 1 38.7737 3.9565 45.1041
4217 1 40.3563 5.5391 46.6867
4218 1 38.7737 3.9565 48.2693
4219 1 40.3563 5.5391 49.8519
4220 1 38.7737 7.1217 0.7913
4221 1 40.3563 8.7043 2.3739
4222 1 38.7737 7.1217 3.9565
4223 1 40.3563 8.7043 5.5391
4224 1 38.7737 7.1217 7.1217
4225 1 40.3563 8.7043 8.7043
4226 1 38.7737 7.1217 10.2869
4227 1 40.3563 8.7043 11.8695
4228 1 38.7737 7.1217 13.4521
4229 1 40.3563 8.7043 15.0347
4230 1 38.7737 7.1217 16.6173
4231 1 40.3563 8.7043 18.1999
4232 1 38.7737 7.1217 19.7825
4233 1 40.3563 8.7043 21.3651
4234 1 38.7737 7.1217 22.9477
4235 1 40.3563 8.7043 24.5303
4236 1 38.7737 7.1217 26.1129
4237 1 40.3563 8.7043 27.6955
4238 1 38.7737 7.1217 29.2781
4239 1 40.3563 8.7043 30.8607
4240 1 38.7737 7.1217 32.4433
4241 1 40.3563 8.7043 34.0259
4242 1 38.7737 7.1217 35.6085
4243 1 40.3563 8.7043 37.1911
4244 1 38.7737 7.1217 38.7737
4245 1 40.3563 8.7043 40.3563
4246 1 38.7737 7.1217 41.9389
4247 1 40.3563 8.7043 43.5215
4248 1 38.7737 7.1217 45.1041
4249 1 40.3563 8.7043 46.6867
4250 1 38.7737 7.1217 48.2693
4251 1 40.3563 8.7043 49.8519
4252 1 38.7737 10.2869 0.7913
4253 1 40.3563 11.8695 2.3739
4254 1 38.7737 10.2869 3.9565
4255 1 40.3563 11.8695 5.5391
4256 1 38.7737 10.2869 7.1217
4257 1 40.3563 11.8695 8.7043
4258 1 38.7737 10.2869 10.2869
4259 1 40.3563 11.8695 11.8695
4260 1 38.7737 10.2869 13.4521
4261 1 40.3563 11.8695 15.0347
4262 1 38.7737 10.2869 16.6173
4263 1 40.3563 11.8695 18.1999
4264 1 38.7737 10.2869 19.7825
4265 1 40.3563 11.8695 21.3651
4266 1 38.7737 10.2869 22.9477
4267 1 40.3563 11.8695 24.5303
4268 1 38.7737 10.2869 26.1129
4269 1 40.3563 11.8695 27.6955
4270 1 38.7737 10.2869 29.2781
4271 1 40.3563 11.8695 30.8607
4272 1 38.7737 10.2869 32.4433
4273 1 40.3563 11.8695 34.0259
4274 1 38.7737 10.2869 35.6085
4275 1 40.3563 11.8695 37.1911
4276 1 38.7737 10.2869 38.7737
4277 1 40.3563 11.8695 40.3563
4278 1 38.7737 10.2869 41.9389
4279 1 40.3563 11.8695 43.5215
4280 1 38.7737 10.2869 45.1041
4281 1 40.3563 11.8695 46.6867
4282 1 38.7737 10.2869 48.2693
4283 1 40.3563 11.8695 49.8519
4284 1 38.7737 13.4521 0.7913
4285 1 40.3563 15.0347 2.3739
4286 1 38.7737 13.4521 3.9565
4287 1 40.3563 15.0347 5.5391
4288 1 38.7737 13.4521 7.1217
4289 1 40.3563 15.0347 8.7043
4290 1 38.7737 13.4521 10.2869
4291 1 40.3563 15.0347 11.8695
4292 1 38.7737 13.4521 13.4521
4293 1 40.3563 15.0347 15.0347
4294 1 38.7737 13.4521 16.6173
4295 1 40.3563 15.0347 18.1999
4296 1 38.7737 13.4521 19.7825
4297 1 40.3563 15.0347 21.3651
4298 1 38.7737 13.4521 22.9477
4299 1 40.3563 15.0347 24.5303
4300 1 38.7737 13.4521 26.1129
4301 1 40.3563 15.0347 27.6955
4302 1 38.7737 13.4521 29.2781
4303 1 40.3563 15.0347 30.8607
4304 1 38.7737 13.4521 32.4433
4305 1 40.3563 15.0347 34.0259
4306 1 38.7737 13.4521 35.6085
4307 1 40.3563 15.0347 37.1911
4308 1 38.7737 13.4521 38.7737
4309 1 40.3563 15.0347 40.3563
4310 1 38.7737 13.4521 41.9389
4311 1 40.3563 15.0347 43.5215
4312 1 38.7737 13.4521 45.1041
4313 1 40.3563 15.0347 46.6867
4314 1 38.7737 13.4521 48.2693
4315 1 40.3563 15.0347 49.8519
4316 1 38.7737 16.6173 0.7913
4317 1 40.3563 18.1999 2.3739
4318 1 38.7737 16.6173 3.9565
4319 1 40.3563 18.1999 5.5391
4320 1 38.7737 16.6173 7.1217
4321 1 40.3563 18.1999 8.7043
4322 1 38.7737 16.6173 10.2869
4323 1 40.3563 18.1999 11.8695
4324 1 38.7737 16.6173 13.4521
4325 1 40.3563 18.1999 15.0347
4326 1 38.7737 16.6173 16.6173
4327 1 40.3563 18.1999 18.1999
4328 1 38.7737 16.6173 19.7825
4329 1 40.3563 18.1999 21.3651
4330 1 38.7737 16.6173 22.9477
4331 1 40.3563 18.1999 24.5303
4332 1 38.7737 16.6173 26.1129
4333 1 40.3563 18.1999 27.6955
4334 1 38.7737 16.6173 29.2781
4335 1 40.3563 18.1999 30.8607
4336 1 38.7737 16.6173 32.4433
4337 1 40.3563 18.1999 34.0259
4338 1 38.7737 16.6173 35.6085
4339 1 40.3563 18.1999 37.1911
4340 1 38.7737 16.6173 38.7737
4341 1 40.3563 18.1999 40.3563
4342 1 38.7737 16.6173 41.9389
4343 1 40.3563 18.1999 43.5215
4344 1 38.7737 16.6173 45.1041
4345 1 40.3563 18.1999 46.6867
4346 1 38.7737 16.6173 48.2693
4347 1 40.3563 18.1999 49.8519
4348 1 38.7737 19.7825 0.7913
4349 1 40.3563 21.3651 2.3739
4350 1 38.7737 19.7825 3.9565
4351 1 40.3563 21.3651 5.5391
4352 1 38.7737 19.7825 7.1217
4353 1 40.3563 21.3651 8.7043
4354 1 38.7737 19.7825 10.2869
4355 1 40.3563 21.3651 11.8695
4356 1 38.7737 19.7825 13.4521
4357 1 40.3563 21.3651 15.0347
4358 1 38.7737 19.7825 16.6173
4359 1 40.3563 21.3651 18.1999
4360 1 38.7737 19.7825 19.7825
4361 1 40.3563 21.3651 21.3651
4362 1 38.7737 19.7825 22.9477
4363 1 40.3563 21.3651 24.5303
4364 1 38.7737 19.7825 26.1129
4365 1 40.3563 21.3651 27.6955
4366 1 38.7737 19.7825 29.2781
4367 1 40.3563 21.3651 30.8607
4368 1 38.7737 19.7825 32.4433
4369 1 40.3563 21.3651 34.0259
4370 1 38.7737 19.7825 35.6085
4371 1 40.3563 21.3651 37.1911
4372 1 38.7737 19.7825 38.7737
4373 1 40.3563 21.3651 40.3563
4374 1 38.7737 19.7825 41.9389
4375 1 40.3563 21.3651 43.5215
4376 1 38.7737 19.7825 45.1041
4377 1 40.3563 21.3651 46.6867
4378 1 38.7737 19.7825 48.2693
4379 1 40.3563 21.3651 49.8519
4380 1 38.7737 22.9477 0.7913
4381 1 40.3563 24.5303 2.3739
4382 1 38.7737 22.9477 3.9565
4383 1 40.3563 24.5303 5.5391
4384 1 38.7737 22.9477 7.1217
4385 1 40.3563 24.5303 8.7043
4386 1 38.7737 22.9477 10.2869
4387 1 40.3563 24.5303 11.8695
4388 1 38.7737 22.9477 13.4521
4389 1 40.3563 24.5303 15.0347
4390 1 38.7737 22.9477 16.6173
4391 1 40.3563 24.5303 18.1999
4392 1 38.7737 22.9477 19.7825
4393 1 40.3563 24.5303 21.3651
4394 1 38.7737 22.9477 22.9477
4395 1 40.3563 24.5303 24.5303
4396 1 38.7737 22.9477 26.1129
4397 1 40.3563 24.5303 27.6955
4398 1 38.7737 22.9477 29.2781
4399 1 40.3563 24.5303 30.8607
4400 1 38.7737 22.9477 32.4433
4401 1 40.3563 24.5303 34.0259
4402 1 38.7737 22.9477 35.6085
4403 1 40.3563 24.5303 37.1911
4404 1 38.7737 22.9477 38.7737
4405 1 40.3563 24.5303 40.3563
4406 1 38.7737 22.9477 41.9389
4407 1 40.3563 24.5303 43.5215
4408 1 38.7737 22.9477 45.1041
4409 1 40.3563 24.5303 46.6867
4410 1 38.7737 22.9477 48.2693
4411 1 40.3563 24.5303 49.8519
4412 1 38.7737 26.1129 0.7913
4413 1 40.3563 27.6955 2.3739
4414 1 38.7737 26.1129 3.9565
4415 1 40.3563 27.6955 5.5391
4416 1 38.7737 26.1129 7.1217
4417 1 40.3563 27.6955 8.7043
4418 1 38.7737 26.1129 10.2869
4419 1 40.3563 27.6955 11.8695
4420 1 38.7737 26.1129 13.4521
4421 1 40.3563 27.6955 15.0347
4422 1 38.7737 26.1129 16.6173
4423 1 40.3563 27.6955 18.1999
4424 1 38.7737 26.1129 19.7825
4425 1 40.3563 27.6955 21.3651
4426 1 38.7737 26.1129 22.9477
4427 1 40.3563 27.6955 24.5303
4428 1 38.7737 26.1129 26.1129
4429 1 40.3563 27.6955 27.6955
4430 1 38.7737 26.1129 29.2781
4431 1 40.3563 27.6955 30.8607
4432 1 38.7737 26.1129 32.4433
4433 1 40.3563 27.6955 34.0259
4434 1 38.7737 26.1129 35.6085
4435 1 40.3563 27.6955 37.1911
4436 1 38.7737 26.1129 38.7737
4437 1 40.3563 27.6955 40.3563
4438 1 38.7737 26.1129 41.9389
4439 1 40.3563 27.6955 43.5215
4440 1 38.7737 26.1129 45.1041
4441 1 40.3563 27.6955 46.6867
4442 1 38.7737 26.1129 48.2693
4443 1 40.3563 27.6955 49.8519
4444 1 38.7737 29.2781 0.7913
4445 1 40.3563 30.8607 2.3739
4446 1 38.7737 29.2781 3.9565
4447 1 40.3563 30.8607 5.5391
4448 1 38.7737 29.2781 7.1217
4449 1 40.3563 30.8607 8.7043
4450 1 38.7737 29.2781 10.2869
4451 1 40.3563 30.8607 11.8695
4452 1 38.7737 29.2781 13.4521
4453 1 40.3563 30.8607 15.0347
4454 1 38.7737 29.2781 16.6173
4455 1 40.3563 30.8607 18.1999
4456 1 38.7737 29.2781 19.7825
4457 1 40.3563 30.8607 21.3651
4458 1 38.7737 29.2781 22.9477
4459 1 40.3563 30.8607 24.5303
4460 1 38.7737 29.2781 26.1129
4461 1 40.3563 30.8607 27.6955
4462 1 38.7737 29.2781 29.2781
4463 1 40.3563 30.8607 30.8607
4464 1 38.7737 29.2781 32.4433
4465 1 40.3563 30.8607 34.0259
4466 1 38.7737 29.2781 35.6085
4467 1 40.3563 30.8607 37.1911
4468 1 38.7737 29.2781 38.7737
4469 1 40.3563 30.8607 40.3563
4470 1 38.7737 29.2781 41.9389
4471 1 40.3563 30.8607 43.5215
4472 1 38.7737 29.2781 45.1041
4473 1 40.3563 30.8607 46.6867
4474 1 38.7737 29.2781 48.2693
4475 1 40.3563 30.8607 49.8519
4476 1 38.7737 32.4433 0.7913
4477 1 40.3563 34.0259 2.3739
4478 1 38.7737 32.4433 3.9565
4479 1 40.3563 34.0259 5.5391
4480 1 38.7737 32.4433 7.1217
4481 1 40.3563 34.0259 8.7043
4482 1 38.7737 32.4433 10.2869
4483 1 40.3563 34.0259 11.8695
4484 1 38.7737 32.4433 13.4521
4485 1 40.3563 34.0259 15.0347
4486 1 38.7737 32.4433 16.6173
4487 1 40.3563 34.0259 18.1999
4488 1 38.7737 32.4433 19.7825
4489 1 40.3563 34.0259 21.3651
4490 1 38.7737 32.4433 22.9477
4491 1 40.3563 34.0259 24.5303
4492 1 38.7737 32.4433 26.1129
4493 1 40.3563 34.0259 27.6955
4494 1 38.7737 32.4433 29.2781
4495 1 40.3563 34.0259 30.8607
4496 1 38.7737 32.4433 32.4433
4497 1 40.3563 34.0259 34.0259
4498 1 38.7737 32.4433 35.6085
4499 1 40.3563 34.0259 37.1911
4500 1 38.7737 32.4433 38.7737
4501 1 40.3563 34.0259 40.3563
4502 1 38.7737 32.4433 41.9389
4503 1 40.3563 34.0259 43.5215
4504 1 38.7737 32.4433 45.1041
4505 1 40.3563 34.0259 46.6867
4506 1 38.7737 32.4433 48.2693
4507 1 40.3563 34.0259 49.8519
4508 1 38.7737 35.6085 0.7913
4509 1 40.3563 37.1911 2.3739
4510 1 38.7737 35.6085 3.9565
4511 1 40.3563 37.1911 5.5391
4512 1 38.7737 35.6085 7.1217
4513 1 40.3563 37.1911 8.7043
4514 1 38.7737 35.6085 10.2869
4515 1 40.3563 37.1911 11.8695
4516 1 38.7737 35.6085 13.4521
4517 1 40.3563 37.1911 15.0347
4518 1 38.7737 35.6085 16.6173
4519 1 40.3563 37.1911 18.1999
4520 1 38.7737 35.6085 19.7825
4521 1 40.3563 37.1911 21.3651
4522 1 38.7737 35.6085 22.9477
4523 1 40.3563 37.1911 24.5303
4524 1 38.7737 35.6085 26.1129
4525 1 40.3563 37.1911 27.6955
4526 1 38.7737 35.6085 29.2781
4527 1 40.3563 37.1911 30.8607
4528 1 38.7737 35.6085 32.4433
4529 1 40.3563 37.1911 34.0259
4530 1 38.7737 35.6085 35.6085
4531 1 40.3563 37.1911 37.1911
4532 1 38.7737 35.6085 38.7737
4533 1 40.3563 37.1911 40.3563
4534 1 38.7737 35.6085 41.9389
4535 1 40.3563 37.1911 43.5215
4536 1 38.7737 35.6085 45.1041
4537 1 40.3563 37.1911 46.6867
4538 1 38.7737 35.6085 48.2693
4539 1 40.3563 37.1911 49.8519
4540 1 38.7737 38.7737 0.7913
4541 1 40.3563 40.3563 2.3739
4542 1 38.7737 38.7737 3.9565
4543 1 40.3563 40.3563 5.5391
4544 1 38.7737 38.7737 7.1217
4545 1 40.3563 40.3563 8.7043
4546 1 38.7737 38.7737 10.2869
4547 1 40.3563 40.3563 11.8695
4548 1 38.7737 38.7737 13.4521
4549 1 40.3563 40.3563 15.0347
4550 1 38.7737 38.7737 16.6173
4551 1 40.3563 40.3563 18.1999
4552 1 38.7737 38.7737 19.7825
4553 1 40.3563 40.3563 21.3651
4554 1 38.7737 38.7737 22.9477
4555 1 40.3563 40.3563 24.5303
4556 1 38.7737 38.7737 26.1129
4557 1 40.3563 40.3563 27.6955
4558 1 38.7737 38.7737 29.2781
4559 1 40.3563 40.3563 30.8607
4560 1 38.7737 38.7737 32.4433
4561 1 40.3563 40.3563 34.0259
4562 1 38.7737 38.7737 35.6085
4563 1 40.3563 40.3563 37.1911
4564 1 38.7737 38.7737 38.7737
4565 1 40.3563 40.3563 40.3563
4566 1 38.7737 38.7737 41.9389
4567 1 40.3563 40.3563 43.5215
4568 1 38.7737 38.7737 45.1041
4569 1 40.3563 40.3563 46.6867
4570 1 38.7737 38.7737 48.2693
4571 1 40.3563 40.3563 49.8519
4572 1 38.7737 41.9389 0.7913
4573 1 40.3563 43.5215 2.3739
4574 1 38.7737 41.9389 3.9565
4575 1 40.3563 43.5215 5.5391
4576 1 38.7737 41.9389 7.1217
4577 1 40.3563 43.5215 8.7043
4578 1 38.7737 41.9389 10.2869
4579 1 40.3563 43.5215 11.8695
4580 1 38.7737 41.9389 13.4521
4581 1 40.3563 43.5215 15.0347
4582 1 38.7737 41.9389 16.6173
4583 1 40.3563 43.5215 18.1999
4584 1 38.7737 41.9389 19.7825
4585 1 40.3563 43.5215 21.3651
4586 1 38.7737 41.9389 22.9477
4587 1 40.3563 43.5215 24.5303
4588 1 38.7737 41.9389 26.1129
4589 1 40.3563 43.5215 27.6955
4590 1 38.7737 41.9389 29.2781
4591 1 40.3563 43.5215 30.8607
4592 1 38.7737 41.9389 32.4433
4593 1 40.3563 43.5215 34.0259
4594 1 38.7737 41.9389 35.6085
4595 1 40.3563 43.5215 37.1911
4596 1 38.7737 41.9389 38.7737
4597 1 40.3563 43.5215 40.3563
4598 1 38.7737 41.9389 41.9389
4599 1 40.3563 43.5215 43.5215
4600 1 38.7737 41.9389 45.1041
4601 1 40.3563 43.5215 46.6867
4602 1 38.7737 41.9389 48.2693
4603 1 40.3563 43.5215 49.8519
4604 1 38.7737 45.1041 0.7913
4605 1 40.3563 46.6867 2.3739
4606 1 38.7737 45.1041 3.9565
4607 1 40.3563 46.6867 5.5391
4608 1 38.7737 45.1041 7.1217
4609 1 40.3563 46.6867 8.7043
4610 1 38.7737 45.1041 10.2869
4611 1 40.3563 46.6867 11.8695
4612 1 38.7737 45.1041 13.4521
4613 1 40.3563 46.6867 15.0347
4614 1 38.7737 45.1041 16.6173
4615 1 40.3563 46.6867 18.1999
4616 1 38.7737 45.1041 19.7825
4617 1 40.3563 46.6867 21.3651
4618 1 38.7737 45.1041 22.9477
4619 1 40.3563 46.6867 24.5303
4620 1 38.7737 45.1041 26.1129
4621 1 40.3563 46.6867 27.6955
4622 1 38.7737 45.1041 29.2781
4623 1 40.3563 46.6867 30.8607
4624 1 38.7737 45.1041 32.4433
4625 1 40.3563 46.6867 34.0259
4626 1 38.7737 45.1041 35.6085
4627 1 40.3563 46.6867 37.1911
4628 1 38.7737 45.1041 38.7737
4629 1 40.3563 46.6867 40.3563
4630 1 38.7737 45.1041 41.9389
4631 1 40.3563 46.6867 43.5215
4632 1 38.7737 45.1041 45.1041
4633 1 40.3563 46.6867 46.6867
4634 1 38.7737 45.1041 48.2693
4635 1 40.3563 46.6867 49.8519
4636 1 38.7737 48.2693 0.7913
4637 1 40.3563 49.8519 2.3739
4638 1 38.7737 48.2693 3.9565
4639 1 40.3563 49.8519 5.5391
4640 1 38.7737 48.2693 7.1217
4641 1 40.3563 49.8519 8.7043
4642 1 38.7737 48.2693 10.2869
4643 1 40.3563 49.8519 11.8695
4644 1 38.7737 48.2693 13.4521
4645 1 40.3563 49.8519 15.0347
4646 1 38.7737 48.2693 16.6173
4647 1 40.3563 49.8519 18.1999
4648 1 38.7737 48.2693 19.7825
4649 1 40.3563 49.8519 21.3651
4650 1 38.7737 48.2693 22.9477
4651 1 40.3563 49.8519 24.5303
4652 1 38.7737 48.2693 26.1129
4653 1 40.3563 49.8519 27.6955
4654 1 38.7737 48.2693 29.2781
4655 1 40.3563 49.8519 30.8607
4656 1 38.7737 48.2693 32.4433
4657 1 40.3563 49.8519 34.0259
4658 1 38.7737 48.2693 35.6085
4659 1 40.3563 49.8519 37.1911
4660 1 38.7737 48.2693 38.7737
4661 1 40.3563 49.8519 40.3563
4662 1 38.7737 48.2693 41.9389
4663 1 40.3563 49.8519 43.5215
4664 1 38.7737 48.2693 45.1041
4665 1 40.3563 49.8519 46.6867
4666 1 38.7737 48.2693 48.2693
4667 1 40.3563 49.8519 49.8519
4668 1 41.9389 0.7913 0.7913
4669 1 43.5215 2.3739 2.3739
4670 1 41.9389 0.7913 3.9565
4671 1 43.5215 2.3739 5.5391
4672 1 41.9389 0.7913 7.1217
4673 1 43.5215 2.3739 8.7043
4674 1 41.9389 0.7913 10.2869
4675 1 43.5215 2.3739 11.8695
4676 1 41.9389 0.7913 13.4521
4677 1 43.5215 2.3739 15.0347
4678 1 41.9389 0.7913 16.6173
4679 1 43.5215 2.3739 18.1999
4680 1 41.9389 0.7913 19.7825
4681 1 43.5215 2.3739 21.3651
4682 1 41.9389 0.7913 22.9477
4683 1 43.5215 2.3739 24.5303
4684 1 41.9389 0.7913 26.1129
4685 1 43.5215 2.3739 27.6955
4686 1 41.9389 0.7913 29.2781
4687 1 43.5215 2.3739 30.8607
4688 1 41.9389 0.7913 32.4433
4689 1 43.5215 2.3739 34.0259
4690 1 41.9389 0.7913 35.6085
4691 1 43.5215 2.3739 37.1911
4692 1 41.9389 0.7913 38.7737
4693 1 43.5215 2.3739 40.3563
4694 1 41.9389 0.7913 41.9389
4695 1 43.5215 2.3739 43.5215
4696 1 41.9389 0.7913 45.1041
4697 1 43.5215 2.3739 46.6867
4698 1 41.9389 0.7913 48.2693
4699 1 43.5215 2.3739 49.8519
4700 1 41.9389 3.9565 0.7913
4701 1 43.5215 5.5391 2.3739
4702 1 41.9389 3.9565 3.9565
4703 1 43.5215 5.5391 5.5391
4704 1 41.9389 3.9565 7.1217
4705 1 43.5215 5.5391 8.7043
4706 1 41.9389 3.9565 10.2869
4707 1 43.5215 5.5391 11.8695
4708 1 41.9389 3.9565 13.4521
4709 1 43.5215 5.5391 15.0347
4710 1 41.9389 3.9565 16.6173
4711 1 43.5215 5.5391 18.1999
4712 1 41.9389 3.9565 19.7825
4713 1 43.5215 5.5391 21.3651
4714 1 41.9389 3.9565 22.9477
4715 1 43.5215 5.5391 24.5303
4716 1 41.9389 3.9565 26.1129
4717 1 43.5215 5.5391 27.6955
4718 1 41.9389 3.9565 29.2781
4719 1 43.5215 5.5391 30.8607
4720 1 41.9389 3.9565 32.4433
4721 1 43.5215 5.5391 34.0259
4722 1 41.9389 3.9565 35.6085
4723 1 43.5215 5.5391 37.1911
4724 1 41.9389 3.9565 38.7737
4725 1 43.5215 5.5391 40.3563
4726 1 41.9389 3.9565 41.9389
4727 1 43.5215 5.5391 43.5215
4728 1 41.9389 3.9565 45.1041
4729 1 43.5215 5.5391 46.6867
4730 1 41.9389 3.9565 48.2693
4731 1 43.5215 5.5391 49.8519
4732 1 41.9389 7.1217 0.7913
4733 1 43.5215 8.7043 2.3739
4734 1 41.9389 7.1217 3.9565
4735 1 43.5215 8.7043 5.5391
4736 1 41.9389 7.1217 7.1217
4737 1 43.5215 8.7043 8.7043
4738 1 41.9389 7.1217 10.2869
4739 1 43.5215 8.7043 11.8695
4740 1 41.9389 7.1217 13.4521
4741 1 43.5215 8.7043 15.0347
4742 1 41.9389 7.1217 16.6173
4743 1 43.5215 8.7043 18.1999
4744 1 41.9389 7.1217 19.7825
4745 1 43.5215 8.7043 21.3651
4746 1 41.9389 7.1217 22.9477
4747 1 43.5215 8.7043 24.5303
4748 1 41.9389 7.1217 26.1129
4749 1 43.5215 8.7043 27.6955
4750 1 41.9389 7.1217 29.2781
4751 1 43.5215 8.7043 30.8607
4752 1 41.9389 7.1217 32.4433
4753 1 43.5215 8.7043 34.0259
4754 1 41.9389 7.1217 35.6085
4755 1 43.5215 8.7043 37.1911
4756 1 41.9389 7.1217 38.7737
4757 1 43.5215 8.7043 40.3563
4758 1 41.9389 7.1217 41.9389
4759 1 43.5215 8.7043 43.5215
4760 1 41.9389 7.1217 45.1041
4761 1 43.5215 8.7043 46.6867
4762 1 41.9389 7.1217 48.2693
4763 1 43.5215 8.7043 49.8519
4764 1 41.9389 10.2869 0.7913
4765 1 43.5215 11.8695 2.3739
4766 1 41.9389 10.2869 3.9565
4767 1 43.5215 11.8695 5.5391
4768 1 41.9389 10.2869 7.1217
4769 1 43.5215 11.8695 8.7043
4770 1 41.9389 10.2869 10.2869
4771 1 43.5215 11.8695 11.8695
4772 1 41.9389 10.2869 13.4521
4773 1 43.5215 11.8695 15.0347
4774 1 41.9389 10.2869 16.6173
4775 1 43.5215 11.8695 18.1999
4776 1 41.9389 10.2869 19.7825
4777 1 43.5215 11.8695 21.3651
4778 1 41.9389 10.2869 22.9477
4779 1 43.5215 11.8695 24.5303
4780 1 41.9389 10.2869 26.1129
4781 1 43.5215 11.8695 27.6955
4782 1 41.9389 10.2869 29.2781
4783 1 43.5215 11.8695 30.8607
4784 1 41.9389 10.2869 32.4433
4785 1 43.5215 11.8695 34.0259
4786 1 41.9389 10.2869 35.6085
4787 1 43.5215 11.8695 37.1911
4788 1 41.9389 10.2869 38.7737
4789 1 43.5215 11.8695 40.3563
4790 1 41.9389 10.2869 41.9389
4791 1 43.5215 11.8695 43.5215
4792 1 41.9389 10.2869 45.1041
4793 1 43.5215 11.8695 46.6867
4794 1 41.9389 10.2869 48.2693
4795 1 43.5215 11.8695 49.8519
4796 1 41.9389 13.4521 0.7913
4797 1 43.5215 15.0347 2.3739
4798 1 41.9389 13.4521 3.9565
4799 1 43.5215 15.0347 5.5391
4800 1 41.9389 13.4521 7.1217
4801 1 43.5215 15.0347 8.7043
4802 1 41.9389 13.4521 10.2869
4803 1 43.5215 15.0347 11.8695
4804 1 41.9389 13.4521 13.4521
4805 1 43.5215 15.0347 15.0347
4806 1 41.9389 13.4521 16.6173
4807 1 43.5215 15.0347 18.1999
4808 1 41.9389 13.4521 19.7825
4809 1 43.5215 15.0347 21.3651
4810 1 41.9389 13.4521 22.9477
4811 1 43.5215 15.0347 24.5303
4812 1 41.9389 13.4521 26.1129
4813 1 43.5215 15.0347 27.6955
4814 1 41.9389 13.4521 29.2781
4815 1 43.5215 15.0347 30.8607
4816 1 41.9389 13.4521 32.4433
4817 1 43.5215 15.0347 34.0259
4818 1 41.9389 13.4521 35.6085
4819 1 43.5215 15.0347 37.1911
4820 1 41.9389 13.4521 38.7737
4821 1 43.5215 15.0347 40.3563
4822 1 41.9389 13.4521 41.9389
4823 1 43.5215 15.0347 43.5215
4824 1 41.9389 13.4521 45.1041
4825 1 43.5215 15.0347 46.6867
4826 1 41.9389 13.4521 48.2693
4827 1 43.5215 15.0347 49.8519
4828 1 41.9389 16.6173 0.7913
4829 1 43.5215 18.1999 2.3739
4830 1 41.9389 16.6173 3.9565
4831 1 43.5215 18.1999 5.5391
4832 1 41.9389 16.6173 7.1217
4833 1 43.5215 18.1999 8.7043
4834 1 41.9389 16.6173 10.2869
4835 1 43.5215 18.1999 11.8695
4836 1 41.9389 16.6173 13.4521
4837 1 43.5215 18.1999 15.0347
4838 1 41.9389 16.6173 16.6173
4839 1 43.5215 18.1999 18.1999
4840 1 41.9389 16.6173 19.7825
4841 1 43.5215 18.1999 21.3651
4842 1 41.9389 16.6173 22.9477
4843 1 43.5215 18.1999 24.5303
4844 1 41.9389 16.6173 26.1129
4845 1 43.5215 18.1999 27.6955
4846 1 41.9389 16.6173 29.2781
4847 1 43.5215 18.1999 30.8607
4848 1 41.9389 16.6173 32.4433
4849 1 43.5215 18.1999 34.0259
4850 1 41.9389 16.6173 35.6085
4851 1 43.5215 18.1999 37.1911
4852 1 41.9389 16.6173 38.7737
4853 1 43.5215 18.1999 40.3563
4854 1 41.9389 16.6173 41.9389
4855 1 43.5215 18.1999 43.5215
4856 1 41.9389 16.6173 45.1041
4857 1 43.5215 18.1999 46.6867
4858 1 41.9389 16.6173 48.2693
4859 1 43.5215 18.1999 49.8519
4860 1 41.9389 19.7825 0.7913
4861 1 43.5215 21.3651 2.3739
4862 1 41.9389 19.7825 3.9565
4863 1 43.5215 21.3651 5.5391
4864 1 41.9389 19.7825 7.1217
4865 1 43.5215 21.3651 8.7043
4866 1 41.9389 19.7825 10.2869
4867 1 43.5215 21.3651 11.8695
4868 1 41.9389 19.7825 13.4521
4869 1 43.5215 21.3651 15.0347
4870 1 41.9389 19.7825 16.6173
4871 1 43.5215 21.3651 18.1999
4872 1 41.9389 19.7825 19.7825
4873 1 43.5215 21.3651 21.3651
4874 1 41.9389 19.7825 22.9477
4875 1 43.5215 21.3651 24.5303
4876 1 41.9389 19.7825 26.1129
4877 1 43.5215 21.3651 27.6955
4878 1 41.9389 19.7825 29.2781
4879 1 43.5215 21.3651 30.8607
4880 1 41.9389 19.7825 32.4433
4881 1 43.5215 21.3651 34.0259
4882 1 41.9389 19.7825 35.6085
4883 1 43.5215 21.3651 37.1911
4884 1 41.9389 19.7825 38.7737
4885 1 43.5215 21.3651 40.3563
4886 1 41.9389 19.7825 41.9389
4887 1 43.5215 21.3651 43.5215
4888 1 41.9389 19.7825 45.1041
4889 1 43.5215 21.3651 46.6867
4890 1 41.9389 19.7825 48.2693
4891 1 43.5215 21.3651 49.8519
4892 1 41.9389 22.9477 0.7913
4893 1 43.5215 24.5303 2.3739
4894 1 41.9389 22.9477 3.9565
4895 1 43.5215 24.5303 5.5391
4896 1 41.9389 22.9477 7.1217
4897 1 43.5215 24.5303 8.7043
4898 1 41.9389 22.9477 10.2869
4899 1 43.5215 24.5303 11.8695
4900 1 41.9389 22.9477 13.4521
4901 1 43.5215 24.5303 15.0347
4902 1 41.9389 22.9477 16.6173
4903 1 43.5215 24.5303 18.1999
4904 1 41.9389 22.9477 19.7825
4905 1 43.5215 24.5303 21.3651
4906 1 41.9389 22.9477 22.9477
4907 1 43.5215 24.5303 24.5303
4908 1 41.9389 22.9477 26.1129
4909 1 43.5215 24.5303 27.6955
4910 1 41.9389 22.9477 29.2781
4911 1 43.5215 24.5303 30.8607
4912 1 41.9389 22.9477 32.4433
4913 1 43.5215 24.5303 34.0259
4914 1 41.9389 22.9477 35.6085
4915 1 43.5215 24.5303 37.1911
4916 1 41.9389 22.9477 38.7737
4917 1 43.5215 24.5303 40.3563
4918 1 41.9389 22.9477 41.9389
4919 1 43.5215 24.5303 43.5215
4920 1 41.9389 22.9477 45.1041
4921 1 43.5215 24.5303 46.6867
4922 1 41.9389 22.9477 48.2693
4923 1 43.5215 24.5303 49.8519
4924 1 41.9389 26.1129 0.7913
4925 1 43.5215 27.6955 2.3739
4926 1 41.9389 26.1129 3.9565
4927 1 43.5215 27.6955 5.5391
4928 1 41.9389 26.1129 7.1217
4929 1 43.5215 27.6955 8.7043
4930 1 41.9389 26.1129 10.2869
4931 1 43.5215 27.6955 11.8695
4932 1 41.9389 26.1129 13.4521
4933 1 43.5215 27.6955 15.0347
4934 1 41.9389 26.1129 16.6173
4935 1 43.5215 27.6955 18.1999
4936 1 41.9389 26.1129 19.7825
4937 1 43.5215 27.6955 21.3651
4938 1 41.9389 26.1129 22.9477
4939 1 43.5215 27.6955 24.5303
4940 1 41.9389 26.1129 26.1129
4941 1 43.5215 27.6955 27.6955
4942 1 41.9389 26.1129 29.2781
4943 1 43.5215 27.6955 30.8607
4944 1 41.9389 26.1129 32.4433
4945 1 43.5215 27.6955 34.0259
4946 1 41.9389 26.1129 35.6085
4947 1 43.5215 27.6955 37.1911
4948 1 41.9389 26.1129 38.7737
4949 1 43.5215 27.6955 40.3563
4950 1 41.9389 26.1129 41.9389
4951 1 43.5215 27.6955 43.5215
4952 1 41.9389 26.1129 45.1041
4953 1 43.5215 27.6955 46.6867
4954 1 41.9389 26.1129 48.2693
4955 1 43.5215 27.6955 49.8519
4956 1 41.9389 29.2781 0.7913
4957 1 43.5215 30.8607 2.3739
4958 1 41.9389 29.2781 3.9565
4959 1 43.5215 30.8607 5.5391
4960 1 41.9389 29.2781 7.1217
4961 1 43.5215 30.8607 8.7043
4962 1 41.9389 29.2781 10.2869
4963 1 43.5215 30.8607 11.8695
4964 1 41.9389 29.2781 13.4521
4965 1 43.5215 30.8607 15.0347
4966 1 41.9389 29.2781 16.6173
4967 1 43.5215 30.8607 18.1999
4968 1 41.9389 29.2781 19.7825
4969 1 43.5215 30.8607 21.3651
4970 1 41.9389 29.2781 22.9477
4971 1 43.5215 30.8607 24.5303
4972 1 41.9389 29.2781 26.1129
4973 1 43.5215 30.8607 27.6955
4974 1 41.9389 29.2781 29.2781
4975 1 43.5215 30.8607 30.8607
4976 1 41.9389 29.2781 32.4433
4977 1 43.5215 30.8607 34.0259
4978 1 41.9389 29.2781 35.6085
4979 1 43.5215 30.8607 37.1911
4980 1 41.9389 29.2781 38.7737
4981 1 43.5215 30.8607 40.3563
4982 1 41.9389 29.2781 41.9389
4983 1 43.5215 30.8607 43.5215
4984 1 41.9389 29.2781 45.1041
4985 1 43.5215 30.8607 46.6867
4986 1 41.9389 29.2781 48.2693
4987 1 43.5215 30.8607 49.8519
4988 1 41.9389 32.4433 0.7913
4989 1 43.5215 34.0259 2.3739
4990 1 41.9389 32.4433 3.9565
4991 1 43.5215 34.0259 5.5391
4992 1 41.9389 32.4433 7.1217
4993 1 43.5215 34.0259 8.7043
4994 1 41.9389 32.4433 10.2869
4995 1 43.5215 34.0259 11.8695
4996 1 41.9389 32.4433 13.4521
4997 1 43.5215 34.0259 15.0347
4998 1 41.9389 32.4433 16.6173
4999 1 43.5215 34.0259 18.1999
5000 1 41.9389 32.4433 19.7825
5001 1 43.5215 34.0259 21.3651
5002 1 41.9389 32.4433 22.9477
5003 1 43.5215 34.0259 24.5303
5004 1 41.9389 32.4433 26.1129
5005 1 43.5215 34.0259 27.6955
5006 1 41.9389 32.4433 29.2781
5007 1 43.5215 34.0259 30.8607
5008 1 41.9389 32.4433 32.4433
5009 1 43.5215 34.0259 34.0259
5010 1 41.9389 32.4433 35.6085
5011 1 43.5215 34.0259 37.1911
5012 1 41.9389 32.4433 38.7737
5013 1 43.5215 34.0259 40.3563
5014 1 41.9389 32.4433 41.9389
5015 1 43.5215 34.0259 43.5215
5016 1 41.9389 32.4433 45.1041
5017 1 43.5215 34.0259 46.6867
5018 1 41.9389 32.4433 48.2693
5019 1 43.5215 34.0259 49.8519
5020 1 41.9389 35.6085 0.7913
5021 1 43.5215 37.1911 2.3739
5022 1 41.9389 35.6085 3.9565
5023 1 43.5215 37.1911 5.5391
5024 1 41.9389 35.6085 7.1217
5025 1 43.5215 37.1911 8.7043
5026 1 41.9389 35.6085 10.2869
5027 1 43.5215 37.1911 11.8695
5028 1 41.9389 35.6085 13.4521
5029 1 43.5215 37.1911 15.0347
5030 1 41.9389 35.6085 16.6173
5031 1 43.5215 37.1911 18.1999
5032 1 41.9389 35.6085 19.7825
5033 1 43.5215 37.1911 21.3651
5034 1 41.9389 35.6085 22.9477
5035 1 43.5215 37.1911 24.5303
5036 1 41.9389 35.6085 26.1129
5037 1 43.5215 37.1911 27.6955
5038 1 41.9389 35.6085 29.2781
5039 1 43.5215 37.1911 30.8607
5040 1 41.9389 35.6085 32.4433
5041 1 43.5215 37.1911 34.0259
5042 1 41.9389 35.6085 35.6085
5043 1 43.5215 37.1911 37.1911
5044 1 41.9389 35.6085 38.7737
5045 1 43.5215 37.1911 40.3563
5046 1 41.9389 35.6085 41.9389
5047 1 43.5215 37.1911 43.5215
5048 1 41.9389 35.6085 45.1041
5049 1 43.5215 37.1911 46.6867
5050 1 41.9389 35.6085 48.2693
5051 1 43.5215 37.1911 49.8519
5052 1 41.9389 38.7737 0.7913
5053 1 43.5215 40.3563 2.3739
5054 1 41.9389 38.7737 3.9565
5055 1 43.5215 40.3563 5.5391
5056 1 41.9389 38.7737 7.1217
5057 1 43.5215 40.3563 8.7043
5058 1 41.9389 38.7737 10.2869
5059 1 43.5215 40.3563 11.8695
5060 1 41.9389 38.7737 13.4521
5061 1 43.5215 40.3563 15.0347
5062 1 41.9389 38.7737 16.6173
5063 1 43.5215 40.3563 18.1999
5064 1 41.9389 38.7737 19.7825
5065 1 43.5215 40.3563 21.3651
5066 1 41.9389 38.7737 22.9477
5067 1 43.5215 40.3563 24.5303
5068 1 41.9389 38.7737 26.1129
5069 1 43.5215 40.3563 27.6955
5070 1 41.9389 38.7737 29.2781
5071 1 43.5215 40.3563 30.8607
5072 1 41.9389 38.7737 32.4433
5073 1 43.5215 40.3563 34.0259
5074 1 41.9389 38.7737 35.6085
5075 1 43.5215 40.3563 37.1911
5076 1 41.9389 38.7737 38.7737
5077 1 43.5215 40.3563 40.3563
5078 1 41.9389 38.7737 41.9389
5079 1 43.5215 40.3563 43.5215
5080 1 41.9389 38.7737 45.1041
5081 1 43.5215 40.3563 46.6867
5082 1 41.9389 38.7737 48.2693
5083 1 43.5215 40.3563 49.8519
5084 1 41.9389 41.9389 0.7913
5085 1 43.5215 43.5215 2.3739
5086 1 41.9389 41.9389 3.9565
5087 1 43.5215 43.5215 5.5391
5088 1 41.9389 41.9389 7.1217
5089 1 43.5215 43.5215 8.7043
5090 1 41.9389 41.9389 10.2869
5091 1 43.5215 43.5215 11.8695
5092 1 41.9389 41.9389 13.4521
5093 1 43.5215 43.5215 15.0347
5094 1 41.9389 41.9389 16.6173
5095 1 43.5215 43.5215 18.1999
5096 1 41.9389 41.9389 19.7825
5097 1 43.5215 43.5215 21.3651
5098 1 41.9389 41.9389 22.9477
5099 1 43.5215 43.5215 24.5303
5100 1 41.9389 41.9389 26.1129
5101 1 43.5215 43.5215 27.6955
5102 1 41.9389 41.9389 29.2781
5103 1 43.5215 43.5215 30.8607
5104 1 41.9389 41.9389 32.4433
5105 1 43.5215 43.5215 34.0259
5106 1 41.9389 41.9389 35.6085
5107 1 43.5215 43.5215 37.1911
5108 1 41.9389 41.9389 38.7737
5109 1 43.5215 43.5215 40.3563
5110 1 41.9389 41.9389 41.9389
5111 1 43.5215 43.5215 43.5215
5112 1 41.9389 41.9389 45.1041
5113 1 43.5215 43.5215 46.6867
5114 1 41.9389 41.9389 48.2693
5115 1 43.5215 43.5215 49.8519
5116 1 41.9389 45.1041 0.7913
5117 1 43.5215 46.6867 2.3739
5118 1 41.9389 45.1041 3.9565
5119 1 43.5215 46.6867 5.5391
5120 1 41.9389 45.1041 7.1217
5121 1 43.5215 46.6867 8.7043
5122 1 41.9389 45.1041 10.2869
5123 1 43.5215 46.6867 11.8695
5124 1 41.9389 45.1041 13.4521
5125 1 43.5215 46.6867 15.0347
5126 1 41.9389 45.1041 16.6173
5127 1 43.5215 46.6867 18.1999
5128 1 41.9389 45.1041 19.7825
5129 1 43.5215 46.6867 21.3651
5130 1 41.9389 45.1041 22.9477
5131 1 43.5215 46.6867 24.5303
5132 1 41.9389 45.1041 26.1129
5133 1 43.5215 46.6867 27.6955
5134 1 41.9389 45.1041 29.2781
5135 1 43.5215 46.6867 30.8607
5136 1 41.9389 45.1041 32.4433
5137 1 43.5215 46.6867 34.0259
5138 1 41.9389 45.1041 35.6085
5139 1 43.5215 46.6867 37.1911
5140 1 41.9389 45.1041 38.7737
5141 1 43.5215 46.6867 40.3563
5142 1 41.9389 45.1041 41.9389
5143 1 43.5215 46.6867 43.5215
5144 1 41.9389 45.1041 45.1041
5145 1 43.5215 46.6867 46.6867
5146 1 41.9389 45.1041 48.2693
5147 1 43.5215 46.6867 49.8519
5148 1 41.9389 48.2693 0.7913
5149 1 43.5215 49.8519 2.3739
5150 1 41.9389 48.2693 3.9565
5151 1 43.5215 49.8519 5.5391
5152 1 41.9389 48.2693 7.1217
5153 1 43.5215 49.8519 8.7043
5154 1 41.9389 48.2693 10.2869
5155 1 43.5215 49.8519 11.8695
5156 1 41.9389 48.2693 13.4521
5157 1 43.5215 49.8519 15.0347
5158 1 41.9389 48.2693 16.6173
5159 1 43.5215 49.8519 18.1999
5160 1 41.9389 48.2693 19.7825
5161 1 43.5215 49.8519 21.3651
5162 1 41.9389 48.2693 22.9477
5163 1 43.5215 49.8519 24.5303
5164 1 41.9389 48.2693 26.1129
5165 1 43.5215 49.8519 27.6955
5166 1 41.9389 48.2693 29.2781
5167 1 43.5215 49.8519 30.8607
5168 1 41.9389 48.2693 32.4433
5169 1 43.5215 49.8519 34.0259
5170 1 41.9389 48.2693 35.6085
5171 1 43.5215 49.8519 37.1911
5172 1 41.9389 48.2693 38.7737
5173 1 43.5215 49.8519 40.3563
5174 1 41.9389 48.2693 41.9389
5175 1 43.5215 49.8519 43.5215
5176 1 41.9389 48.2693 45.1041
5177 1 43.5215 49.8519 46.6867
5178 1 41.9389 48.2693 48.2693
5179 1 43.5215 49.8519 49.8519
5180 1 45.1041 0.7913 0.7913
5181 1 46.6867 2.3739 2.3739
5182 1 45.1041 0.7913 3.9565
5183 1 46.6867 2.3739 5.5391
5184 1 45.1041 0.7913 7.1217
5185 1 46.6867 2.3739 8.7043
5186 1 45.1041 0.7913 10.2869
5187 1 46.6867 2.3739 11.8695
5188 1 45.1041 0.7913 13.4521
5189 1 46.6867 2.3739 15.0347
5190 1 45.1041 0.7913 16.6173
5191 1 46.6867 2.3739 18.1999
5192 1 45.1041 0.7913 19.7825
5193 1 46.6867 2.3739 21.3651
5194 1 45.1041 0.7913 22.9477
5195 1 46.6867 2.3739 24.5303
5196 1 45.1041 0.7913 26.1129
5197 1 46.6867 2.3739 27.6955
5198 1 45.1041 0.7913 29.2781
5199 1 46.6867 2.3739 30.8607
5200 1 45.1041 0.7913 32.4433
5201 1 46.6867 2.3739 34.0259
5202 1 45.1041 0.7913 35.6085
5203 1 46.6867 2.3739 37.1911
5204 1 45.1041 0.7913 38.7737
5205 1 46.6867 2.3739 40.3563
5206 1 45.1041 0.7913 41.9389
5207 1 46.6867 2.3739 43.5215
5208 1 45.1041 0.7913 45.1041
5209 1 46.6867 2.3739 46.6867
5210 1 45.1041 0.7913 48.2693
5211 1 46.6867 2.3739 49.8519
5212 1 45.1041 3.9565 0.7913
5213 1 46.6867 5.5391 2.3739
5214 1 45.1041 3.9565 3.9565
5215 1 46.6867 5.5391 5.5391
5216 1 45.1041 3.9565 7.1217
5217 1 46.6867 5.5391 8.7043
5218 1 45.1041 3.9565 10.2869
5219 1 46.6867 5.5391 11.8695
5220 1 45.1041 3.9565 13.4521
5221 1 46.6867 5.5391 15.0347
5222 1 45.1041 3.9565 16.6173
5223 1 46.6867 5.5391 18.1999
5224 1 45.1041 3.9565 19.7825
5225 1 46.6867 5.5391 21.3651
5226 1 45.1041 3.9565 22.9477
5227 1 46.6867 5.5391 24.5303
5228 1 45.1041 3.9565 26.1129
5229 1 46.6867 5.5391 27.6955
5230 1 45.1041 3.9565 29.2781
5231 1 46.6867 5.5391 30.8607
5232 1 45.1041 3.9565 32.4433
5233 1 46.6867 5.5391 34.0259
5234 1 45.1041 3.9565 35.6085
5235 1 46.6867 5.5391 37.1911
5236 1 45.1041 3.9565 38.7737
5237 1 46.6867 5.5391 40.3563
5238 1 45.1041 3.9565 41.9389
5239 1 46.6867 5.5391 43.5215
5240 1 45.1041 3.9565 45.1041
5241 1 46.6867 5.5391 46.6867
5242 1 45.1041 3.9565 48.2693
5243 1 46.6867 5.5391 49.8519
5244 1 45.1041 7.1217 0.7913
5245 1 46.6867 8.7043 2.3739
5246 1 45.1041 7.1217 3.9565
5247 1 46.6867 8.7043 5.5391
5248 1 45.1041 7.1217 7.1217
5249 1 46.6867 8.7043 8.7043
5250 1 45.1041 7.1217 10.2869
5251 1 46.6867 8.7043 11.8695
5252 1 45.1041 7.1217 13.4521
5253 1 46.6867 8.7043 15.0347
5254 1 45.1041 7.1217 16.6173
5255 1 46.6867 8.7043 18.1999
5256 1 45.1041 7.1217 19.7825
5257 1 46.6867 8.7043 21.3651
5258 1 45.1041 7.1217 22.9477
5259 1 46.6867 8.7043 24.5303
5260 1 45.1041 7.1217 26.1129
5261 1 46.6867 8.7043 27.6955
5262 1 45.1041 7.1217 29.2781
5263 1 46.6867 8.7043 30.8607
5264 1 45.1041 7.1217 32.4433
5265 1 46.6867 8.7043 34.0259
5266 1 45.1041 7.1217 35.6085
5267 1 46.6867 8.7043 37.1911
5268 1 45.1041 7.1217 38.7737
5269 1 46.6867 8.7043 40.3563
5270 1 45.1041 7.1217 41.9389
5271 1 46.6867 8.7043 43.5215
5272 1 45.1041 7.1217 45.1041
5273 1 46.6867 8.7043 46.6867
5274 1 45.1041 7.1217 48.2693
5275 1 46.6867 8.7043 49.8519
5276 1 45.1041 10.2869 0.7913
5277 1 46.6867 11.8695 2.3739
5278 1 45.1041 10.2869 3.9565
5279 1 46.6867 11.8695 5.5391
5280 1 45.1041 10.2869 7.1217
5281 1 46.6867 11.8695 8.7043
5282 1 45.1041 10.2869 10.2869
5283 1 46.6867 11.8695 11.8695
5284 1 45.1041 10.2869 13.4521
5285 1 46.6867 11.8695 15.0347
5286 1 45.1041 10.2869 16.6173
5287 1 46.6867 11.8695 18.1999
5288 1 45.1041 10.2869 19.7825
5289 1 46.6867 11.8695 21.3651
5290 1 45.1041 10.2869 22.9477
5291 1 46.6867 11.8695 24.5303
5292 1 45.1041 10.2869 26.1129
5293 1 46.6867 11.8695 27.6955
5294 1 45.1041 10.2869 29.2781
5295 1 46.6867 11.8695 30.8607
5296 1 45.1041 10.2869 32.4433
5297 1 46.6867 11.8695 34.0259
5298 1 45.1041 10.2869 35.6085
5299 1 46.6867 11.8695 37.1911
5300 1 45.1041 10.2869 38.7737
5301 1 46.6867 11.8695 40.3563
5302 1 45.1041 10.2869 41.9389
5303 1 46.6867 11.8695 43.5215
5304 1 45.1041 10.2869 45.1041
5305 1 46.6867 11.8695 46.6867
5306 1 45.1041 10.2869 48.2693
5307 1 46.6867 11.8695 49.8519
5308 1 45.1041 13.4521 0.7913
5309 1 46.6867 15.0347 2.3739
5310 1 45.1041 13.4521 3.9565
5311 1 46.6867 15.0347 5.5391
5312 1 45.1041 13.4521 7.1217
5313 1 46.6867 15.0347 8.7043
5314 1 45.1041 13.4521 10.2869
5315 1 46.6867 15.0347 11.8695
5316 1 45.1041 13.4521 13.4521
5317 1 46.6867 15.0347 15.0347
5318 1 45.1041 13.4521 16.6173
5319 1 46.6867 15.0347 18.1999
5320 1 45.1041 13.4521 19.7825
5321 1 46.6867 15.0347 21.3651
5322 1 45.1041 13.4521 22.9477
5323 1 46.6867 15.0347 24.5303
5324 1 45.1041 13.4521 26.1129
5325 1 46.6867 15.0347 27.6955
5326 1 45.1041 13.4521 29.2781
5327 1 46.6867 15.0347 30.8607
5328 1 45.1041 13.4521 32.4433
5329 1 46.6867 15.0347 34.0259
5330 1 45.1041 13.4521 35.6085
5331 1 46.6867 15.0347 37.1911
5332 1 45.1041 13.4521 38.7737
5333 1 46.6867 15.0347 40.3563
5334 1 45.1041 13.4521 41.9389
5335 1 46.6867 15.0347 43.5215
5336 1 45.1041 13.4521 45.1041
5337 1 46.6867 15.0347 46.6867
5338 1 45.1041 13.4521 48.2693
5339 1 46.6867 15.0347 49.8519
5340 1 45.1041 16.6173 0.7913
5341 1 46.6867 18.1999 2.3739
5342 1 45.1041 16.6173 3.9565
5343 1 46.6867 18.1999 5.5391
5344 1 45.1041 16.6173 7.1217
5345 1 46.6867 18.1999 8.7043
5346 1 45.1041 16.6173 10.2869
5347 1 46.6867 18.1999 11.8695
5348 1 45.1041 16.6173 13.4521
5349 1 46.6867 18.1999 15.0347
5350 1 45.1041 16.6173 16.6173
5351 1 46.6867 18.1999 18.1999
5352 1 45.1041 16.6173 19.7825
5353 1 46.6867 18.1999 21.3651
5354 1 45.1041 16.6173 22.9477
5355 1 46.6867 18.1999 24.5303
5356 1 45.1041 16.6173 26.1129
5357 1 46.6867 18.1999 27.6955
5358 1 45.1041 16.6173 29.2781
5359 1 46.6867 18.1999 30.8607
5360 1 45.1041 16.6173 32.4433
5361 1 46.6867 18.1999 34.0259
5362 1 45.1041 16.6173 35.6085
5363 1 46.6867 18.1999 37.1911
5364 1 45.1041 16.6173 38.7737
5365 1 46.6867 18.1999 40.3563
5366 1 45.1041 16.6173 41.9389
5367 1 46.6867 18.1999 43.5215
5368 1 45.1041 16.6173 45.1041
5369 1 46.6867 18.1999 46.6867
5370 1 45.1041 16.6173 48.2693
5371 1 46.6867 18.1999 49.8519
5372 1 45.1041 19.7825 0.7913
5373 1 46.6867 21.3651 2.3739
5374 1 45.1041 19.7825 3.9565
5375 1 46.6867 21.3651 5.5391
5376 1 45.1041 19.7825 7.1217
5377 1 46.6867 21.3651 8.7043
5378 1 45.1041 19.7825 10.2869
5379 1 46.6867 21.3651 11.8695
5380 1 45.1041 19.7825 13.4521
5381 1 46.6867 21.3651 15.0347
5382 1 45.1041 19.7825 16.6173
5383 1 46.6867 21.3651 18.1999
5384 1 45.1041 19.7825 19.7825
5385 1 46.6867 21.3651 21.3651
5386 1 45.1041 19.7825 22.9477
5387 1 46.6867 21.3651 24.5303
5388 1 45.1041 19.7825 26.1129
5389 1 46.6867 21.3651 27.6955
5390 1 45.1041 19.7825 29.2781
5391 1 46.6867 21.3651 30.8607
5392 1 45.1041 19.7825 32.4433
5393 1 46.6867 21.3651 34.0259
5394 1 45.1041 19.7825 35.6085
5395 1 46.6867 21.3651 37.1911
5396 1 45.1041 19.7825 38.7737
5397 1 46.6867 21.3651 40.3563
5398 1 45.1041 19.7825 41.9389
5399 1 46.6867 21.3651 43.5215
5400 1 45.1041 19.7825 45.1041
5401 1 46.6867 21.3651 46.6867
5402 1 45.1041 19.7825 48.2693
5403 1 46.6867 21.3651 49.8519
5404 1 45.1041 22.9477 0.7913
5405 1 46.6867 24.5303 2.3739
5406 1 45.1041 22.9477 3.9565
5407 1 46.6867 24.5303 5.5391
5408 1 45.1041 22.9477 7.1217
5409 1 46.6867 24.5303 8.7043
5410 1 45.1041 22.9477 10.2869
5411 1 46.6867 24.5303 11.8695
5412 1 45.1041 22.9477 13.4521
5413 1 46.6867 24.5303 15.0347
5414 1 45.1041 22.9477 16.6173
5415 1 46.6867 24.5303 18.1999
5416 1 45.1041 22.9477 19.7825
5417 1 46.6867 24.5303 21.3651
5418 1 45.1041 22.9477 22.9477
5419 1 46.6867 24.5303 24.5303
5420 1 45.1041 22.9477 26.1129
5421 1 46.6867 24.5303 27.6955
5422 1 45.1041 22.9477 29.2781
5423 1 46.6867 24.5303 30.8607
5424 1 45.1041 22.9477 32.4433
5425 1 46.6867 24.5303 34.0259
5426 1 45.1041 22.9477 35.6085
5427 1 46.6867 24.5303 37.1911
5428 1 45.1041 22.9477 38.7737
5429 1 46.6867 24.5303 40.3563
5430 1 45.1041 22.9477 41.9389
5431 1 46.6867 24.5303 43.5215
5432 1 45.1041 22.9477 45.1041
5433 1 46.6867 24.5303 46.6867
5434 1 45.1041 22.9477 48.2693
5435 1 46.6867 24.5303 49.8519
5436 1 45.1041 26.1129 0.7913
5437 1 46.6867 27.6955 2.3739
5438 1 45.1041 26.1129 3.9565
5439 1 46.6867 27.6955 5.5391
5440 1 45.1041 26.1129 7.1217
5441 1 46.6867 27.6955 8.7043
5442 1 45.1041 26.1129 10.2869
5443 1 46.6867 27.6955 11.8695
5444 1 45.1041 26.1129 13.4521
5445 1 46.6867 27.6955 15.0347
5446 1 45.1041 26.1129 16.6173
5447 1 46.6867 27.6955 18.1999
5448 1 45.1041 26.1129 19.7825
5449 1 46.6867 27.6955 21.3651
5450 1 45.1041 26.1129 22.9477
5451 1 46.6867 27.6955 24.5303
5452 1 45.1041 26.1129 26.1129
5453 1 46.6867 27.6955 27.6955
5454 1 45.1041 26.1129 29.2781
5455 1 46.6867 27.6955 30.8607
5456 1 45.1041 26.1129 32.4433
5457 1 46.6867 27.6955 34.0259
5458 1 45.1041 26.1129 35.6085
5459 1 46.6867 27.6955 37.1911
5460 1 45.1041 26.1129 38.7737
5461 1 46.6867 27.6955 40.3563
5462 1 45.1041 26.1129 41.9389
5463 1 46.6867 27.6955 43.5215
5464 1 45.1041 26.1129 45.1041
5465 1 46.6867 27.6955 46.6867
5466 1 45.1041 26.1129 48.2693
5467 1 46.6867 27.6955 49.8519
5468 1 45.1041 29.2781 0.7913
5469 1 46.6867 30.8607 2.3739
5470 1 45.1041 29.2781 3.9565
5471 1 46.6867 30.8607 5.5391
5472 1 45.1041 29.2781 7.1217
5473 1 46.6867 30.8607 8.7043
5474 1 45.1041 29.2781 10.2869
5475 1 46.6867 30.8607 11.8695
5476 1 45.1041 29.2781 13.4521
5477 1 46.6867 30.8607 15.0347
5478 1 45.1041 29.2781 16.6173
5479 1 46.6867 30.8607 18.1999
5480 1 45.1041 29.2781 19.7825
5481 1 46.6867 30.8607 21.3651
5482 1 45.1041 29.2781 22.9477
5483 1 46.6867 30.8607 24.5303
5484 1 45.1041 29.2781 26.1129
5485 1 46.6867 30.8607 27.6955
5486 1 45.1041 29.2781 29.2781
5487 1 46.6867 30.8607 30.8607
5488 1 45.1041 29.2781 32.4433
5489 1 46.6867 30.8607 34.0259
5490 1 45.1041 29.2781 35.6085
5491 1 46.6867 30.8607 37.1911
5492 1 45.1041 29.2781 38.7737
5493 1 46.6867 30.8607 40.3563
5494 1 45.1041 29.2781 41.9389
5495 1 46.6867 30.8607 43.5215
5496 1 45.1041 29.2781 45.1041
5497 1 46.6867 30.8607 46.6867
5498 1 45.1041 29.2781 48.2693
5499 1 46.6867 30.8607 49.8519
5500 1 45.1041 32.4433 0.7913
5501 1 46.6867 34.0259 2.3739
5502 1 45.1041 32.4433 3.9565
5503 1 46.6867 34.0259 5.5391
5504 1 45.1041 32.4433 7.1217
5505 1 46.6867 34.0259 8.7043
5506 1 45.1041 32.4433 10.2869
5507 1 46.6867 34.0259 11.8695
5508 1 45.1041 32.4433 13.4521
5509 1 46.6867 34.0259 15.0347
5510 1 45.1041 32.4433 16.6173
5511 1 46.6867 34.0259 18.1999
5512 1 45.1041 32.4433 19.7825
5513 1 46.6867 34.0259 21.3651
5514 1 45.1041 32.4433 22.9477
5515 1 46.6867 34.0259 24.5303
5516 1 45.1041 32.4433 26.1129
5517 1 46.6867 34.0259 27.6955
5518 1 45.1041 32.4433 29.2781
5519 1 46.6867 34.0259 30.8607
5520 1 45.1041 32.4433 32.4433
5521 1 46.6867 34.0259 34.0259
5522 1 45.1041 32.4433 35.6085
5523 1 46.6867 34.0259 37.1911
5524 1 45.1041 32.4433 38.7737
5525 1 46.6867 34.0259 40.3563
5526 1 45.1041 32.4433 41.9389
5527 1 46.6867 34.0259 43.5215
5528 1 45.1041 32.4433 45.1041
5529 1 46.6867 34.0259 46.6867
5530 1 45.1041 32.4433 48.2693
5531 1 46.6867 34.0259 49.8519
5532 1 45.1041 35.6085 0.7913
5533 1 46.6867 37.1911 2.3739
5534 1 45.1041 35.6085 3.9565
5535 1 46.6867 37.1911 5.5391
5536 1 45.1041 35.6085 7.1217
5537 1 46.6867 37.1911 8.7043
5538 1 45.1041 35.6085 10.2869
5539 1 46.6867 37.1911 11.8695
5540 1 45.1041 35.6085 13.4521
5541 1 46.6867 37.1911 15.0347
5542 1 45.1041 35.6085 16.6173
5543 1 46.6867 37.1911 18.1999
5544 1 45.1041 35.6085 19.7825
5545 1 46.6867 37.1911 21.3651
5546 1 45.1041 35.6085 22.9477
5547 1 46.6867 37.1911 24.5303
5548 1 45.1041 35.6085 26.1129
5549 1 46.6867 37.1911 27.6955
5550 1 45.1041 35.6085 29.2781
5551 1 46.6867 37.1911 30.8607
5552 1 45.1041 35.6085 32.4433
5553 1 46.6867 37.1911 34.0259
5554 1 45.1041 35.6085 35.6085
5555 1 46.6867 37.1911 37.1911
5556 1 45.1041 35.6085 38.7737
5557 1 46.6867 37.1911 40.3563
5558 1 45.1041 35.6085 41.9389
5559 1 46.6867 37.1911 43.5215
5560 1 45.1041 35.6085 45.1041
5561 1 46.6867 37.1911 46.6867
5562 1 45.1041 35.6085 48.2693
5563 1 46.6867 37.1911 49.8519
5564 1 45.1041 38.7737 0.7913
5565 1 46.6867 40.3563 2.3739
5566 1 45.1041 38.7737 3.9565
5567 1 46.6867 40.3563 5.5391
5568 1 45.1041 38.7737 7.1217
5569 1 46.6867 40.3563 8.7043
5570 1 45.1041 38.7737 10.2869
5571 1 46.6867 40.3563 11.8695
5572 1 45.1041 38.7737 13.4521
5573 1 46.6867 40.3563 15.0347
5574 1 45.1041 38.7737 16.6173
5575 1 46.6867 40.3563 18.1999
5576 1 45.1041 38.7737 19.7825
5577 1 46.6867 40.3563 21.3651
5578 1 45.1041 38.7737 22.9477
5579 1 46.6867 40.3563 24.5303
5580 1 45.1041 38.7737 26.1129
5581 1 46.6867 40.3563 27.6955
5582 1 45.1041 38.7737 29.2781
5583 1 46.6867 40.3563 30.8607
5584 1 45.1041 38.7737 32.4433
5585 1 46.6867 40.3563 34.0259
5586 1 45.1041 38.7737 35.6085
5587 1 46.6867 40.3563 37.1911
5588 1 45.1041 38.7737 38.7737
5589 1 46.6867 40.3563 40.3563
5590 1 45.1041 38.7737 41.9389
5591 1 46.6867 40.3563 43.5215
5592 1 45.1041 38.7737 45.1041
5593 1 46.6867 40.3563 46.6867
5594 1 45.1041 38.7737 48.2693
5595 1 46.6867 40.3563 49.8519
5596 1 45.1041 41.9389 0.7913
5597 1 46.6867 43.5215 2.3739
5598 1 45.1041 41.9389 3.9565
5599 1 46.6867 43.5215 5.5391
5600 1 45.1041 41.9389 7.1217
5601 1 46.6867 43.5215 8.7043
5602 1 45.1041 41.9389 10.2869
5603 1 46.6867 43.5215 11.8695
5604 1 45.1041 41.9389 13.4521
5605 1 46.6867 43.5215 15.0347
5606 1 45.1041 41.9389 16.6173
5607 1 46.6867 43.5215 18.1999
5608 1 45.1041 41.9389 19.7825
5609 1 46.6867 43.5215 21.3651
5610 1 45.1041 41.9389 22.9477
5611 1 46.6867 43.5215 24.5303
5612 1 45.1041 41.9389 26.1129
5613 1 46.6867 43.5215 27.6955
5614 1 45.1041 41.9389 29.2781
5615 1 46.6867 43.5215 30.8607
5616 1 45.1041 41.9389 32.4433
5617 1 46.6867 43.5215 34.0259
5618 1 45.1041 41.9389 35.6085
5619 1 46.6867 43.5215 37.1911
5620 1 45.1041 41.9389 38.7737
5621 1 46.6867 43.5215 40.3563
5622 1 45.1041 41.9389 41.9389
5623 1 46.6867 43.5215 43.5215
5624 1 45.1041 41.9389 45.1041
5625 1 46.6867 43.5215 46.6867
5626 1 45.1041 41.9389 48.2693
5627 1 46.6867 43.5215 49.8519
5628 1 45.1041 45.1041 0.7913
5629 1 46.6867 46.6867 2.3739
5630 1 45.1041 45.1041 3.9565
5631 1 46.6867 46.6867 5.5391
5632 1 45.1041 45.1041 7.1217
5633 1 46.6867 46.6867 8.7043
5634 1 45.1041 45.1041 10.2869
5635 1 46.6867 46.6867 11.8695
5636 1 45.1041 45.1041 13.4521
5637 1 46.6867 46.6867 15.0347
5638 1 45.1041 45.1041 16.6173
5639 1 46.6867 46.6867 18.1999
5640 1 45.1041 45.1041 19.7825
5641 1 46.6867 46.6867 21.3651
5642 1 45.1041 45.1041 22.9477
5643 1 46.6867 46.6867 24.5303
5644 1 45.1041 45.1041 26.1129
5645 1 46.6867 46.6867 27.6955
5646 1 45.1041 45.1041 29.2781
5647 1 46.6867 46.6867 30.8607
5648 1 45.1041 45.1041 32.4433
5649 1 46.6867 46.6867 34.0259
5650 1 45.1041 45.1041 35.6085
5651 1 46.6867 46.6867 37.1911
5652 1 45.1041 45.1041 38.7737
5653 1 46.6867 46.6867 40.3563
5654 1 45.1041 45.1041 41.9389
5655 1 46.6867 46.6867 43.5215
5656 1 45.1041 45.1041 45.1041
5657 1 46.6867 46.6867 46.6867
5658 1 45.1041 45.1041 48.2693
5659 1 46.6867 46.6867 49.8519
5660 1 45.1041 48.2693 0.7913
5661 1 46.6867 49.8519 2.3739
5662 1 45.1041 48.2693 3.9565
5663 1 46.6867 49.8519 5.5391
5664 1 45.1041 48.2693 7.1217
5665 1 46.6867 49.8519 8.7043
5666 1 45.1041 48.2693 10.2869
5667 1 46.6867 49.8519 11.8695
5668 1 45.1041 48.2693 13.4521
5669 1 46.6867 49.8519 15.0347
5670 1 45.1041 48.2693 16.6173
5671 1 46.6867 49.8519 18.1999
5672 1 45.1041 48.2693 19.7825
5673 1 46.6867 49.8519 21.3651
5674 1 45.1041 48.2693 22.9477
5675 1 46.6867 49.8519 24.5303
5676 1 45.1041 48.2693 26.1129
5677 1 46.6867 49.8519 27.6955
5678 1 45.1041 48.2693 29.2781
5679 1 46.6867 49.8519 30.8607
5680 1 45.1041 48.2693 32.4433
5681 1 46.6867 49.8519 34.0259
5682 1 45.1041 48.2693 35.6085
5683 1 46.6867 49.8519 37.1911
5684 1 45.1041 48.2693 38.7737
5685 1 46.6867 49.8519 40.3563
5686 1 45.1041 48.2693 41.9389
5687 1 46.6867 49.8519 43.5215
5688 1 45.1041 48.2693 45.1041
5689 1 46.6867 49.8519 46.6867
5690 1 45.1041 48.2693 48.2693
5691 1 46.6867 49.8519 49.8519
5692 1 48.2693 0.7913 0.7913
5693 1 49.8519 2.3739 2.3739
5694 1 48.2693 0.7913 3.9565
5695 1 49.8519 2.3739 5.5391
5696 1 48.2693 0.7913 7.1217
5697 1 49.8519 2.3739 8.7043
5698 1 48.2693 0.7913 10.2869
5699 1 49.8519 2.3739 11.8695
5700 1 48.2693 0.7913 13.4521
5701 1 49.8519 2.3739 15.0347
5702 1 48.2693 0.7913 16.6173
5703 1 49.8519 2.3739 18.1999
5704 1 48.2693 0.7913 19.7825
5705 1 49.8519 2.3739 21.3651
5706 1 48.2693 0.7913 22.9477
5707 1 49.8519 2.3739 24.5303
5708 1 48.2693 0.7913 26.1129
5709 1 49.8519 2.3739 27.6955
5710 1 48.2693 0.7913 29.2781
5711 1 49.8519 2.3739 30.8607
5712 1 48.2693 0.7913 32.4433
5713 1 49.8519 2.3739 34.0259
5714 1 48.2693 0.7913 35.6085
5715 1 49.8519 2.3739 37.1911
5716 1 48.2693 0.7913 38.7737
5717 1 49.8519 2.3739 40.3563
5718 1 48.2693 0.7913 41.9389
5719 1 49.8519 2.3739 43.5215
5720 1 48.2693 0.7913 45.1041
5721 1 49.8519 2.3739 46.6867
5722 1 48.2693 0.7913 48.2693
5723 1 49.8519 2.3739 49.8519
5724 1 48.2693 3.9565 0.7913
5725 1 49.8519 5.5391 2.3739
5726 1 48.2693 3.9565 3.9565
5727 1 49.8519 5.5391 5.5391
5728 1 48.2693 3.9565 7.1217
5729 1 49.8519 5.5391 8.7043
5730 1 48.2693 3.9565 10.2869
5731 1 49.8519 5.5391 11.8695
5732 1 48.2693 3.9565 13.4521
5733 1 49.8519 5.5391 15.0347
5734 1 48.2693 3.9565 16.6173
5735 1 49.8519 5.5391 18.1999
5736 1 48.2693 3.9565 19.7825
5737 1 49.8519 5.5391 21.3651
5738 1 48.2693 3.9565 22.9477
5739 1 49.8519 5.5391 24.5303
5740 1 48.2693 3.9565 26.1129
5741 1 49.8519 5.5391 27.6955
5742 1 48.2693 3.9565 29.2781
5743 1 49.8519 5.5391 30.8607
5744 1 48.2693 3.9565 32.4433
5745 1 49.8519 5.5391 34.0259
5746 1 48.2693 3.9565 35.6085
5747 1 49.8519 5.5391 37.1911
5748 1 48.2693 3.9565 38.7737
5749 1 49.8519 5.5391 40.3563
5750 1 48.2693 3.9565 41.9389
5751 1 49.8519 5.5391 43.5215
5752 1 48.2693 3.9565 45.1041
5753 1 49.8519 5.5391 46.6867
5754 1 48.2693 3.9565 48.2693
5755 1 49.8519 5.5391 49.8519
5756 1 48.2693 7.1217 0.7913
5757 1 49.8519 8.7043 2.3739
5758 1 48.2693 7.1217 3.9565
5759 1 49.8519 8.7043 5.5391
5760 1 48.2693 7.1217 7.1217
5761 1 49.8519 8.7043 8.7043
5762 1 48.2693 7.1217 10.2869
5763 1 49.8519 8.7043 11.8695
5764 1 48.2693 7.1217 13.4521
5765 1 49.8519 8.7043 15.0347
5766 1 48.2693 7.1217 16.6173
5767 1 49.8519 8.7043 18.1999
5768 1 48.2693 7.1217 19.7825
5769 1 49.8519 8.7043 21.3651
5770 1 48.2693 7.1217 22.9477
5771 1 49.8519 8.7043 24.5303
5772 1 48.2693 7.1217 26.1129
5773 1 49.8519 8.7043 27.6955
5774 1 48.2693 7.1217 29.2781
5775 1 49.8519 8.7043 30.8607
5776 1 48.2693 7.1217 32.4433
5777 1 49.8519 8.7043 34.0259
5778 1 48.2693 7.1217 35.6085
5779 1 49.8519 8.7043 37.1911
5780 1 48.2693 7.1217 38.7737
5781 1 49.8519 8.7043 40.3563
5782 1 48.2693 7.1217 41.9389
5783 1 49.8519 8.7043 43.5215
5784 1 48.2693 7.1217 45.1041
5785 1 49.8519 8.7043 46.6867
5786 1 48.2693 7.1217 48.2693
5787 1 49.8519 8.7043 49.8519
5788 1 48.2693 10.2869 0.7913
5789 1 49.8519 11.8695 2.3739
5790 1 48.2693 10.2869 3.9565
5791 1 49.8519 11.8695 5.5391
5792 1 48.2693 10.2869 7.1217
5793 1 49.8519 11.8695 8.7043
5794 1 48.2693 10.2869 10.2869
5795 1 49.8519 11.8695 11.8695
5796 1 48.2693 10.2869 13.4521
5797 1 49.8519 11.8695 15.0347
5798 1 48.2693 10.2869 16.6173
5799 1 49.8519 11.8695 18.1999
5800 1 48.2693 10.2869 19.7825
5801 1 49.8519 11.8695 21.3651
5802 1 48.2693 10.2869 22.9477
5803 1 49.8519 11.8695 24.5303
5804 1 48.2693 10.2869 26.1129
5805 1 49.8519 11.8695 27.6955
5806 1 48.2693 10.2869 29.2781
5807 1 49.8519 11.8695 30.8607
5808 1 48.2693 10.2869 32.4433
5809 1 49.8519 11.8695 34.0259
5810 1 48.2693 10.2869 35.6085
5811 1 49.8519 11.8695 37.1911
5812 1 48.2693 10.2869 38.7737
5813 1 49.8519 11.8695 40.3563
5814 1 48.2693 10.2869 41.9389
5815 1 49.8519 11.8695 43.5215
5816 1 48.2693 10.2869 45.1041
5817 1 49.8519 11.8695 46.6867
5818 1 48.2693 10.2869 48.2693
5819 1 49.8519 11.8695 49.8519
5820 1 48.2693 13.4521 0.7913
5821 1 49.8519 15.0347 2.3739
5822 1 48.2693 13.4521 3.9565
5823 1 49.8519 15.0347 5.5391
5824 1 48.2693 13.4521 7.1217
5825 1 49.8519 15.0347 8.7043
5826 1 48.2693 13.4521 10.2869
5827 1 49.8519 15.0347 11.8695
5828 1 48.2693 13.4521 13.4521
5829 1 49.8519 15.0347 15.0347
5830 1 48.2693 13.4521 16.6173
5831 1 49.8519 15.0347 18.1999
5832 1 48.2693 13.4521 19.7825
5833 1 49.8519 15.0347 21.3651
5834 1 48.2693 13.4521 22.9477
5835 1 49.8519 15.0347 24.5303
5836 1 48.2693 13.4521 26.1129
5837 1 49.8519 15.0347 27.6955
5838 1 48.2693 13.4521 29.2781
5839 1 49.8519 15.0347 30.8607
5840 1 48.2693 13.4521 32.4433
5841 1 49.8519 15.0347 34.0259
5842 1 48.2693 13.4521 35.6085
5843 1 49.8519 15.0347 37.1911
5844 1 48.2693 13.4521 38.7737
5845 1 49.8519 15.0347 40.3563
5846 1 48.2693 13.4521 41.9389
5847 1 49.8519 15.0347 43.5215
5848 1 48.2693 13.4521 45.1041
5849 1 49.8519 15.0347 46.6867
5850 1 48.2693 13.4521 48.2693
5851 1 49.8519 15.0347 49.8519
5852 1 48.2693 16.6173 0.7913
5853 1 49.8519 18.1999 2.3739
5854 1 48.2693 16.6173 3.9565
5855 1 49.8519 18.1999 5.5391
5856 1 48.2693 16.6173 7.1217
5857 1 49.8519 18.1999 8.7043
5858 1 48.2693 16.6173 10.2869
5859 1 49.8519 18.1999 11.8695
5860 1 48.2693 16.6173 13.4521
5861 1 49.8519 18.1999 15.0347
5862 1 48.2693 16.6173 16.6173
5863 1 49.8519 18.1999 18.1999
5864 1 48.2693 16.6173 19.7825
5865 1 49.8519 18.1999 21.3651
5866 1 48.2693 16.6173 22.9477
5867 1 49.8519 18.1999 24.5303
5868 1 48.2693 16.6173 26.1129
5869 1 49.8519 18.1999 27.6955
5870 1 48.2693 16.6173 29.2781
5871 1 49.8519 18.1999 30.8607
5872 1 48.2693 16.6173 32.4433
5873 1 49.8519 18.1999 34.0259
5874 1 48.2693 16.6173 35.6085
5875 1 49.8519 18.1999 37.1911
5876 1 48.2693 16.6173 38.7737
5877 1 49.8519 18.1999 40.3563
5878 1 48.2693 16.6173 41.9389
5879 1 49.8519 18.1999 43.5215
5880 1 48.2693 16.6173 45.1041
5881 1 49.8519 18.1999 46.6867
5882 1 48.2693 16.6173 48.2693
5883 1 49.8519 18.1999 49.8519
5884 1 48.2693 19.7825 0.7913
5885 1 49.8519 21.3651 2.3739
5886 1 48.2693 19.7825 3.9565
5887 1 49.8519 21.3651 5.5391
5888 1 48.2693 19.7825 7.1217
5889 1 49.8519 21.3651 8.7043
5890 1 48.2693 19.7825 10.2869
5891 1 49.8519 21.3651 11.8695
5892 1 48.2693 19.7825 13.4521
5893 1 49.8519 21.3651 15.0347
5894 1 48.2693 19.7825 16.6173
5895 1 49.8519 21.3651 18.1999
5896 1 48.2693 19.7825 19.7825
5897 1 49.8519 21.3651 21.3651
5898 1 48.2693 19.7825 22.9477
5899 1 49.8519 21.3651 24.5303
5900 1 48.2693 19.7825 26.1129
5901 1 49.8519 21.3651 27.6955
5902 1 48.2693 19.7825 29.2781
5903 1 49.8519 21.3651 30.8607
5904 1 48.2693 19.7825 32.4433
5905 1 49.8519 21.3651 34.0259
5906 1 48.2693 19.7825 35.6085
5907 1 49.8519 21.3651 37.1911
5908 1 48.2693 19.7825 38.7737
5909 1 49.8519 21.3651 40.3563
5910 1 48.2693 19.7825 41.9389
5911 1 49.8519 21.3651 43.5215
5912 1 48.2693 19.7825 45.1041
5913 1 49.8519 21.3651 46.6867
5914 1 48.2693 19.7825 48.2693
5915 1 49.8519 21.3651 49.8519
5916 1 48.2693 22.9477 0.7913
5917 1 49.8519 24.5303 2.3739
5918 1 48.2693 22.9477 3.9565
5919 1 49.8519 24.5303 5.5391
5920 1 48.2693 22.9477 7.1217
5921 1 49.8519 24.5303 8.7043
5922 1 48.2693 22.9477 10.2869
5923 1 49.8519 24.5303 11.8695
5924 1 48.2693 22.9477 13.4521
5925 1 49.8519 24.5303 15.0347
5926 1 48.2693 22.9477 16.6173
5927 1 49.8519 24.5303 18.1999
5928 1 48.2693 22.9477 19.7825
5929 1 49.8519 24.5303 21.3651
5930 1 48.2693 22.9477 22.9477
5931 1 49.8519 24.5303 24.5303
5932 1 48.2693 22.9477 26.1129
5933 1 49.8519 24.5303 27.6955
5934 1 48.2693 22.9477 29.2781
5935 1 49.8519 24.5303 30.8607
5936 1 48.2693 22.9477 32.4433
5937 1 49.8519 24.5303 34.0259
5938 1 48.2693 22.9477 35.6085
5939 1 49.8519 24.5303 37.1911
5940 1 48.2693 22.9477 38.7737
5941 1 49.8519 24.5303 40.3563
5942 1 48.2693 22.9477 41.9389
5943 1 49.8519 24.5303 43.5215
5944 1 48.2693 22.9477 45.1041
5945 1 49.8519 24.5303 46.6867
5946 1 48.2693 22.9477 48.2693
5947 1 49.8519 24.5303 49.8519
5948 1 48.2693 26.1129 0.7913
5949 1 49.8519 27.6955 2.3739
5950 1 48.2693 26.1129 3.9565
5951 1 49.8519 27.6955 5.5391
5952 1 48.2693 26.1129 7.1217
5953 1 49.8519 27.6955 8.7043
5954 1 48.2693 26.1129 10.2869
5955 1 49.8519 27.6955 11.8695
5956 1 48.2693 26.1129 13.4521
5957 1 49.8519 27.6955 15.0347
5958 1 48.2693 26.1129 16.6173
5959 1 49.8519 27.6955 18.1999
5960 1 48.2693 26.1129 19.7825
5961 1 49.8519 27.6955 21.3651
5962 1 48.2693 26.1129 22.9477
5963 1 49.8519 27.6955 24.5303
5964 1 48.2693 26.1129 26.1129
5965 1 49.8519 27.6955 27.6955
5966 1 48.2693 26.1129 29.2781
5967 1 49.8519 27.6955 30.8607
5968 1 48.2693 26.1129 32.4433
5969 1 49.8519 27.6955 34.0259
5970 1 48.2693 26.1129 35.6085
5971 1 49.8519 27.6955 37.1911
5972 1 48.2693 26.1129 38.7737
5973 1 49.8519 27.6955 40.3563
5974 1 48.2693 26.1129 41.9389
5975 1 49.8519 27.6955 43.5215
5976 1 48.2693 26.1129 45.1041
5977 1 49.8519 27.6955 46.6867
5978 1 48.2693 26.1129 48.2693
5979 1 49.8519 27.6955 49.8519
5980 1 48.2693 29.2781 0.7913
5981 1 49.8519 30.8607 2.3739
5982 1 48.2693 29.2781 3.9565
5983 1 49.8519 30.8607 5.5391
5984 1 48.2693 29.2781 7.1217
5985 1 49.8519 30.8607 8.7043
5986 1 48.2693 29.2781 10.2869
5987 1 49.8519 30.8607 11.8695
5988 1 48.2693 29.2781 13.4521
5989 1 49.8519 30.8607 15.0347
5990 1 48.2693 29.2781 16.6173
5991 1 49.8519 30.8607 18.1999
5992 1 48.2693 29.2781 19.7825
5993 1 49.8519 30.8607 21.3651
5994 1 48.2693 29.2781 22.9477
5995 1 49.8519 30.8607 24.5303
5996 1 48.2693 29.2781 26.1129
5997 1 49.8519 30.8607 27.6955
5998 1 48.2693 29.2781 29.2781
5999 1 49.8519 30.8607 30.8607
6000 1 48.2693 29.2781 32.4433
6001 1 49.8519 30.8607 34.0259
6002 1 48.2693 29.2781 35.6085
6003 1 49.8519 30.8607 37.1911
6004 1 48.2693 29.2781 38.7737
6005 1 49.8519 30.8607 40.3563
6006 1 48.2693 29.2781 41.9389
6007 1 49.8519 30.8607 43.5215
6008 1 48.2693 29.2781 45.1041
6009 1 49.8519 30.8607 46.6867
6010 1 48.2693 29.2781 48.2693
6011 1 49.8519 30.8607 49.8519
6012 1 48.2693 32.4433 0.7913
6013 1 49.8519 34.0259 2.3739
6014 1 48.2693 32.4433 3.9565
6015 1 49.8519 34.0259 5.5391
6016 1 48.2693 32.4433 7.1217
6017 1 49.8519 34.0259 8.7043
6018 1 48.2693 32.4433 10.2869
6019 1 49.8519 34.0259 11.8695
6020 1 48.2693 32.4433 13.4521
6021 1 49.8519 34.0259 15.0347
6022 1 48.2693 32.4433 16.6173
6023 1 49.8519 34.0259 18.1999
6024 1 48.2693 32.4433 19.7825
6025 1 49.8519 34.0259 21.3651
6026 1 48.2693 32.4433 22.9477
6027 1 49.8519 34.0259 24.5303
6028 1 48.2693 32.4433 26.1129
6029 1 49.8519 34.0259 27.6955
6030 1 48.2693 32.4433 29.2781
6031 1 49.8519 34.0259 30.8607
6032 1 48.2693 32.4433 32.4433
6033 1 49.8519 34.0259 34.0259
6034 1 48.2693 32.4433 35.6085
6035 1 49.8519 34.0259 37.1911
6036 1 48.2693 32.4433 38.7737
6037 1 49.8519 34.0259 40.3563
6038 1 48.2693 32.4433 41.9389
6039 1 49.8519 34.0259 43.5215
6040 1 48.2693 32.4433 45.1041
6041 1 49.8519 34.0259 46.6867
6042 1 48.2693 32.4433 48.2693
6043 1 49.8519 34.0259 49.8519
6044 1 48.2693 35.6085 0.7913
6045 1 49.8519 37.1911 2.3739
6046 1 48.2693 35.6085 3.9565
6047 1 49.8519 37.1911 5.5391
6048 1 48.2693 35.6085 7.1217
6049 1 49.8519 37.1911 8.7043
6050 1 48.2693 35.6085 10.2869
6051 1 49.8519 37.1911 11.8695
6052 1 48.2693 35.6085 13.4521
6053 1 49.8519 37.1911 15.0347
6054 1 48.2693 35.6085 16.6173
6055 1 49.8519 37.1911 18.1999
6056 1 48.2693 35.6085 19.7825
6057 1 49.8519 37.1911 21.3651
6058 1 48.2693 35.6085 22.9477
6059 1 49.8519 37.1911 24.5303
6060 1 48.2693 35.6085 26.1129
6061 1 49.8519 37.1911 27.6955
6062 1 48.2693 35.6085 29.2781
6063 1 49.8519 37.1911 30.8607
6064 1 48.2693 35.6085 32.4433
6065 1 49.8519 37.1911 34.0259
6066 1 48.2693 35.6085 35.6085
6067 1 49.8519 37.1911 37.1911
6068 1 48.2693 35.6085 38.7737
6069 1 49.8519 37.1911 40.3563
6070 1 48.2693 35.6085 41.9389
6071 1 49.8519 37.1911 43.5215
6072 1 48.2693 35.6085 45.1041
6073 1 49.8519 37.1911 46.6867
6074 1 48.2693 35.6085 48.2693
6075 1 49.8519 37.1911 49.8519
6076 1 48.2693 38.7737 0.7913
6077 1 49.8519 40.3563 2.3739
6078 1 48.2693 38.7737 3.9565
6079 1 49.8519 40.3563 5.5391
6080 1 48.2693 38.7737 7.1217
6081 1 49.8519 40.3563 8.7043
6082 1 48.2693 38.7737 10.2869
6083 1 49.8519 40.3563 11.8695
6084 1 48.2693 38.7737 13.4521
6085 1 49.8519 40.3563 15.0347
6086 1 48.2693 38.7737 16.6173
6087 1 49.8519 40.3563 18.1999
6088 1 48.2693 38.7737 19.7825
6089 1 49.8519 40.3563 21.3651
6090 1 48.2693 38.7737 22.9477
6091 1 49.8519 40.3563 24.5303
6092 1 48.2693 38.7737 26.1129
6093 1 49.8519 40.3563 27.6955
6094 1 48.2693 38.7737 29.2781
6095 1 49.8519 40.3563 30.8607
6096 1 48.2693 38.7737 32.4433
6097 1 49.8519 40.3563 34.0259
6098 1 48.2693 38.7737 35.6085
6099 1 49.8519 40.3563 37.1911
6100 1 48.2693 38.7737 38.7737
6101 1 49.8519 40.3563 40.3563
6102 1 48.2693 38.7737 41.9389
6103 1 49.8519 40.3563 43.5215
6104 1 48.2693 38.7737 45.1041
6105 1 49.8519 40.3563 46.6867
6106 1 48.2693 38.7737 48.2693
6107 1 49.8519 40.3563 49.8519
6108 1 48.2693 41.9389 0.7913
6109 1 49.8519 43.5215 2.3739
6110 1 48.2693 41.9389 3.9565
6111 1 49.8519 43.5215 5.5391
6112 1 48.2693 41.9389 7.1217
6113 1 49.8519 43.5215 8.7043
6114 1 48.2693 41.9389 10.2869
6115 1 49.8519 43.5215 11.8695
6116 1 48.2693 41.9389 13.4521
6117 1 49.8519 43.5215 15.0347
6118 1 48.2693 41.9389 16.6173
6119 1 49.8519 43.5215 18.1999
6120 1 48.2693 41.9389 19.7825
6121 1 49.8519 43.5215 21.3651
6122 1 48.2693 41.9389 22.9477
6123 1 49.8519 43.5215 24.5303
6124 1 48.2693 41.9389 26.1129
6125 1 49.8519 43.5215 27.6955
6126 1 48.2693 41.9389 29.2781
6127 1 49.8519 43.5215 30.8607
6128 1 48.2693 41.9389 32.4433
6129 1 49.8519 43.5215 34.0259
6130 1 48.2693 41.9389 35.6085
6131 1 49.8519 43.5215 37.1911
6132 1 48.2693 41.9389 38.7737
6133 1 49.8519 43.5215 40.3563
6134 1 48.2693 41.9389 41.9389
6135 1 49.8519 43.5215 43.5215
6136 1 48.2693 41.9389 45.1041
6137 1 49.8519 43.5215 46.6867
6138 1 48.2693 41.9389 48.2693
6139 1 49.8519 43.5215 49.8519
6140 1 48.2693 45.1041 0.7913
6141 1 49.8519 46.6867 2.3739
6142 1 48.2693 45.1041 3.9565
6143 1 49.8519 46.6867 5.5391
6144 1 48.2693 45.1041 7.1217
6145 1 49.8519 46.6867 8.7043
6146 1 48.2693 45.1041 10.2869
6147 1 49.8519 46.6867 11.8695
6148 1 48.2693 45.1041 13.4521
6149 1 49.8519 46.6867 15.0347
6150 1 48.2693 45.1041 16.6173
6151 1 49.8519 46.6867 18.1999
6152 1 48.2693 45.1041 19.7825
6153 1 49.8519 46.6867 21.3651
6154 1 48.2693 45.1041 22.9477
6155 1 49.8519 46.6867 24.5303
6156 1 48.2693 45.1041 26.1129
6157 1 49.8519 46.6867 27.6955
6158 1 48.2693 45.1041 29.2781
6159 1 49.8519 46.6867 30.8607
6160 1 48.2693 45.1041 32.4433
6161 1 49.8519 46.6867 34.0259
6162 1 48.2693 45.1041 35.6085
6163 1 49.8519 46.6867 37.1911
6164 1 48.2693 45.1041 38.7737
6165 1 49.8519 46.6867 40.3563
6166 1 48.2693 45.1041 41.9389
6167 1 49.8519 46.6867 43.5215
6168 1 48.2693 45.1041 45.1041
6169 1 49.8519 46.6867 46.6867
6170 1 48.2693 45.1041 48.2693
6171 1 49.8519 46.6867 49.8519
6172 1 48.2693 48.2693 0.7913
6173 1 49.8519 49.8519 2.3739
6174 1 48.2693 48.2693 3.9565
6175 1 49.8519 49.8519 5.5391
6176 1 48.2693 48.2693 7.1217
6177 1 49.8519 49.8519 8.7043
6178 1 48.2693 48.2693 10.2869
6179 1 49.8519 49.8519 11.8695
6180 1 48.2693 48.2693 13.4521
6181 1 49.8519 49.8519 15.0347
6182 1 48.2693 48.2693 16.6173
6183 1 49.8519 49.8519 18.1999
6184 1 48.2693 48.2693 19.7825
6185 1 49.8519 49.8519 21.3651
6186 1 48.2693 48.2693 22.9477
6187 1 49.8519 49.8519 24.5303
6188 1 48.2693 48.2693 26.1129
6189 1 49.8519 49.8519 27.6955
6190 1 48.2693 48.2693 29.2781
6191 1 49.8519 49.8519 30.8607
6192 1 48.2693 48.2693 32.4433
6193 1 49.8519 49.8519 34.0259
6194 1 48.2693 48.2693 35.6085
6195 1 49.8519 49.8519 37.1911
6196 1 48.2693 48.2693 38.7737
6197 1 49.8519 49.8519 40.3563
6198 1 48.2693 48.2693 41.9389
6199 1 49.8519 49.8519 43.5215
6200 1 48.2693 48.2693 45.1041
6201 1 49.8519 49.8519 46.6867
6202 1 48.2693 48.2693 48.2693
6203 1 49.8519 49.8519 49.8519
6204 1 16.6173 0.7913 0.7913
6205 1 18.1999 2.3739 2.3739
6206 1 16.6173 0.7913 3.9565
6207 1 18.1999 2.3739 5.5391
6208 1 16.6173 0.7913 7.1217
6209 1 18.1999 2.3739 8.7043
6210 1 16.6173 0.7913 10.2869
6211 1 18.1999 2.3739 11.8695
6212 1 16.6173 3.9565 0.7913
6213 1 18.1999 5.5391 2.3739
6214 1 16.6173 3.9565 3.9565
6215 1 18.1999 5.5391 5.5391
6216 1 16.6173 3.9565 7.1217
6217 1 18.1999 5.5391 8.7043
6218 1 16.6173 3.9565 10.2869
6219 1 18.1999 5.5391 11.8695
6220 1 16.6173 7.1217 0.7913
6221 1 18.1999 8.7043 2.3739
6222 1 16.6173 7.1217 3.9565
6223 1 18.1999 8.7043 5.5391
6224 1 16.6173 7.1217 7.1217
6225 1 18.1999 8.7043 8.7043
6226 1 16.6173 7.1217 10.2869
6227 1 18.1999 8.7043 11.8695
6228 1 16.6173 10.2869 0.7913
6229 1 18.1999 11.8695 2.3739
6230 1 16.6173 10.2869 3.9565
6231 1 18.1999 11.8695 5.5391
6232 1 16.6173 10.2869 7.1217
6233 1 18.1999 11.8695 8.7043
6234 1 16.6173 10.2869 10.2869
6235 1 18.1999 11.8695 11.8695
6236 1 16.6173 13.4521 0.7913
6237 1 18.1999 15.0347 2.3739
6238 1 16.6173 13.4521 3.9565
6239 1 18.1999 15.0347 5.5391
6240 1 16.6173 13.4521 7.1217
6241 1 18.1999 15.0347 8.7043
6242 1 16.6173 13.4521 10.2869
6243 1 18.1999 15.0347 11.8695
6244 1 16.6173 16.6173 0.7913
6245 1 18.1999 18.1999 2.3739
6246 1 16.6173 16.6173 3.9565
6247 1 18.1999 18.1999 5.5391
6248 1 16.6173 16.6173 7.1217
6249 1 18.1999 18.1999 8.7043
6250 1 16.6173 16.6173 10.2869
6251 1 18.1999 18.1999 11.8695
6252 1 16.6173 19.7825 0.7913
6253 1 18.1999 21.3651 2.3739
6254 1 16.6173 19.7825 3.9565
6255 1 18.1999 21.3651 5.5391
6256 1 16.6173 19.7825 7.1217
6257 1 18.1999 21.3651 8.7043
6258 1 16.6173 19.7825 10.2869
6259 1 18.1999 21.3651 11.8695
6260 1 16.6173 22.9477 0.7913
6261 1 18.1999 24.5303 2.3739
6262 1 16.6173 22.9477 3.9565
6263 1 18.1999 24.5303 5.5391
6264 1 16.6173 22.9477 7.1217
6265 1 18.1999 24.5303 8.7043
6266 1 16.6173 22.9477 10.2869
6267 1 18.1999 24.5303 11.8695
6268 1 16.6173 26.1129 0.7913
6269 1 18.1999 27.6955 2.3739
6270 1 16.6173 26.1129 3.9565
6271 1 18.1999 27.6955 5.5391
6272 1 16.6173 26.1129 7.1217
6273 1 18.1999 27.6955 8.7043
6274 1 16.6173 26.1129 10.2869
6275 1 18.1999 27.6955 11.8695
6276 1 16.6173 29.2781 0.7913
6277 1 18.1999 30.8607 2.3739
6278 1 16.6173 29.2781 3.9565
6279 1 18.1999 30.8607 5.5391
6280 1 16.6173 29.2781 7.1217
6281 1 18.1999 30.8607 8.7043
6282 1 16.6173 29.2781 10.2869
6283 1 18.1999 30.8607 11.8695
6284 1 16.6173 32.4433 0.7913
6285 1 18.1999 34.0259 2.3739
6286 1 16.6173 32.4433 3.9565
6287 1 18.1999 34.0259 5.5391
6288 1 16.6173 32.4433 7.1217
6289 1 18.1999 34.0259 8.7043
6290 1 16.6173 32.4433 10.2869
6291 1 18.1999 34.0259 11.8695
6292 1 16.6173 35.6085 0.7913
6293 1 18.1999 37.1911 2.3739
6294 1 16.6173 35.6085 3.9565
6295 1 18.1999 37.1911 5.5391
6296 1 16.6173 35.6085 7.1217
6297 1 18.1999 37.1911 8.7043
6298 1 16.6173 35.6085 10.2869
6299 1 18.1999 37.1911 11.8695
6300 1 16.6173 38.7737 0.7913
6301 1 18.1999 40.3563 2.3739
6302 1 16.6173 38.7737 3.9565
6303 1 18.1999 40.3563 5.5391
6304 1 16.6173 38.7737 7.1217
6305 1 18.1999 40.3563 8.7043
6306 1 16.6173 38.7737 10.2869
6307 1 18.1999 40.3563 11.8695
6308 1 16.6173 41.9389 0.7913
6309 1 18.1999 43.5215 2.3739
6310 1 16.6173 41.9389 3.9565
6311 1 18.1999 43.5215 5.5391
6312 1 16.6173 41.9389 7.1217
6313 1 18.1999 43.5215 8.7043
6314 1 16.6173 41.9389 10.2869
6315 1 18.1999 43.5215 11.8695
6316 1 16.6173 45.1041 0.7913
6317 1 18.1999 46.6867 2.3739
6318 1 16.6173 45.1041 3.9565
6319 1 18.1999 46.6867 5.5391
6320 1 16.6173 45.1041 7.1217
6321 1 18.1999 46.6867 8.7043
6322 1 16.6173 45.1041 10.2869
6323 1 18.1999 46.6867 11.8695
6324 1 16.6173 48.2693 0.7913
6325 1 18.1999 49.8519 2.3739
6326 1 16.6173 48.2693 3.9565
6327 1 18.1999 49.8519 5.5391
6328 1 16.6173 48.2693 7.1217
6329 1 18.1999 49.8519 8.7043
6330 1 16.6173 48.2693 10.2869
6331 1 18.1999 49.8519 11.8695
6332 1 19.7825 0.7913 0.7913
6333 1 21.3651 2.3739 2.3739
6334 1 19.7825 0.7913 3.9565
6335 1 21.3651 2.3739 5.5391
6336 1 19.7825 0.7913 7.1217
6337 1 21.3651 2.3739 8.7043
6338 1 19.7825 0.7913 10.2869
6339 1 21.3651 2.3739 11.8695
6340 1 19.7825 3.9565 0.7913
6341 1 21.3651 5.5391 2.3739
6342 1 19.7825 3.9565 3.9565
6343 1 21.3651 5.5391 5.5391
6344 1 19.7825 3.9565 7.1217
6345 1 21.3651 5.5391 8.7043
6346 1 19.7825 3.9565 10.2869
6347 1 21.3651 5.5391 11.8695
6348 1 19.7825 7.1217 0.7913
6349 1 21.3651 8.7043 2.3739
6350 1 19.7825 7.1217 3.9565
6351 1 21.3651 8.7043 5.5391
6352 1 19.7825 7.1217 7.1217
6353 1 21.3651 8.7043 8.7043
6354 1 19.7825 7.1217 10.2869
6355 1 21.3651 8.7043 11.8695
6356 1 19.7825 10.2869 0.7913
6357 1 21.3651 11.8695 2.3739
6358 1 19.7825 10.2869 3.9565
6359 1 21.3651 11.8695 5.5391
6360 1 19.7825 10.2869 7.1217
6361 1 21.3651 11.8695 8.7043
6362 1 19.7825 10.2869 10.2869
6363 1 21.3651 11.8695 11.8695
6364 1 19.7825 13.4521 0.7913
6365 1 21.3651 15.0347 2.3739
6366 1 19.7825 13.4521 3.9565
6367 1 21.3651 15.0347 5.5391
6368 1 19.7825 13.4521 7.1217
6369 1 21.3651 15.0347 8.7043
6370 1 19.7825 13.4521 10.2869
6371 1 21.3651 15.0347 11.8695
6372 1 19.7825 16.6173 0.7913
6373 1 21.3651 18.1999 2.3739
6374 1 19.7825 16.6173 3.9565
6375 1 21.3651 18.1999 5.5391
6376 1 19.7825 16.6173 7.1217
6377 1 21.3651 18.1999 8.7043
6378 1 19.7825 16.6173 10.2869
6379 1 21.3651 18.1999 11.8695
6380 1 19.7825 19.7825 0.7913
6381 1 21.3651 21.3651 2.3739
6382 1 19.7825 19.7825 3.9565
6383 1 21.3651 21.3651 5.5391
6384 1 19.7825 19.7825 7.1217
6385 1 21.3651 21.3651 8.7043
6386 1 19.7825 19.7825 10.2869
6387 1 21.3651 21.3651 11.8695
6388 1 19.7825 22.9477 0.7913
6389 1 21.3651 24.5303 2.3739
6390 1 19.7825 22.9477 3.9565
6391 1 21.3651 24.5303 5.5391
6392 1 19.7825 22.9477 7.1217
6393 1 21.3651 24.5303 8.7043
6394 1 19.7825 22.9477 10.2869
6395 1 21.3651 24.5303 11.8695
6396 1 19.7825 26.1129 0.7913
6397 1 21.3651 27.6955 2.3739
6398 1 19.7825 26.1129 3.9565
6399 1 21.3651 27.6955 5.5391
6400 1 19.7825 26.1129 7.1217
6401 1 21.3651 27.6955 8.7043
6402 1 19.7825 26.1129 10.2869
6403 1 21.3651 27.6955 11.8695
6404 1 19.7825 29.2781 0.7913
6405 1 21.3651 30.8607 2.3739
6406 1 19.7825 29.2781 3.9565
6407 1 21.3651 30.8607 5.5391
6408 1 19.7825 29.2781 7.1217
6409 1 21.3651 30.8607 8.7043
6410 1 19.7825 29.2781 10.2869
6411 1 21.3651 30.8607 11.8695
6412 1 19.7825 32.4433 0.7913
6413 1 21.3651 34.0259 2.3739
6414 1 19.7825 32.4433 3.9565
6415 1 21.3651 34.0259 5.5391
6416 1 19.7825 32.4433 7.1217
6417 1 21.3651 34.0259 8.7043
6418 1 19.7825 32.4433 10.2869
6419 1 21.3651 34.0259 11.8695
6420 1 19.7825 35.6085 0.7913
6421 1 21.3651 37.1911 2.3739
6422 1 19.7825 35.6085 3.9565
6423 1 21.3651 37.1911 5.5391
6424 1 19.7825 35.6085 7.1217
6425 1 21.3651 37.1911 8.7043
6426 1 19.7825 35.6085 10.2869
6427 1 21.3651 37.1911 11.8695
6428 1 19.7825 38.7737 0.7913
6429 1 21.3651 40.3563 2.3739
6430 1 19.7825 38.7737 3.9565
6431 1 21.3651 40.3563 5.5391
6432 1 19.7825 38.7737 7.1217
6433 1 21.3651 40.3563 8.7043
6434 1 19.7825 38.7737 10.2869
6435 1 21.3651 40.3563 11.8695
6436 1 19.7825 41.9389 0.7913
6437 1 21.3651 43.5215 2.3739
6438 1 19.7825 41.9389 3.9565
6439 1 21.3651 43.5215 5.5391
6440 1 19.7825 41.9389 7.1217
6441 1 21.3651 43.5215 8.7043
6442 1 19.7825 41.9389 10.2869
6443 1 21.3651 43.5215 11.8695
6444 1 19.7825 45.1041 0.7913
6445 1 21.3651 46.6867 2.3739
6446 1 19.7825 45.1041 3.9565
6447 1 21.3651 46.6867 5.5391
6448 1 19.7825 45.1041 7.1217
6449 1 21.3651 46.6867 8.7043
6450 1 19.7825 45.1041 10.2869
6451 1 21.3651 46.6867 11.8695
6452 1 19.7825 48.2693 0.7913
6453 1 21.3651 49.8519 2.3739
6454 1 19.7825 48.2693 3.9565
6455 1 21.3651 49.8519 5.5391
6456 1 19.7825 48.2693 7.1217
6457 1 21.3651 49.8519 8.7043
6458 1 19.7825 48.2693 10.2869
6459 1 21.3651 49.8519 11.8695
6460 1 22.9477 0.7913 0.7913
6461 1 24.5303 2.3739 2.3739
6462 1 22.9477 0.7913 3.9565
6463 1 24.5303 2.3739 5.5391
6464 1 22.9477 0.7913 7.1217
6465 1 24.5303 2.3739 8.7043
6466 1 22.9477 0.7913 10.2869
6467 1 24.5303 2.3739 11.8695
6468 1 22.9477 3.9565 0.7913
6469 1 24.5303 5.5391 2.3739
6470 1 22.9477 3.9565 3.9565
6471 1 24.5303 5.5391 5.5391
6472 1 22.9477 3.9565 7.1217
6473 1 24.5303 5.5391 8.7043
6474 1 22.9477 3.9565 10.2869
6475 1 24.5303 5.5391 11.8695
6476 1 22.9477 7.1217 0.7913
6477 1 24.5303 8.7043 2.3739
6478 1 22.9477 7.1217 3.9565
6479 1 24.5303 8.7043 5.5391
6480 1 22.9477 7.1217 7.1217
6481 1 24.5303 8.7043 8.7043
6482 1 22.9477 7.1217 10.2869
6483 1 24.5303 8.7043 11.8695
6484 1 22.9477 10.2869 0.7913
6485 1 24.5303 11.8695 2.3739
6486 1 22.9477 10.2869 3.9565
6487 1 24.5303 11.8695 5.5391
6488 1 22.9477 10.2869 7.1217
6489 1 24.5303 11.8695 8.7043
6490 1 22.9477 10.2869 10.2869
6491 1 24.5303 11.8695 11.8695
6492 1 22.9477 13.4521 0.7913
6493 1 24.5303 15.0347 2.3739
6494 1 22.9477 13.4521 3.9565
6495 1 24.5303 15.0347 5.5391
6496 1 22.9477 13.4521 7.1217
6497 1 24.5303 15.0347 8.7043
6498 1 22.9477 13.4521 10.2869
6499 1 24.5303 15.0347 11.8695
6500 1 22.9477 16.6173 0.7913
6501 1 24.5303 18.1999 2.3739
6502 1 22.9477 16.6173 3.9565
6503 1 24.5303 18.1999 5.5391
6504 1 22.9477 16.6173 7.1217
6505 1 24.5303 18.1999 8.7043
6506 1 22.9477 16.6173 10.2869
6507 1 24.5303 18.1999 11.8695
6508 1 22.9477 19.7825 0.7913
6509 1 24.5303 21.3651 2.3739
6510 1 22.9477 19.7825 3.9565
6511 1 24.5303 21.3651 5.5391
6512 1 22.9477 19.7825 7.1217
6513 1 24.5303 21.3651 8.7043
6514 1 22.9477 19.7825 10.2869
6515 1 24.5303 21.3651 11.8695
6516 1 22.9477 22.9477 0.7913
6517 1 24.5303 24.5303 2.3739
6518 1 22.9477 22.9477 3.9565
6519 1 24.5303 24.5303 5.5391
6520 1 22.9477 22.9477 7.1217
6521 1 24.5303 24.5303 8.7043
6522 1 22.9477 22.9477 10.2869
6523 1 24.5303 24.5303 11.8695
6524 1 22.9477 26.1129 0.7913
6525 1 24.5303 27.6955 2.3739
6526 1 22.9477 26.1129 3.9565
6527 1 24.5303 27.6955 5.5391
6528 1 22.9477 26.1129 7.1217
6529 1 24.5303 27.6955 8.7043
6530 1 22.9477 26.1129 10.2869
6531 1 24.5303 27.6955 11.8695
6532 1 22.9477 29.2781 0.7913
6533 1 24.5303 30.8607 2.3739
6534 1 22.9477 29.2781 3.9565
6535 1 24.5303 30.8607 5.5391
6536 1 22.9477 29.2781 7.1217
6537 1 24.5303 30.8607 8.7043
6538 1 22.9477 29.2781 10.2869
6539 1 24.5303 30.8607 11.8695
6540 1 22.9477 32.4433 0.7913
6541 1 24.5303 34.0259 2.3739
6542 1 22.9477 32.4433 3.9565
6543 1 24.5303 34.0259 5.5391
6544 1 22.9477 32.4433 7.1217
6545 1 24.5303 34.0259 8.7043
6546 1 22.9477 32.4433 10.2869
6547 1 24.5303 34.0259 11.8695
6548 1 22.9477 35.6085 0.7913
6549 1 24.5303 37.1911 2.3739
6550 1 22.9477 35.6085 3.9565
6551 1 24.5303 37.1911 5.5391
6552 1 22.9477 35.6085 7.1217
6553 1 24.5303 37.1911 8.7043
6554 1 22.9477 35.6085 10.2869
6555 1 24.5303 37.1911 11.8695
6556 1 22.9477 38.7737 0.7913
6557 1 24.5303 40.3563 2.3739
6558 1 22.9477 38.7737 3.9565
6559 1 24.5303 40.3563 5.5391
6560 1 22.9477 38.7737 7.1217
6561 1 24.5303 40.3563 8.7043
6562 1 22.9477 38.7737 10.2869
6563 1 24.5303 40.3563 11.8695
6564 1 22.9477 41.9389 0.7913
6565 1 24.5303 43.5215 2.3739
6566 1 22.9477 41.9389 3.9565
6567 1 24.5303 43.5215 5.5391
6568 1 22.9477 41.9389 7.1217
6569 1 24.5303 43.5215 8.7043
6570 1 22.9477 41.9389 10.2869
6571 1 24.5303 43.5215 11.8695
6572 1 22.9477 45.1041 0.7913
6573 1 24.5303 46.6867 2.3739
6574 1 22.9477 45.1041 3.9565
6575 1 24.5303 46.6867 5.5391
6576 1 22.9477 45.1041 7.1217
6577 1 24.5303 46.6867 8.7043
6578 1 22.9477 45.1041 10.2869
6579 1 24.5303 46.6867 11.8695
6580 1 22.9477 48.2693 0.7913
6581 1 24.5303 49.8519 2.3739
6582 1 22.9477 48.2693 3.9565
6583 1 24.5303 49.8519 5.5391
6584 1 22.9477 48.2693 7.1217
6585 1 24.5303 49.8519 8.7043
6586 1 22.9477 48.2693 10.2869
6587 1 24.5303 49.8519 11.8695
6588 1 26.1129 0.7913 0.7913
6589 1 27.6955 2.3739 2.3739
6590 1 26.1129 0.7913 3.9565
6591 1 27.6955 2.3739 5.5391
6592 1 26.1129 0.7913 7.1217
6593 1 27.6955 2.3739 8.7043
6594 1 26.1129 0.7913 10.2869
6595 1 27.6955 2.3739 11.8695
6596 1 26.1129 3.9565 0.7913
6597 1 27.6955 5.5391 2.3739
6598 1 26.1129 3.9565 3.9565
6599 1 27.6955 5.5391 5.5391
6600 1 26.1129 3.9565 7.1217
6601 1 27.6955 5.5391 8.7043
6602 1 26.1129 3.9565 10.2869
6603 1 27.6955 5.5391 11.8695
6604 1 26.1129 7.1217 0.7913
6605 1 27.6955 8.7043 2.3739
6606 1 26.1129 7.1217 3.9565
6607 1 27.6955 8.7043 5.5391
6608 1 26.1129 7.1217 7.1217
6609 1 27.6955 8.7043 8.7043
6610 1 26.1129 7.1217 10.2869
6611 1 27.6955 8.7043 11.8695
6612 1 26.1129 10.2869 0.7913
6613 1 27.6955 11.8695 2.3739
6614 1 26.1129 10.2869 3.9565
6615 1 27.6955 11.8695 5.5391
6616 1 26.1129 10.2869 7.1217
6617 1 27.6955 11.8695 8.7043
6618 1 26.1129 10.2869 10.2869
6619 1 27.6955 11.8695 11.8695
6620 1 26.1129 13.4521 0.7913
6621 1 27.6955 15.0347 2.3739
6622 1 26.1129 13.4521 3.9565
6623 1 27.6955 15.0347 5.5391
6624 1 26.1129 13.4521 7.1217
6625 1 27.6955 15.0347 8.7043
6626 1 26.1129 13.4521 10.2869
6627 1 27.6955 15.0347 11.8695
6628 1 26.1129 16.6173 0.7913
6629 1 27.6955 18.1999 2.3739
6630 1 26.1129 16.6173 3.9565
6631 1 27.6955 18.1999 5.5391
6632 1 26.1129 16.6173 7.1217
6633 1 27.6955 18.1999 8.7043
6634 1 26.1129 16.6173 10.2869
6635 1 27.6955 18.1999 11.8695
6636 1 26.1129 19.7825 0.7913
6637 1 27.6955 21.3651 2.3739
6638 1 26.1129 19.7825 3.9565
6639 1 27.6955 21.3651 5.5391
6640 1 26.1129 19.7825 7.1217
6641 1 27.6955 21.3651 8.7043
6642 1 26.1129 19.7825 10.2869
6643 1 27.6955 21.3651 11.8695
6644 1 26.1129 22.9477 0.7913
6645 1 27.6955 24.5303 2.3739
6646 1 26.1129 22.9477 3.9565
6647 1 27.6955 24.5303 5.5391
6648 1 26.1129 22.9477 7.1217
6649 1 27.6955 24.5303 8.7043
6650 1 26.1129 22.9477 10.2869
6651 1 27.6955 24.5303 11.8695
6652 1 26.1129 26.1129 0.7913
6653 1 27.6955 27.6955 2.3739
6654 1 26.1129 26.1129 3.9565
6655 1 27.6955 27.6955 5.5391
6656 1 26.1129 26.1129 7.1217
6657 1 27.6955 27.6955 8.7043
6658 1 26.1129 26.1129 10.2869
6659 1 27.6955 27.6955 11.8695
6660 1 26.1129 29.2781 0.7913
6661 1 27.6955 30.8607 2.3739
6662 1 26.1129 29.2781 3.9565
6663 1 27.6955 30.8607 5.5391
6664 1 26.1129 29.2781 7.1217
6665 1 27.6955 30.8607 8.7043
6666 1 26.1129 29.2781 10.2869
6667 1 27.6955 30.8607 11.8695
6668 1 26.1129 32.4433 0.7913
6669 1 27.6955 34.0259 2.3739
6670 1 26.1129 32.4433 3.9565
6671 1 27.6955 34.0259 5.5391
6672 1 26.1129 32.4433 7.1217
6673 1 27.6955 34.0259 8.7043
6674 1 26.1129 32.4433 10.2869
6675 1 27.6955 34.0259 11.8695
6676 1 26.1129 35.6085 0.7913
6677 1 27.6955 37.1911 2.3739
6678 1 26.1129 35.6085 3.9565
6679 1 27.6955 37.1911 5.5391
6680 1 26.1129 35.6085 7.1217
6681 1 27.6955 37.1911 8.7043
6682 1 26.1129 35.6085 10.2869
6683 1 27.6955 37.1911 11.8695
6684 1 26.1129 38.7737 0.7913
6685 1 27.6955 40.3563 2.3739
6686 1 26.1129 38.7737 3.9565
6687 1 27.6955 40.3563 5.5391
6688 1 26.1129 38.7737 7.1217
6689 1 27.6955 40.3563 8.7043
6690 1 26.1129 38.7737 10.2869
6691 1 27.6955 40.3563 11.8695
6692 1 26.1129 41.9389 0.7913
6693 1 27.6955 43.5215 2.3739
6694 1 26.1129 41.9389 3.9565
6695 1 27.6955 43.5215 5.5391
6696 1 26.1129 41.9389 7.1217
6697 1 27.6955 43.5215 8.7043
6698 1 26.1129 41.9389 10.2869
6699 1 27.6955 43.5215 11.8695
6700 1 26.1129 45.1041 0.7913
6701 1 27.6955 46.6867 2.3739
6702 1 26.1129 45.1041 3.9565
6703 1 27.6955 46.6867 5.5391
6704 1 26.1129 45.1041 7.1217
6705 1 27.6955 46.6867 8.7043
6706 1 26.1129 45.1041 10.2869
6707 1 27.6955 46.6867 11.8695
6708 1 26.1129 48.2693 0.7913
6709 1 27.6955 49.8519 2.3739
6710 1 26.1129 48.2693 3.9565
6711 1 27.6955 49.8519 5.5391
6712 1 26.1129 48.2693 7.1217
6713 1 27.6955 49.8519 8.7043
6714 1 26.1129 48.2693 10.2869
6715 1 27.6955 49.8519 11.8695
6716 1 29.2781 0.7913 0.7913
6717 1 30.8607 2.3739 2.3739
6718 1 29.2781 0.7913 3.9565
6719 1 30.8607 2.3739 5.5391
6720 1 29.2781 0.7913 7.1217
6721 1 30.8607 2.3739 8.7043
6722 1 29.2781 0.7913 10.2869
6723 1 30.8607 2.3739 11.8695
6724 1 29.2781 3.9565 0.7913
6725 1 30.8607 5.5391 2.3739
6726 1 29.2781 3.9565 3.9565
6727 1 30.8607 5.5391 5.5391
6728 1 29.2781 3.9565 7.1217
6729 1 30.8607 5.5391 8.7043
6730 1 29.2781 3.9565 10.2869
6731 1 30.8607 5.5391 11.8695
6732 1 29.2781 7.1217 0.7913
6733 1 30.8607 8.7043 2.3739
6734 1 29.2781 7.1217 3.9565
6735 1 30.8607 8.7043 5.5391
6736 1 29.2781 7.1217 7.1217
6737 1 30.8607 8.7043 8.7043
6738 1 29.2781 7.1217 10.2869
6739 1 30.8607 8.7043 11.8695
6740 1 29.2781 10.2869 0.7913
6741 1 30.8607 11.8695 2.3739
6742 1 29.2781 10.2869 3.9565
6743 1 30.8607 11.8695 5.5391
6744 1 29.2781 10.2869 7.1217
6745 1 30.8607 11.8695 8.7043
6746 1 29.2781 10.2869 10.2869
6747 1 30.8607 11.8695 11.8695
6748 1 29.2781 13.4521 0.7913
6749 1 30.8607 15.0347 2.3739
6750 1 29.2781 13.4521 3.9565
6751 1 30.8607 15.0347 5.5391
6752 1 29.2781 13.4521 7.1217
6753 1 30.8607 15.0347 8.7043
6754 1 29.2781 13.4521 10.2869
6755 1 30.8607 15.0347 11.8695
6756 1 29.2781 16.6173 0.7913
6757 1 30.8607 18.1999 2.3739
6758 1 29.2781 16.6173 3.9565
6759 1 30.8607 18.1999 5.5391
6760 1 29.2781 16.6173 7.1217
6761 1 30.8607 18.1999 8.7043
6762 1 29.2781 16.6173 10.2869
6763 1 30.8607 18.1999 11.8695
6764 1 29.2781 19.7825 0.7913
6765 1 30.8607 21.3651 2.3739
6766 1 29.2781 19.7825 3.9565
6767 1 30.8607 21.3651 5.5391
6768 1 29.2781 19.7825 7.1217
6769 1 30.8607 21.3651 8.7043
6770 1 29.2781 19.7825 10.2869
6771 1 30.8607 21.3651 11.8695
6772 1 29.2781 22.9477 0.7913
6773 1 30.8607 24.5303 2.3739
6774 1 29.2781 22.9477 3.9565
6775 1 30.8607 24.5303 5.5391
6776 1 29.2781 22.9477 7.1217
6777 1 30.8607 24.5303 8.7043
6778 1 29.2781 22.9477 10.2869
6779 1 30.8607 24.5303 11.8695
6780 1 29.2781 26.1129 0.7913
6781 1 30.8607 27.6955 2.3739
6782 1 29.2781 26.1129 3.9565
6783 1 30.8607 27.6955 5.5391
6784 1 29.2781 26.1129 7.1217
6785 1 30.8607 27.6955 8.7043
6786 1 29.2781 26.1129 10.2869
6787 1 30.8607 27.6955 11.8695
6788 1 29.2781 29.2781 0.7913
6789 1 30.8607 30.8607 2.3739
6790 1 29.2781 29.2781 3.9565
6791 1 30.8607 30.8607 5.5391
6792 1 29.2781 29.2781 7.1217
6793 1 30.8607 30.8607 8.7043
6794 1 29.2781 29.2781 10.2869
6795 1 30.8607 30.8607 11.8695
6796 1 29.2781 32.4433 0.7913
6797 1 30.8607 34.0259 2.3739
6798 1 29.2781 32.4433 3.9565
6799 1 30.8607 34.0259 5.5391
6800 1 29.2781 32.4433 7.1217
6801 1 30.8607 34.0259 8.7043
6802 1 29.2781 32.4433 10.2869
6803 1 30.8607 34.0259 11.8695
6804 1 29.2781 35.6085 0.7913
6805 1 30.8607 37.1911 2.3739
6806 1 29.2781 35.6085 3.9565
6807 1 30.8607 37.1911 5.5391
6808 1 29.2781 35.6085 7.1217
6809 1 30.8607 37.1911 8.7043
6810 1 29.2781 35.6085 10.2869
6811 1 30.8607 37.1911 11.8695
6812 1 29.2781 38.7737 0.7913
6813 1 30.8607 40.3563 2.3739
6814 1 29.2781 38.7737 3.9565
6815 1 30.8607 40.3563 5.5391
6816 1 29.2781 38.7737 7.1217
6817 1 30.8607 40.3563 8.7043
6818 1 29.2781 38.7737 10.2869
6819 1 30.8607 40.3563 11.8695
6820 1 29.2781 41.9389 0.7913
6821 1 30.8607 43.5215 2.3739
6822 1 29.2781 41.9389 3.9565
6823 1 30.8607 43.5215 5.5391
6824 1 29.2781 41.9389 7.1217
6825 1 30.8607 43.5215 8.7043
6826 1 29.2781 41.9389 10.2869
6827 1 30.8607 43.5215 11.8695
6828 1 29.2781 45.1041 0.7913
6829 1 30.8607 46.6867 2.3739
6830 1 29.2781 45.1041 3.9565
6831 1 30.8607 46.6867 5.5391
6832 1 29.2781 45.1041 7.1217
6833 1 30.8607 46.6867 8.7043
6834 1 29.2781 45.1041 10.2869
6835 1 30.8607 46.6867 11.8695
6836 1 29.2781 48.2693 0.7913
6837 1 30.8607 49.8519 2.3739
6838 1 29.2781 48.2693 3.9565
6839 1 30.8607 49.8519 5.5391
6840 1 29.2781 48.2693 7.1217
6841 1 30.8607 49.8519 8.7043
6842 1 29.2781 48.2693 10.2869
6843 1 30.8607 49.8519 11.8695
6844 1 16.6173 0.7913 38.7737
6845 1 18.1999 2.3739 40.3563
6846 1 16.6173 0.7913 41.9389
6847 1 18.1999 2.3739 43.5215
6848 1 16.6173 0.7913 45.1041
6849 1 18.1999 2.3739 46.6867
6850 1 16.6173 0.7913 48.2693
6851 1 18.1999 2.3739 49.8519
6852 1 16.6173 3.9565 38.7737
6853 1 18.1999 5.5391 40.3563
6854 1 16.6173 3.9565 41.9389
6855 1 18.1999 5.5391 43.5215
6856 1 16.6173 3.9565 45.1041
6857 1 18.1999 5.5391 46.6867
6858 1 16.6173 3.9565 48.2693
6859 1 18.1999 5.5391 49.8519
6860 1 16.6173 7.1217 38.7737
6861 1 18.1999 8.7043 40.3563
6862 1 16.6173 7.1217 41.9389
6863 1 18.1999 8.7043 43.5215
6864 1 16.6173 7.1217 45.1041
6865 1 18.1999 8.7043 46.6867
6866 1 16.6173 7.1217 48.2693
6867 1 18.1999 8.7043 49.8519
6868 1 16.6173 10.2869 38.7737
6869 1 18.1999 11.8695 40.3563
6870 1 16.6173 10.2869 41.9389
6871 1 18.1999 11.8695 43.5215
6872 1 16.6173 10.2869 45.1041
6873 1 18.1999 11.8695 46.6867
6874 1 16.6173 10.2869 48.2693
6875 1 18.1999 11.8695 49.8519
6876 1 16.6173 13.4521 38.7737
6877 1 18.1999 15.0347 40.3563
6878 1 16.6173 13.4521 41.9389
6879 1 18.1999 15.0347 43.5215
6880 1 16.6173 13.4521 45.1041
6881 1 18.1999 15.0347 46.6867
6882 1 16.6173 13.4521 48.2693
6883 1 18.1999 15.0347 49.8519
6884 1 16.6173 16.6173 38.7737
6885 1 18.1999 18.1999 40.3563
6886 1 16.6173 16.6173 41.9389
6887 1 18.1999 18.1999 43.5215
6888 1 16.6173 16.6173 45.1041
6889 1 18.1999 18.1999 46.6867
6890 1 16.6173 16.6173 48.2693
6891 1 18.1999 18.1999 49.8519
6892 1 16.6173 19.7825 38.7737
6893 1 18.1999 21.3651 40.3563
6894 1 16.6173 19.7825 41.9389
6895 1 18.1999 21.3651 43.5215
6896 1 16.6173 19.7825 45.1041
6897 1 18.1999 21.3651 46.6867
6898 1 16.6173 19.7825 48.2693
6899 1 18.1999 21.3651 49.8519
6900 1 16.6173 22.9477 38.7737
6901 1 18.1999 24.5303 40.3563
6902 1 16.6173 22.9477 41.9389
6903 1 18.1999 24.5303 43.5215
6904 1 16.6173 22.9477 45.1041
6905 1 18.1999 24.5303 46.6867
6906 1 16.6173 22.9477 48.2693
6907 1 18.1999 24.5303 49.8519
6908 1 16.6173 26.1129 38.7737
6909 1 18.1999 27.6955 40.3563
6910 1 16.6173 26.1129 41.9389
6911 1 18.1999 27.6955 43.5215
6912 1 16.6173 26.1129 45.1041
6913 1 18.1999 27.6955 46.6867
6914 1 16.6173 26.1129 48.2693
6915 1 18.1999 27.6955 49.8519
6916 1 16.6173 29.2781 38.7737
6917 1 18.1999 30.8607 40.3563
6918 1 16.6173 29.2781 41.9389
6919 1 18.1999 30.8607 43.5215
6920 1 16.6173 29.2781 45.1041
6921 1 18.1999 30.8607 46.6867
6922 1 16.6173 29.2781 48.2693
6923 1 18.1999 30.8607 49.8519
6924 1 16.6173 32.4433 38.7737
6925 1 18.1999 34.0259 40.3563
6926 1 16.6173 32.4433 41.9389
6927 1 18.1999 34.0259 43.5215
6928 1 16.6173 32.4433 45.1041
6929 1 18.1999 34.0259 46.6867
6930 1 16.6173 32.4433 48.2693
6931 1 18.1999 34.0259 49.8519
6932 1 16.6173 35.6085 38.7737
6933 1 18.1999 37.1911 40.3563
6934 1 16.6173 35.6085 41.9389
6935 1 18.1999 37.1911 43.5215
6936 1 16.6173 35.6085 45.1041
6937 1 18.1999 37.1911 46.6867
6938 1 16.6173 35.6085 48.2693
6939 1 18.1999 37.1911 49.8519
6940 1 16.6173 38.7737 38.7737
6941 1 18.1999 40.3563 40.3563
6942 1 16.6173 38.7737 41.9389
6943 1 18.1999 40.3563 43.5215
6944 1 16.6173 38.7737 45.1041
6945 1 18.1999 40.3563 46.6867
6946 1 16.6173 38.7737 48.2693
6947 1 18.1999 40.3563 49.8519
6948 1 16.6173 41.9389 38.7737
6949 1 18.1999 43.5215 40.3563
6950 1 16.6173 41.9389 41.9389
6951 1 18.1999 43.5215 43.5215
6952 1 16.6173 41.9389 45.1041
6953 1 18.1999 43.5215 46.6867
6954 1 16.6173 41.9389 48.2693
6955 1 18.1999 43.5215 49.8519
6956 1 16.6173 45.1041 38.7737
6957 1 18.1999 46.6867 40.3563
6958 1 16.6173 45.1041 41.9389
6959 1 18.1999 46.6867 43.5215
6960 1 16.6173 45.1041 45.1041
6961 1 18.1999 46.6867 46.6867
6962 1 16.6173 45.1041 48.2693
6963 1 18.1999 46.6867 49.8519
6964 1 16.6173 48.2693 38.7737
6965 1 18.1999 49.8519 40.3563
6966 1 16.6173 48.2693 41.9389
6967 1 18.1999 49.8519 43.5215
6968 1 16.6173 48.2693 45.1041
6969 1 18.1999 49.8519 46.6867
6970 1 16.6173 48.2693 48.2693
6971 1 18.1999 49.8519 49.8519
6972 1 19.7825 0.7913 38.7737
6973 1 21.3651 2.3739 40.3563
6974 1 19.7825 0.7913 41.9389
6975 1 21.3651 2.3739 43.5215
6976 1 19.7825 0.7913 45.1041
6977 1 21.3651 2.3739 46.6867
6978 1 19.7825 0.7913 48.2693
6979 1 21.3651 2.3739 49.8519
6980 1 19.7825 3.9565 38.7737
6981 1 21.3651 5.5391 40.3563
6982 1 19.7825 3.9565 41.9389
6983 1 21.3651 5.5391 43.5215
6984 1 19.7825 3.9565 45.1041
6985 1 21.3651 5.5391 46.6867
6986 1 19.7825 3.9565 48.2693
6987 1 21.3651 5.5391 49.8519
6988 1 19.7825 7.1217 38.7737
6989 1 21.3651 8.7043 40.3563
6990 1 19.7825 7.1217 41.9389
6991 1 21.3651 8.7043 43.5215
6992 1 19.7825 7.1217 45.1041
6993 1 21.3651 8.7043 46.6867
6994 1 19.7825 7.1217 48.2693
6995 1 21.3651 8.7043 49.8519
6996 1 19.7825 10.2869 38.7737
6997 1 21.3651 11.8695 40.3563
6998 1 19.7825 10.2869 41.9389
6999 1 21.3651 11.8695 43.5215
7000 1 19.7825 10.2869 45.1041
7001 1 21.3651 11.8695 46.6867
7002 1 19.7825 10.2869 48.2693
7003 1 21.3651 11.8695 49.8519
7004 1 19.7825 13.4521 38.7737
7005 1 21.3651 15.0347 40.3563
7006 1 19.7825 13.4521 41.9389
7007 1 21.3651 15.0347 43.5215
7008 1 19.7825 13.4521 45.1041
7009 1 21.3651 15.0347 46.6867
7010 1 19.7825 13.4521 48.2693
7011 1 21.3651 15.0347 49.8519
7012 1 19.7825 16.6173 38.7737
7013 1 21.3651 18.1999 40.3563
7014 1 19.7825 16.6173 41.9389
7015 1 21.3651 18.1999 43.5215
7016 1 19.7825 16.6173 45.1041
7017 1 21.3651 18.1999 46.6867
7018 1 19.7825 16.6173 48.2693
7019 1 21.3651 18.1999 49.8519
7020 1 19.7825 19.7825 38.7737
7021 1 21.3651 21.3651 40.3563
7022 1 19.7825 19.7825 41.9389
7023 1 21.3651 21.3651 43.5215
7024 1 19.7825 19.7825 45.1041
7025 1 21.3651 21.3651 46.6867
7026 1 19.7825 19.7825 48.2693
7027 1 21.3651 21.3651 49.8519
7028 1 19.7825 22.9477 38.7737
7029 1 21.3651 24.5303 40.3563
7030 1 19.7825 22.9477 41.9389
7031 1 21.3651 24.5303 43.5215
7032 1 19.7825 22.9477 45.1041
7033 1 21.3651 24.5303 46.6867
7034 1 19.7825 22.9477 48.2693
7035 1 21.3651 24.5303 49.8519
7036 1 19.7825 26.1129 38.7737
7037 1 21.3651 27.6955 40.3563
7038 1 19.7825 26.1129 41.9389
7039 1 21.3651 27.6955 43.5215
7040 1 19.7825 26.1129 45.1041
7041 1 21.3651 27.6955 46.6867
7042 1 19.7825 26.1129 48.2693
7043 1 21.3651 27.6955 49.8519
7044 1 19.7825 29.2781 38.7737
7045 1 21.3651 30.8607 40.3563
7046 1 19.7825 29.2781 41.9389
7047 1 21.3651 30.8607 43.5215
7048 1 19.7825 29.2781 45.1041
7049 1 21.3651 30.8607 46.6867
7050 1 19.7825 29.2781 48.2693
7051 1 21.3651 30.8607 49.8519
7052 1 19.7825 32.4433 38.7737
7053 1 21.3651 34.0259 40.3563
7054 1 19.7825 32.4433 41.9389
7055 1 21.3651 34.0259 43.5215
7056 1 19.7825 32.4433 45.1041
7057 1 21.3651 34.0259 46.6867
7058 1 19.7825 32.4433 48.2693
7059 1 21.3651 34.0259 49.8519
7060 1 19.7825 35.6085 38.7737
7061 1 21.3651 37.1911 40.3563
7062 1 19.7825 35.6085 41.9389
7063 1 21.3651 37.1911 43.5215
7064 1 19.7825 35.6085 45.1041
7065 1 21.3651 37.1911 46.6867
7066 1 19.7825 35.6085 48.2693
7067 1 21.3651 37.1911 49.8519
7068 1 19.7825 38.7737 38.7737
7069 1 21.3651 40.3563 40.3563
7070 1 19.7825 38.7737 41.9389
7071 1 21.3651 40.3563 43.5215
7072 1 19.7825 38.7737 45.1041
7073 1 21.3651 40.3563 46.6867
7074 1 19.7825 38.7737 48.2693
7075 1 21.3651 40.3563 49.8519
7076 1 19.7825 41.9389 38.7737
7077 1 21.3651 43.5215 40.3563
7078 1 19.7825 41.9389 41.9389
7079 1 21.3651 43.5215 43.5215
7080 1 19.7825 41.9389 45.1041
7081 1 21.3651 43.5215 46.6867
7082 1 19.7825 41.9389 48.2693
7083 1 21.3651 43.5215 49.8519
7084 1 19.7825 45.1041 38.7737
7085 1 21.3651 46.6867 40.3563
7086 1 19.7825 45.1041 41.9389
7087 1 21.3651 46.6867 43.5215
7088 1 19.7825 45.1041 45.1041
7089 1 21.3651 46.6867 46.6867
7090 1 19.7825 45.1041 48.2693
7091 1 21.3651 46.6867 49.8519
7092 1 19.7825 48.2693 38.7737
7093 1 21.3651 49.8519 40.3563
7094 1 19.7825 48.2693 41.9389
7095 1 21.3651 49.8519 43.5215
7096 1 19.7825 48.2693 45.1041
7097 1 21.3651 49.8519 46.6867
7098 1 19.7825 48.2693 48.2693
7099 1 21.3651 49.8519 49.8519
7100 1 22.9477 0.7913 38.7737
7101 1 24.5303 2.3739 40.3563
7102 1 22.9477 0.7913 41.9389
7103 1 24.5303 2.3739 43.5215
7104 1 22.9477 0.7913 45.1041
7105 1 24.5303 2.3739 46.6867
7106 1 22.9477 0.7913 48.2693
7107 1 24.5303 2.3739 49.8519
7108 1 22.9477 3.9565 38.7737
7109 1 24.5303 5.5391 40.3563
7110 1 22.9477 3.9565 41.9389
7111 1 24.5303 5.5391 43.5215
7112 1 22.9477 3.9565 45.1041
7113 1 24.5303 5.5391 46.6867
7114 1 22.9477 3.9565 48.2693
7115 1 24.5303 5.5391 49.8519
7116 1 22.9477 7.1217 38.7737
7117 1 24.5303 8.7043 40.3563
7118 1 22.9477 7.1217 41.9389
7119 1 24.5303 8.7043 43.5215
7120 1 22.9477 7.1217 45.1041
7121 1 24.5303 8.7043 46.6867
7122 1 22.9477 7.1217 48.2693
7123 1 24.5303 8.7043 49.8519
7124 1 22.9477 10.2869 38.7737
7125 1 24.5303 11.8695 40.3563
7126 1 22.9477 10.2869 41.9389
7127 1 24.5303 11.8695 43.5215
7128 1 22.9477 10.2869 45.1041
7129 1 24.5303 11.8695 46.6867
7130 1 22.9477 10.2869 48.2693
7131 1 24.5303 11.8695 49.8519
7132 1 22.9477 13.4521 38.7737
7133 1 24.5303 15.0347 40.3563
7134 1 22.9477 13.4521 41.9389
7135 1 24.5303 15.0347 43.5215
7136 1 22.9477 13.4521 45.1041
7137 1 24.5303 15.0347 46.6867
7138 1 22.9477 13.4521 48.2693
7139 1 24.5303 15.0347 49.8519
7140 1 22.9477 16.6173 38.7737
7141 1 24.5303 18.1999 40.3563
7142 1 22.9477 16.6173 41.9389
7143 1 24.5303 18.1999 43.5215
7144 1 22.9477 16.6173 45.1041
7145 1 24.5303 18.1999 46.6867
7146 1 22.9477 16.6173 48.2693
7147 1 24.5303 18.1999 49.8519
7148 1 22.9477 19.7825 38.7737
7149 1 24.5303 21.3651 40.3563
7150 1 22.9477 19.7825 41.9389
7151 1 24.5303 21.3651 43.5215
7152 1 22.9477 19.7825 45.1041
7153 1 24.5303 21.3651 46.6867
7154 1 22.9477 19.7825 48.2693
7155 1 24.5303 21.3651 49.8519
7156 1 22.9477 22.9477 38.7737
7157 1 24.5303 24.5303 40.3563
7158 1 22.9477 22.9477 41.9389
7159 1 24.5303 24.5303 43.5215
7160 1 22.9477 22.9477 45.1041
7161 1 24.5303 24.5303 46.6867
7162 1 22.9477 22.9477 48.2693
7163 1 24.5303 24.5303 49.8519
7164 1 22.9477 26.1129 38.7737
7165 1 24.5303 27.6955 40.3563
7166 1 22.9477 26.1129 41.9389
7167 1 24.5303 27.6955 43.5215
7168 1 22.9477 26.1129 45.1041
7169 1 24.5303 27.6955 46.6867
7170 1 22.9477 26.1129 48.2693
7171 1 24.5303 27.6955 49.8519
7172 1 22.9477 29.2781 38.7737
7173 1 24.5303 30.8607 40.3563
7174 1 22.9477 29.2781 41.9389
7175 1 24.5303 30.8607 43.5215
7176 1 22.9477 29.2781 45.1041
7177 1 24.5303 30.8607 46.6867
7178 1 22.9477 29.2781 48.2693
7179 1 24.5303 30.8607 49.8519
7180 1 22.9477 32.4433 38.7737
7181 1 24.5303 34.0259 40.3563
7182 1 22.9477 32.4433 41.9389
7183 1 24.5303 34.0259 43.5215
7184 1 22.9477 32.4433 45.1041
7185 1 24.5303 34.0259 46.6867
7186 1 22.9477 32.4433 48.2693
7187 1 24.5303 34.0259 49.8519
7188 1 22.9477 35.6085 38.7737
7189 1 24.5303 37.1911 40.3563
7190 1 22.9477 35.6085 41.9389
7191 1 24.5303 37.1911 43.5215
7192 1 22.9477 35.6085 45.1041
7193 1 24.5303 37.1911 46.6867
7194 1 22.9477 35.6085 48.2693
7195 1 24.5303 37.1911 49.8519
7196 1 22.9477 38.7737 38.7737
7197 1 24.5303 40.3563 40.3563
7198 1 22.9477 38.7737 41.9389
7199 1 24.5303 40.3563 43.5215
7200 1 22.9477 38.7737 45.1041
7201 1 24.5303 40.3563 46.6867
7202 1 22.9477 38.7737 48.2693
7203 1 24.5303 40.3563 49.8519
7204 1 22.9477 41.9389 38.7737
7205 1 24.5303 43.5215 40.3563
7206 1 22.9477 41.9389 41.9389
7207 1 24.5303 43.5215 43.5215
7208 1 22.9477 41.9389 45.1041
7209 1 24.5303 43.5215 46.6867
7210 1 22.9477 41.9389 48.2693
7211 1 24.5303 43.5215 49.8519
7212 1 22.9477 45.1041 38.7737
7213 1 24.5303 46.6867 40.3563
7214 1 22.9477 45.1041 41.9389
7215 1 24.5303 46.6867 43.5215
7216 1 22.9477 45.1041 45.1041
7217 1 24.5303 46.6867 46.6867
7218 1 22.9477 45.1041 48.2693
7219 1 24.5303 46.6867 49.8519
7220 1 22.9477 48.2693 38.7737
7221 1 24.5303 49.8519 40.3563
7222 1 22.9477 48.2693 41.9389
7223 1 24.5303 49.8519 43.5215
7224 1 22.9477 48.2693 45.1041
7225 1 24.5303 49.8519 46.6867
7226 1 22.9477 48.2693 48.2693
7227 1 24.5303 49.8519 49.8519
7228 1 26.1129 0.7913 38.7737
7229 1 27.6955 2.3739 40.3563
7230 1 26.1129 0.7913 41.9389
7231 1 27.6955 2.3739 43.5215
7232 1 26.1129 0.7913 45.1041
7233 1 27.6955 2.3739 46.6867
7234 1 26.1129 0.7913 48.2693
7235 1 27.6955 2.3739 49.8519
7236 1 26.1129 3.9565 38.7737
7237 1 27.6955 5.5391 40.3563
7238 1 26.1129 3.9565 41.9389
7239 1 27.6955 5.5391 43.5215
7240 1 26.1129 3.9565 45.1041
7241 1 27.6955 5.5391 46.6867
7242 1 26.1129 3.9565 48.2693
7243 1 27.6955 5.5391 49.8519
7244 1 26.1129 7.1217 38.7737
7245 1 27.6955 8.7043 40.3563
7246 1 26.1129 7.1217 41.9389
7247 1 27.6955 8.7043 43.5215
7248 1 26.1129 7.1217 45.1041
7249 1 27.6955 8.7043 46.6867
7250 1 26.1129 7.1217 48.2693
7251 1 27.6955 8.7043 49.8519
7252 1 26.1129 10.2869 38.7737
7253 1 27.6955 11.8695 40.3563
7254 1 26.1129 10.2869 41.9389
7255 1 27.6955 11.8695 43.5215
7256 1 26.1129 10.2869 45.1041
7257 1 27.6955 11.8695 46.6867
7258 1 26.1129 10.2869 48.2693
7259 1 27.6955 11.8695 49.8519
7260 1 26.1129 13.4521 38.7737
7261 1 27.6955 15.0347 40.3563
7262 1 26.1129 13.4521 41.9389
7263 1 27.6955 15.0347 43.5215
7264 1 26.1129 13.4521 45.1041
7265 1 27.6955 15.0347 46.6867
7266 1 26.1129 13.4521 48.2693
7267 1 27.6955 15.0347 49.8519
7268 1 26.1129 16.6173 38.7737
7269 1 27.6955 18.1999 40.3563
7270 1 26.1129 16.6173 41.9389
7271 1 27.6955 18.1999 43.5215
7272 1 26.1129 16.6173 45.1041
7273 1 27.6955 18.1999 46.6867
7274 1 26.1129 16.6173 48.2693
7275 1 27.6955 18.1999 49.8519
7276 1 26.1129 19.7825 38.7737
7277 1 27.6955 21.3651 40.3563
7278 1 26.1129 19.7825 41.9389
7279 1 27.6955 21.3651 43.5215
7280 1 26.1129 19.7825 45.1041
7281 1 27.6955 21.3651 46.6867
7282 1 26.1129 19.7825 48.2693
7283 1 27.6955 21.3651 49.8519
7284 1 26.1129 22.9477 38.7737
7285 1 27.6955 24.5303 40.3563
7286 1 26.1129 22.9477 41.9389
7287 1 27.6955 24.5303 43.5215
7288 1 26.1129 22.9477 45.1041
7289 1 27.6955 24.5303 46.6867
7290 1 26.1129 22.9477 48.2693
7291 1 27.6955 24.5303 49.8519
7292 1 26.1129 26.1129 38.7737
7293 1 27.6955 27.6955 40.3563
7294 1 26.1129 26.1129 41.9389
7295 1 27.6955 27.6955 43.5215
7296 1 26.1129 26.1129 45.1041
7297 1 27.6955 27.6955 46.6867
7298 1 26.1129 26.1129 48.2693
7299 1 27.6955 27.6955 49.8519
7300 1 26.1129 29.2781 38.7737
7301 1 27.6955 30.8607 40.3563
7302 1 26.1129 29.2781 41.9389
7303 1 27.6955 30.8607 43.5215
7304 1 26.1129 29.2781 45.1041
7305 1 27.6955 30.8607 46.6867
7306 1 26.1129 29.2781 48.2693
7307 1 27.6955 30.8607 49.8519
7308 1 26.1129 32.4433 38.7737
7309 1 27.6955 34.0259 40.3563
7310 1 26.1129 32.4433 41.9389
7311 1 27.6955 34.0259 43.5215
7312 1 26.1129 32.4433 45.1041
7313 1 27.6955 34.0259 46.6867
7314 1 26.1129 32.4433 48.2693
7315 1 27.6955 34.0259 49.8519
7316 1 26.1129 35.6085 38.7737
7317 1 27.6955 37.1911 40.3563
7318 1 26.1129 35.6085 41.9389
7319 1 27.6955 37.1911 43.5215
7320 1 26.1129 35.6085 45.1041
7321 1 27.6955 37.1911 46.6867
7322 1 26.1129 35.6085 48.2693
7323 1 27.6955 37.1911 49.8519
7324 1 26.1129 38.7737 38.7737
7325 1 27.6955 40.3563 40.3563
7326 1 26.1129 38.7737 41.9389
7327 1 27.6955 40.3563 43.5215
7328 1 26.1129 38.7737 45.1041
7329 1 27.6955 40.3563 46.6867
7330 1 26.1129 38.7737 48.2693
7331 1 27.6955 40.3563 49.8519
7332 1 26.1129 41.9389 38.7737
7333 1 27.6955 43.5215 40.3563
7334 1 26.1129 41.9389 41.9389
7335 1 27.6955 43.5215 43.5215
7336 1 26.1129 41.9389 45.1041
7337 1 27.6955 43.5215 46.6867
7338 1 26.1129 41.9389 48.2693
7339 1 27.6955 43.5215 49.8519
7340 1 26.1129 45.1041 38.7737
7341 1 27.6955 46.6867 40.3563
7342 1 26.1129 45.1041 41.9389
7343 1 27.6955 46.6867 43.5215
7344 1 26.1129 45.1041 45.1041
7345 1 27.6955 46.6867 46.6867
7346 1 26.1129 45.1041 48.2693
7347 1 27.6955 46.6867 49.8519
7348 1 26.1129 48.2693 38.7737
7349 1 27.6955 49.8519 40.3563
7350 1 26.1129 48.2693 41.9389
7351 1 27.6955 49.8519 43.5215
7352 1 26.1129 48.2693 45.1041
7353 1 27.6955 49.8519 46.6867
7354 1 26.1129 48.2693 48.2693
7355 1 27.6955 49.8519 49.8519
7356 1 29.2781 0.7913 38.7737
7357 1 30.8607 2.3739 40.3563
7358 1 29.2781 0.7913 41.9389
7359 1 30.8607 2.3739 43.5215
7360 1 29.2781 0.7913 45.1041
7361 1 30.8607 2.3739 46.6867
7362 1 29.2781 0.7913 48.2693
7363 1 30.8607 2.3739 49.8519
7364 1 29.2781 3.9565 38.7737
7365 1 30.8607 5.5391 40.3563
7366 1 29.2781 3.9565 41.9389
7367 1 30.8607 5.5391 43.5215
7368 1 29.2781 3.9565 45.1041
7369 1 30.8607 5.5391 46.6867
7370 1 29.2781 3.9565 48.2693
7371 1 30.8607 5.5391 49.8519
7372 1 29.2781 7.1217 38.7737
7373 1 30.8607 8.7043 40.3563
7374 1 29.2781 7.1217 41.9389
7375 1 30.8607 8.7043 43.5215
7376 1 29.2781 7.1217 45.1041
7377 1 30.8607 8.7043 46.6867
7378 1 29.2781 7.1217 48.2693
7379 1 30.8607 8.7043 49.8519
7380 1 29.2781 10.2869 38.7737
7381 1 30.8607 11.8695 40.3563
7382 1 29.2781 10.2869 41.9389
7383 1 30.8607 11.8695 43.5215
7384 1 29.2781 10.2869 45.1041
7385 1 30.8607 11.8695 46.6867
7386 1 29.2781 10.2869 48.2693
7387 1 30.8607 11.8695 49.8519
7388 1 29.2781 13.4521 38.7737
7389 1 30.8607 15.0347 40.3563
7390 1 29.2781 13.4521 41.9389
7391 1 30.8607 15.0347 43.5215
7392 1 29.2781 13.4521 45.1041
7393 1 30.8607 15.0347 46.6867
7394 1 29.2781 13.4521 48.2693
7395 1 30.8607 15.0347 49.8519
7396 1 29.2781 16.6173 38.7737
7397 1 30.8607 18.1999 40.3563
7398 1 29.2781 16.6173 41.9389
7399 1 30.8607 18.1999 43.5215
7400 1 29.2781 16.6173 45.1041
7401 1 30.8607 18.1999 46.6867
7402 1 29.2781 16.6173 48.2693
7403 1 30.8607 18.1999 49.8519
7404 1 29.2781 19.7825 38.7737
7405 1 30.8607 21.3651 40.3563
7406 1 29.2781 19.7825 41.9389
7407 1 30.8607 21.3651 43.5215
7408 1 29.2781 19.7825 45.1041
7409 1 30.8607 21.3651 46.6867
7410 1 29.2781 19.7825 48.2693
7411 1 30.8607 21.3651 49.8519
7412 1 29.2781 22.9477 38.7737
7413 1 30.8607 24.5303 40.3563
7414 1 29.2781 22.9477 41.9389
7415 1 30.8607 24.5303 43.5215
7416 1 29.2781 22.9477 45.1041
7417 1 30.8607 24.5303 46.6867
7418 1 29.2781 22.9477 48.2693
7419 1 30.8607 24.5303 49.8519
7420 1 29.2781 26.1129 38.7737
7421 1 30.8607 27.6955 40.3563
7422 1 29.2781 26.1129 41.9389
7423 1 30.8607 27.6955 43.5215
7424 1 29.2781 26.1129 45.1041
7425 1 30.8607 27.6955 46.6867
7426 1 29.2781 26.1129 48.2693
7427 1 30.8607 27.6955 49.8519
7428 1 29.2781 29.2781 38.7737
7429 1 30.8607 30.8607 40.3563
7430 1 29.2781 29.2781 41.9389
7431 1 30.8607 30.8607 43.5215
7432 1 29.2781 29.2781 45.1041
7433 1 30.8607 30.8607 46.6867
7434 1 29.2781 29.2781 48.2693
7435 1 30.8607 30.8607 49.8519
7436 1 29.2781 32.4433 38.7737
7437 1 30.8607 34.0259 40.3563
7438 1 29.2781 32.4433 41.9389
7439 1 30.8607 34.0259 43.5215
7440 1 29.2781 32.4433 45.1041
7441 1 30.8607 34.0259 46.6867
7442 1 29.2781 32.4433 48.2693
7443 1 30.8607 34.0259 49.8519
7444 1 29.2781 35.6085 38.7737
7445 1 30.8607 37.1911 40.3563
7446 1 29.2781 35.6085 41.9389
7447 1 30.8607 37.1911 43.5215
7448 1 29.2781 35.6085 45.1041
7449 1 30.8607 37.1911 46.6867
7450 1 29.2781 35.6085 48.2693
7451 1 30.8607 37.1911 49.8519
7452 1 29.2781 38.7737 38.7737
7453 1 30.8607 40.3563 40.3563
7454 1 29.2781 38.7737 41.9389
7455 1 30.8607 40.3563 43.5215
7456 1 29.2781 38.7737 45.1041
7457 1 30.8607 40.3563 46.6867
7458 1 29.2781 38.7737 48.2693
7459 1 30.8607 40.3563 49.8519
7460 1 29.2781 41.9389 38.7737
7461 1 30.8607 43.5215 40.3563
7462 1 29.2781 41.9389 41.9389
7463 1 30.8607 43.5215 43.5215
7464 1 29.2781 41.9389 45.1041
7465 1 30.8607 43.5215 46.6867
7466 1 29.2781 41.9389 48.2693
7467 1 30.8607 43.5215 49.8519
7468 1 29.2781 45.1041 38.7737
7469 1 30.8607 46.6867 40.3563
7470 1 29.2781 45.1041 41.9389
7471 1 30.8607 46.6867 43.5215
7472 1 29.2781 45.1041 45.1041
7473 1 30.8607 46.6867 46.6867
7474 1 29.2781 45.1041 48.2693
7475 1 30.8607 46.6867 49.8519
7476 1 29.2781 48.2693 38.7737
7477 1 30.8607 49.8519 40.3563
7478 1 29.2781 48.2693 41.9389
7479 1 30.8607 49.8519 43.5215
7480 1 29.2781 48.2693 45.1041
7481 1 30.8607 49.8519 46.6867
7482 1 29.2781 48.2693 48.2693
7483 1 30.8607 49.8519 49.8519
7484 1 16.6173 0.7913 13.4521
7485 1 18.1999 2.3739 15.0347
7486 1 16.6173 0.7913 16.6173
7487 1 18.1999 2.3739 18.1999
7488 1 16.6173 0.7913 19.7825
7489 1 18.1999 2.3739 21.3651
7490 1 16.6173 0.7913 22.9477
7491 1 18.1999 2.3739 24.5303
7492 1 16.6173 0.7913 26.1129
7493 1 18.1999 2.3739 27.6955
7494 1 16.6173 0.7913 29.2781
7495 1 18.1999 2.3739 30.8607
7496 1 16.6173 0.7913 32.4433
7497 1 18.1999 2.3739 34.0259
7498 1 16.6173 0.7913 35.6085
7499 1 18.1999 2.3739 37.1911
7500 1 16.6173 3.9565 13.4521
7501 1 18.1999 5.5391 15.0347
7502 1 16.6173 3.9565 16.6173
7503 1 18.1999 5.5391 18.1999
7504 1 16.6173 3.9565 19.7825
7505 1 18.1999 5.5391 21.3651
7506 1 16.6173 3.9565 22.9477
7507 1 18.1999 5.5391 24.5303
7508 1 16.6173 3.9565 26.1129
7509 1 18.1999 5.5391 27.6955
7510 1 16.6173 3.9565 29.2781
7511 1 18.1999 5.5391 30.8607
7512 1 16.6173 3.9565 32.4433
7513 1 18.1999 5.5391 34.0259
7514 1 16.6173 3.9565 35.6085
7515 1 18.1999 5.5391 37.1911
7516 1 16.6173 7.1217 13.4521
7517 1 18.1999 8.7043 15.0347
7518 1 16.6173 7.1217 16.6173
7519 1 18.1999 8.7043 18.1999
7520 1 16.6173 7.1217 19.7825
7521 1 18.1999 8.7043 21.3651
7522 1 16.6173 7.1217 22.9477
7523 1 18.1999 8.7043 24.5303
7524 1 16.6173 7.1217 26.1129
7525 1 18.1999 8.7043 27.6955
7526 1 16.6173 7.1217 29.2781
7527 1 18.1999 8.7043 30.8607
7528 1 16.6173 7.1217 32.4433
7529 1 18.1999 8.7043 34.0259
7530 1 16.6173 7.1217 35.6085
7531 1 18.1999 8.7043 37.1911
7532 1 16.6173 10.2869 13.4521
7533 1 18.1999 11.8695 15.0347
7534 1 16.6173 10.2869 16.6173
7535 1 18.1999 11.8695 18.1999
7536 1 16.6173 10.2869 19.7825
7537 1 18.1999 11.8695 21.3651
7538 1 16.6173 10.2869 22.9477
7539 1 18.1999 11.8695 24.5303
7540 1 16.6173 10.2869 26.1129
7541 1 18.1999 11.8695 27.6955
7542 1 16.6173 10.2869 29.2781
7543 1 18.1999 11.8695 30.8607
7544 1 16.6173 10.2869 32.4433
7545 1 18.1999 11.8695 34.0259
7546 1 16.6173 10.2869 35.6085
7547 1 18.1999 11.8695 37.1911
7548 1 19.7825 0.7913 13.4521
7549 1 21.3651 2.3739 15.0347
7550 1 19.7825 0.7913 16.6173
7551 1 21.3651 2.3739 18.1999
7552 1 19.7825 0.7913 19.7825
7553 1 21.3651 2.3739 21.3651
7554 1 19.7825 0.7913 22.9477
7555 1 21.3651 2.3739 24.5303
7556 1 19.7825 0.7913 26.1129
7557 1 21.3651 2.3739 27.6955
7558 1 19.7825 0.7913 29.2781
7559 1 21.3651 2.3739 30.8607
7560 1 19.7825 0.7913 32.4433
7561 1 21.3651 2.3739 34.0259
7562 1 19.7825 0.7913 35.6085
7563 1 21.3651 2.3739 37.1911
7564 1 19.7825 3.9565 13.4521
7565 1 21.3651 5.5391 15.0347
7566 1 19.7825 3.9565 16.6173
7567 1 21.3651 5.5391 18.1999
7568 1 19.7825 3.9565 19.7825
7569 1 21.3651 5.5391 21.3651
7570 1 19.7825 3.9565 22.9477
7571 1 21.3651 5.5391 24.5303
7572 1 19.7825 3.9565 26.1129
7573 1 21.3651 5.5391 27.6955
7574 1 19.7825 3.9565 29.2781
7575 1 21.3651 5.5391 30.8607
7576 1 19.7825 3.9565 32.4433
7577 1 21.3651 5.5391 34.0259
7578 1 19.7825 3.9565 35.6085
7579 1 21.3651 5.5391 37.1911
7580 1 19.7825 7.1217 13.4521
7581 1 21.3651 8.7043 15.0347
7582 1 19.7825 7.1217 16.6173
7583 1 21.3651 8.7043 18.1999
7584 1 19.7825 7.1217 19.7825
7585 1 21.3651 8.7043 21.3651
7586 1 19.7825 7.1217 22.9477
7587 1 21.3651 8.7043 24.5303
7588 1 19.7825 7.1217 26.1129
7589 1 21.3651 8.7043 27.6955
7590 1 19.7825 7.1217 29.2781
7591 1 21.3651 8.7043 30.8607
7592 1 19.7825 7.1217 32.4433
7593 1 21.3651 8.7043 34.0259
7594 1 19.7825 7.1217 35.6085
7595 1 21.3651 8.7043 37.1911
7596 1 19.7825 10.2869 13.4521
7597 1 21.3651 11.8695 15.0347
7598 1 19.7825 10.2869 16.6173
7599 1 21.3651 11.8695 18.1999
7600 1 19.7825 10.2869 19.7825
7601 1 21.3651 11.8695 21.3651
7602 1 19.7825 10.2869 22.9477
7603 1 21.3651 11.8695 24.5303
7604 1 19.7825 10.2869 26.1129
7605 1 21.3651 11.8695 27.6955
7606 1 19.7825 10.2869 29.2781
7607 1 21.3651 11.8695 30.8607
7608 1 19.7825 10.2869 32.4433
7609 1 21.3651 11.8695 34.0259
7610 1 19.7825 10.2869 35.6085
7611 1 21.3651 11.8695 37.1911
7612 1 22.9477 0.7913 13.4521
7613 1 24.5303 2.3739 15.0347
7614 1 22.9477 0.7913 16.6173
7615 1 24.5303 2.3739 18.1999
7616 1 22.9477 0.7913 19.7825
7617 1 24.5303 2.3739 21.3651
7618 1 22.9477 0.7913 22.9477
7619 1 24.5303 2.3739 24.5303
7620 1 22.9477 0.7913 26.1129
7621 1 24.5303 2.3739 27.6955
7622 1 22.9477 0.7913 29.2781
7623 1 24.5303 2.3739 30.8607
7624 1 22.9477 0.7913 32.4433
7625 1 24.5303 2.3739 34.0259
7626 1 22.9477 0.7913 35.6085
7627 1 24.5303 2.3739 37.1911
7628 1 22.9477 3.9565 13.4521
7629 1 24.5303 5.5391 15.0347
7630 1 22.9477 3.9565 16.6173
7631 1 24.5303 5.5391 18.1999
7632 1 22.9477 3.9565 19.7825
7633 1 24.5303 5.5391 21.3651
7634 1 22.9477 3.9565 22.9477
7635 1 24.5303 5.5391 24.5303
7636 1 22.9477 3.9565 26.1129
7637 1 24.5303 5.5391 27.6955
7638 1 22.9477 3.9565 29.2781
7639 1 24.5303 5.5391 30.8607
7640 1 22.9477 3.9565 32.4433
7641 1 24.5303 5.5391 34.0259
7642 1 22.9477 3.9565 35.6085
7643 1 24.5303 5.5391 37.1911
7644 1 22.9477 7.1217 13.4521
7645 1 24.5303 8.7043 15.0347
7646 1 22.9477 7.1217 16.6173
7647 1 24.5303 8.7043 18.1999
7648 1 22.9477 7.1217 19.7825
7649 1 24.5303 8.7043 21.3651
7650 1 22.9477 7.1217 22.9477
7651 1 24.5303 8.7043 24.5303
7652 1 22.9477 7.1217 26.1129
7653 1 24.5303 8.7043 27.6955
7654 1 22.9477 7.1217 29.2781
7655 1 24.5303 8.7043 30.8607
7656 1 22.9477 7.1217 32.4433
7657 1 24.5303 8.7043 34.0259
7658 1 22.9477 7.1217 35.6085
7659 1 24.5303 8.7043 37.1911
7660 1 22.9477 10.2869 13.4521
7661 1 24.5303 11.8695 15.0347
7662 1 22.9477 10.2869 16.6173
7663 1 24.5303 11.8695 18.1999
7664 1 22.9477 10.2869 19.7825
7665 1 24.5303 11.8695 21.3651
7666 1 22.9477 10.2869 22.9477
7667 1 24.5303 11.8695 24.5303
7668 1 22.9477 10.2869 26.1129
7669 1 24.5303 11.8695 27.6955
7670 1 22.9477 10.2869 29.2781
7671 1 24.5303 11.8695 30.8607
7672 1 22.9477 10.2869 32.4433
7673 1 24.5303 11.8695 34.0259
7674 1 22.9477 10.2869 35.6085
7675 1 24.5303 11.8695 37.1911
7676 1 26.1129 0.7913 13.4521
7677 1 27.6955 2.3739 15.0347
7678 1 26.1129 0.7913 16.6173
7679 1 27.6955 2.3739 18.1999
7680 1 26.1129 0.7913 19.7825
7681 1 27.6955 2.3739 21.3651
7682 1 26.1129 0.7913 22.9477
7683 1 27.6955 2.3739 24.5303
7684 1 26.1129 0.7913 26.1129
7685 1 27.6955 2.3739 27.6955
7686 1 26.1129 0.7913 29.2781
7687 1 27.6955 2.3739 30.8607
7688 1 26.1129 0.7913 32.4433
7689 1 27.6955 2.3739 34.0259
7690 1 26.1129 0.7913 35.6085
7691 1 27.6955 2.3739 37.1911
7692 1 26.1129 3.9565 13.4521
7693 1 27.6955 5.5391 15.0347
7694 1 26.1129 3.9565 16.6173
7695 1 27.6955 5.5391 18.1999
7696 1 26.1129 3.9565 19.7825
7697 1 27.6955 5.5391 21.3651
7698 1 26.1129 3.9565 22.9477
7699 1 27.6955 5.5391 24.5303
7700 1 26.1129 3.9565 26.1129
7701 1 27.6955 5.5391 27.6955
7702 1 26.1129 3.9565 29.2781
7703 1 27.6955 5.5391 30.8607
7704 1 26.1129 3.9565 32.4433
7705 1 27.6955 5.5391 34.0259
7706 1 26.1129 3.9565 35.6085
7707 1 27.6955 5.5391 37.1911
7708 1 26.1129 7.1217 13.4521
7709 1 27.6955 8.7043 15.0347
7710 1 26.1129 7.1217 16.6173
7711 1 27.6955 8.7043 18.1999
7712 1 26.1129 7.1217 19.7825
7713 1 27.6955 8.7043 21.3651
7714 1 26.1129 7.1217 22.9477
7715 1 27.6955 8.7043 24.5303
7716 1 26.1129 7.1217 26.1129
7717 1 27.6955 8.7043 27.6955
7718 1 26.1129 7.1217 29.2781
7719 1 27.6955 8.7043 30.8607
7720 1 26.1129 7.1217 32.4433
7721 1 27.6955 8.7043 34.0259
7722 1 26.1129 7.1217 35.6085
7723 1 27.6955 8.7043 37.1911
7724 1 26.1129 10.2869 13.4521
7725 1 27.6955 11.8695 15.0347
7726 1 26.1129 10.2869 16.6173
7727 1 27.6955 11.8695 18.1999
7728 1 26.1129 10.2869 19.7825
7729 1 27.6955 11.8695 21.3651
7730 1 26.1129 10.2869 22.9477
7731 1 27.6955 11.8695 24.5303
7732 1 26.1129 10.2869 26.1129
7733 1 27.6955 11.8695 27.6955
7734 1 26.1129 10.2869 29.2781
7735 1 27.6955 11.8695 30.8607
7736 1 26.1129 10.2869 32.4433
7737 1 27.6955 11.8695 34.0259
7738 1 26.1129 10.2869 35.6085
7739 1 27.6955 11.8695 37.1911
7740 1 29.2781 0.7913 13.4521
7741 1 30.8607 2.3739 15.0347
7742 1 29.2781 0.7913 16.6173
7743 1 30.8607 2.3739 18.1999
7744 1 29.2781 0.7913 19.7825
7745 1 30.8607 2.3739 21.3651
7746 1 29.2781 0.7913 22.9477
7747 1 30.8607 2.3739 24.5303
7748 1 29.2781 0.7913 26.1129
7749 1 30.8607 2.3739 27.6955
7750 1 29.2781 0.7913 29.2781
7751 1 30.8607 2.3739 30.8607
7752 1 29.2781 0.7913 32.4433
7753 1 30.8607 2.3739 34.0259
7754 1 29.2781 0.7913 35.6085
7755 1 30.8607 2.3739 37.1911
7756 1 29.2781 3.9565 13.4521
7757 1 30.8607 5.5391 15.0347
7758 1 29.2781 3.9565 16.6173
7759 1 30.8607 5.5391 18.1999
7760 1 29.2781 3.9565 19.7825
7761 1 30.8607 5.5391 21.3651
7762 1 29.2781 3.9565 22.9477
7763 1 30.8607 5.5391 24.5303
7764 1 29.2781 3.9565 26.1129
7765 1 30.8607 5.5391 27.6955
7766 1 29.2781 3.9565 29.2781
7767 1 30.8607 5.5391 30.8607
7768 1 29.2781 3.9565 32.4433
7769 1 30.8607 5.5391 34.0259
7770 1 29.2781 3.9565 35.6085
7771 1 30.8607 5.5391 37.1911
7772 1 29.2781 7.1217 13.4521
7773 1 30.8607 8.7043 15.0347
7774 1 29.2781 7.1217 16.6173
7775 1 30.8607 8.7043 18.1999
7776 1 29.2781 7.1217 19.7825
7777 1 30.8607 8.7043 21.3651
7778 1 29.2781 7.1217 22.9477
7779 1 30.8607 8.7043 24.5303
7780 1 29.2781 7.1217 26.1129
7781 1 30.8607 8.7043 27.6955
7782 1 29.2781 7.1217 29.2781
7783 1 30.8607 8.7043 30.8607
7784 1 29.2781 7.1217 32.4433
7785 1 30.8607 8.7043 34.0259
7786 1 29.2781 7.1217 35.6085
7787 1 30.8607 8.7043 37.1911
7788 1 29.2781 10.2869 13.4521
7789 1 30.8607 11.8695 15.0347
7790 1 29.2781 10.2869 16.6173
7791 1 30.8607 11.8695 18.1999
7792 1 29.2781 10.2869 19.7825
7793 1 30.8607 11.8695 21.3651
7794 1 29.2781 10.2869 22.9477
7795 1 30.8607 11.8695 24.5303
7796 1 29.2781 10.2869 26.1129
7797 1 30.8607 11.8695 27.6955
7798 1 29.2781 10.2869 29.2781
7799 1 30.8607 11.8695 30.8607
7800 1 29.2781 10.2869 32.4433
7801 1 30.8607 11.8695 34.0259
7802 1 29.2781 10.2869 35.6085
7803 1 30.8607 11.8695 37.1911
7804 1 16.6173 35.6085 13.4521
7805 1 18.1999 37.1911 15.0347
7806 1 16.6173 35.6085 16.6173
7807 1 18.1999 37.1911 18.1999
7808 1 16.6173 35.6085 19.7825
7809 1 18.1999 37.1911 21.3651
7810 1 16.6173 35.6085 22.9477
7811 1 18.1999 37.1911 24.5303
7812 1 16.6173 35.6085 26.1129
7813 1 18.1999 37.1911 27.6955
7814 1 16.6173 35.6085 29.2781
7815 1 18.1999 37.1911 30.8607
7816 1 16.6173 35.6085 32.4433
7817 1 18.1999 37.1911 34.0259
7818 1 16.6173 35.6085 35.6085
7819 1 18.1999 37.1911 37.1911
7820 1 16.6173 38.7737 13.4521
7821 1 18.1999 40.3563 15.0347
7822 1 16.6173 38.7737 16.6173
7823 1 18.1999 40.3563 18.1999
7824 1 16.6173 38.7737 19.7825
7825 1 18.1999 40.3563 21.3651
7826 1 16.6173 38.7737 22.9477
7827 1 18.1999 40.3563 24.5303
7828 1 16.6173 38.7737 26.1129
7829 1 18.1999 40.3563 27.6955
7830 1 16.6173 38.7737 29.2781
7831 1 18.1999 40.3563 30.8607
7832 1 16.6173 38.7737 32.4433
7833 1 18.1999 40.3563 34.0259
7834 1 16.6173 38.7737 35.6085
7835 1 18.1999 40.3563 37.1911
7836 1 16.6173 41.9389 13.4521
7837 1 18.1999 43.5215 15.0347
7838 1 16.6173 41.9389 16.6173
7839 1 18.1999 43.5215 18.1999
7840 1 16.6173 41.9389 19.7825
7841 1 18.1999 43.5215 21.3651
7842 1 16.6173 41.9389 22.9477
7843 1 18.1999 43.5215 24.5303
7844 1 16.6173 41.9389 26.1129
7845 1 18.1999 43.5215 27.6955
7846 1 16.6173 41.9389 29.2781
7847 1 18.1999 43.5215 30.8607
7848 1 16.6173 41.9389 32.4433
7849 1 18.1999 43.5215 34.0259
7850 1 16.6173 41.9389 35.6085
7851 1 18.1999 43.5215 37.1911
7852 1 16.6173 45.1041 13.4521
7853 1 18.1999 46.6867 15.0347
7854 1 16.6173 45.1041 16.6173
7855 1 18.1999 46.6867 18.1999
7856 1 16.6173 45.1041 19.7825
7857 1 18.1999 46.6867 21.3651
7858 1 16.6173 45.1041 22.9477
7859 1 18.1999 46.6867 24.5303
7860 1 16.6173 45.1041 26.1129
7861 1 18.1999 46.6867 27.6955
7862 1 16.6173 45.1041 29.2781
7863 1 18.1999 46.6867 30.8607
7864 1 16.6173 45.1041 32.4433
7865 1 18.1999 46.6867 34.0259
7866 1 16.6173 45.1041 35.6085
7867 1 18.1999 46.6867 37.1911
7868 1 16.6173 48.2693 13.4521
7869 1 18.1999 49.8519 15.0347
7870 1 16.6173 48.2693 16.6173
7871 1 18.1999 49.8519 18.1999
7872 1 16.6173 48.2693 19.7825
7873 1 18.1999 49.8519 21.3651
7874 1 16.6173 48.2693 22.9477
7875 1 18.1999 49.8519 24.5303
7876 1 16.6173 48.2693 26.1129
7877 1 18.1999 49.8519 27.6955
7878 1 16.6173 48.2693 29.2781
7879 1 18.1999 49.8519 30.8607
7880 1 16.6173 48.2693 32.4433
7881 1 18.1999 49.8519 34.0259
7882 1 16.6173 48.2693 35.6085
7883 1 18.1999 49.8519 37.1911
7884 1 19.7825 35.6085 13.4521
7885 1 21.3651 37.1911 15.0347
7886 1 19.7825 35.6085 16.6173
7887 1 21.3651 37.1911 18.1999
7888 1 19.7825 35.6085 19.7825
7889 1 21.3651 37.1911 21.3651
7890 1 19.7825 35.6085 22.9477
7891 1 21.3651 37.1911 24.5303
7892 1 19.7825 35.6085 26.1129
7893 1 21.3651 37.1911 27.6955
7894 1 19.7825 35.6085 29.2781
7895 1 21.3651 37.1911 30.8607
7896 1 19.7825 35.6085 32.4433
7897 1 21.3651 37.1911 34.0259
7898 1 19.7825 35.6085 35.6085
7899 1 21.3651 37.1911 37.1911
7900 1 19.7825 38.7737 13.4521
7901 1 21.3651 40.3563 15.0347
7902 1 19.7825 38.7737 16.6173
7903 1 21.3651 40.3563 18.1999
7904 1 19.7825 38.7737 19.7825
7905 1 21.3651 40.3563 21.3651
7906 1 19.7825 38.7737 22.9477
7907 1 21.3651 40.3563 24.5303
7908 1 19.7825 38.7737 26.1129
7909 1 21.3651 40.3563 27.6955
7910 1 19.7825 38.7737 29.2781
7911 1 21.3651 40.3563 30.8607
7912 1 19.7825 38.7737 32.4433
7913 1 21.3651 40.3563 34.0259
7914 1 19.7825 38.7737 35.6085
7915 1 21.3651 40.3563 37.1911
7916 1 19.7825 41.9389 13.4521
7917 1 21.3651 43.5215 15.0347
7918 1 19.7825 41.9389 16.6173
7919 1 21.3651 43.5215 18.1999
7920 1 19.7825 41.9389 19.7825
7921 1 21.3651 43.5215 21.3651
7922 1 19.7825 41.9389 22.9477
7923 1 21.3651 43.5215 24.5303
7924 1 19.7825 41.9389 26.1129
7925 1 21.3651 43.5215 27.6955
7926 1 19.7825 41.9389 29.2781
7927 1 21.3651 43.5215 30.8607
7928 1 19.7825 41.9389 32.4433
7929 1 21.3651 43.5215 34.0259
7930 1 19.7825 41.9389 35.6085
7931 1 21.3651 43.5215 37.1911
7932 1 19.7825 45.1041 13.4521
7933 1 21.3651 46.6867 15.0347
7934 1 19.7825 45.1041 16.6173
7935 1 21.3651 46.6867 18.1999
7936 1 19.7825 45.1041 19.7825
7937 1 21.3651 46.6867 21.3651
7938 1 19.7825 45.1041 22.9477
7939 1 21.3651 46.6867 24.5303
7940 1 19.7825 45.1041 26.1129
7941 1 21.3651 46.6867 27.6955
7942 1 19.7825 45.1041 29.2781
7943 1 21.3651 46.6867 30.8607
7944 1 19.7825 45.1041 32.4433
7945 1 21.3651 46.6867 34.0259
7946 1 19.7825 45.1041 35.6085
7947 1 21.3651 46.6867 37.1911
7948 1 19.7825 48.2693 13.4521
7949 1 21.3651 49.8519 15.0347
7950 1 19.7825 48.2693 16.6173
7951 1 21.3651 49.8519 18.1999
7952 1 19.7825 48.2693 19.7825
7953 1 21.3651 49.8519 21.3651
7954 1 19.7825 48.2693 22.9477
7955 1 21.3651 49.8519 24.5303
7956 1 19.7825 48.2693 26.1129
7957 1 21.3651 49.8519 27.6955
7958 1 19.7825 48.2693 29.2781
7959 1 21.3651 49.8519 30.8607
7960 1 19.7825 48.2693 32.4433
7961 1 21.3651 49.8519 34.0259
7962 1 19.7825 48.2693 35.6085
7963 1 21.3651 49.8519 37.1911
7964 1 22.9477 35.6085 13.4521
7965 1 24.5303 37.1911 15.0347
7966 1 22.9477 35.6085 16.6173
7967 1 24.5303 37.1911 18.1999
7968 1 22.9477 35.6085 19.7825
7969 1 24.5303 37.1911 21.3651
7970 1 22.9477 35.6085 22.9477
7971 1 24.5303 37.1911 24.5303
7972 1 22.9477 35.6085 26.1129
7973 1 24.5303 37.1911 27.6955
7974 1 22.9477 35.6085 29.2781
7975 1 24.5303 37.1911 30.8607
7976 1 22.9477 35.6085 32.4433
7977 1 24.5303 37.1911 34.0259
7978 1 22.9477 35.6085 35.6085
7979 1 24.5303 37.1911 37.1911
7980 1 22.9477 38.7737 13.4521
7981 1 24.5303 40.3563 15.0347
7982 1 22.9477 38.7737 16.6173
7983 1 24.5303 40.3563 18.1999
7984 1 22.9477 38.7737 19.7825
7985 1 24.5303 40.3563 21.3651
7986 1 22.9477 38.7737 22.9477
7987 1 24.5303 40.3563 24.5303
7988 1 22.9477 38.7737 26.1129
7989 1 24.5303 40.3563 27.6955
7990 1 22.9477 38.7737 29.2781
7991 1 24.5303 40.3563 30.8607
7992 1 22.9477 38.7737 32.4433
7993 1 24.5303 40.3563 34.0259
7994 1 22.9477 38.7737 35.6085
7995 1 24.5303 40.3563 37.1911
7996 1 22.9477 41.9389 13.4521
7997 1 24.5303 43.5215 15.0347
7998 1 22.9477 41.9389 16.6173
7999 1 24.5303 43.5215 18.1999
8000 1 22.9477 41.9389 19.7825
8001 1 24.5303 43.5215 21.3651
8002 1 22.9477 41.9389 22.9477
8003 1 24.5303 43.5215 24.5303
8004 1 22.9477 41.9389 26.1129
8005 1 24.5303 43.5215 27.6955
8006 1 22.9477 41.9389 29.2781
8007 1 24.5303 43.5215 30.8607
8008 1 22.9477 41.9389 32.4433
8009 1 24.5303 43.5215 34.0259
8010 1 22.9477 41.9389 35.6085
8011 1 24.5303 43.5215 37.1911
8012 1 22.9477 45.1041 13.4521
8013 1 24.5303 46.6867 15.0347
8014 1 22.9477 45.1041 16.6173
8015 1 24.5303 46.6867 18.1999
8016 1 22.9477 45.1041 19.7825
8017 1 24.5303 46.6867 21.3651
8018 1 22.9477 45.1041 22.9477
8019 1 24.5303 46.6867 24.5303
8020 1 22.9477 45.1041 26.1129
8021 1 24.5303 46.6867 27.6955
8022 1 22.9477 45.1041 29.2781
8023 1 24.5303 46.6867 30.8607
8024 1 22.9477 45.1041 32.4433
8025 1 24.5303 46.6867 34.0259
8026 1 22.9477 45.1041 35.6085
8027 1 24.5303 46.6867 37.1911
8028 1 22.9477 48.2693 13.4521
8029 1 24.5303 49.8519 15.0347
8030 1 22.9477 48.2693 16.6173
8031 1 24.5303 49.8519 18.1999
8032 1 22.9477 48.2693 19.7825
8033 1 24.5303 49.8519 21.3651
8034 1 22.9477 48.2693 22.9477
8035 1 24.5303 49.8519 24.5303
8036 1 22.9477 48.2693 26.1129
8037 1 24.5303 49.8519 27.6955
8038 1 22.9477 48.2693 29.2781
8039 1 24.5303 49.8519 30.8607
8040 1 22.9477 48.2693 32.4433
8041 1 24.5303 49.8519 34.0259
8042 1 22.9477 48.2693 35.6085
8043 1 24.5303 49.8519 37.1911
8044 1 26.1129 35.6085 13.4521
8045 1 27.6955 37.1911 15.0347
8046 1 26.1129 35.6085 16.6173
8047 1 27.6955 37.1911 18.1999
8048 1 26.1129 35.6085 19.7825
8049 1 27.6955 37.1911 21.3651
8050 1 26.1129 35.6085 22.9477
8051 1 27.6955 37.1911 24.5303
8052 1 26.1129 35.6085 26.1129
8053 1 27.6955 37.1911 27.6955
8054 1 26.1129 35.6085 29.2781
8055 1 27.6955 37.1911 30.8607
8056 1 26.1129 35.6085 32.4433
8057 1 27.6955 37.1911 34.0259
8058 1 26.1129 35.6085 35.6085
8059 1 27.6955 37.1911 37.1911
8060 1 26.1129 38.7737 13.4521
8061 1 27.6955 40.3563 15.0347
8062 1 26.1129 38.7737 16.6173
8063 1 27.6955 40.3563 18.1999
8064 1 26.1129 38.7737 19.7825
8065 1 27.6955 40.3563 21.3651
8066 1 26.1129 38.7737 22.9477
8067 1 27.6955 40.3563 24.5303
8068 1 26.1129 38.7737 26.1129
8069 1 27.6955 40.3563 27.6955
8070 1 26.1129 38.7737 29.2781
8071 1 27.6955 40.3563 30.8607
8072 1 26.1129 38.7737 32.4433
8073 1 27.6955 40.3563 34.0259
8074 1 26.1129 38.7737 35.6085
8075 1 27.6955 40.3563 37.1911
8076 1 26.1129 41.9389 13.4521
8077 1 27.6955 43.5215 15.0347
8078 1 26.1129 41.9389 16.6173
8079 1 27.6955 43.5215 18.1999
8080 1 26.1129 41.9389 19.7825
8081 1 27.6955 43.5215 21.3651
8082 1 26.1129 41.9389 22.9477
8083 1 27.6955 43.5215 24.5303
8084 1 26.1129 41.9389 26.1129
8085 1 27.6955 43.5215 27.6955
8086 1 26.1129 41.9389 29.2781
8087 1 27.6955 43.5215 30.8607
8088 1 26.1129 41.9389 32.4433
8089 1 27.6955 43.5215 34.0259
8090 1 26.1129 41.9389 35.6085
8091 1 27.6955 43.5215 37.1911
8092 1 26.1129 45.1041 13.4521
8093 1 27.6955 46.6867 15.0347
8094 1 26.1129 45.1041 16.6173
8095 1 27.6955 46.6867 18.1999
8096 1 26.1129 45.1041 19.7825
8097 1 27.6955 46.6867 21.3651
8098 1 26.1129 45.1041 22.9477
8099 1 27.6955 46.6867 24.5303
8100 1 26.1129 45.1041 26.1129
8101 1 27.6955 46.6867 27.6955
8102 1 26.1129 45.1041 29.2781
8103 1 27.6955 46.6867 30.8607
8104 1 26.1129 45.1041 32.4433
8105 1 27.6955 46.6867 34.0259
8106 1 26.1129 45.1041 35.6085
8107 1 27.6955 46.6867 37.1911
8108 1 26.1129 48.2693 13.4521
8109 1 27.6955 49.8519 15.0347
8110 1 26.1129 48.2693 16.6173
8111 1 27.6955 49.8519 18.1999
8112 1 26.1129 48.2693 19.7825
8113 1 27.6955 49.8519 21.3651
8114 1 26.1129 48.2693 22.9477
8115 1 27.6955 49.8519 24.5303
8116 1 26.1129 48.2693 26.1129
8117 1 27.6955 49.8519 27.6955
8118 1 26.1129 48.2693 29.2781
8119 1 27.6955 49.8519 30.8607
8120 1 26.1129 48.2693 32.4433
8121 1 27.6955 49.8519 34.0259
8122 1 26.1129 48.2693 35.6085
8123 1 27.6955 49.8519 37.1911
8124 1 29.2781 35.6085 13.4521
8125 1 30.8607 37.1911 15.0347
8126 1 29.2781 35.6085 16.6173
8127 1 30.8607 37.1911 18.1999
8128 1 29.2781 35.6085 19.7825
8129 1 30.8607 37.1911 21.3651
8130 1 29.2781 35.6085 22.9477
8131 1 30.8607 37.1911 24.5303
8132 1 29.2781 35.6085 26.1129
8133 1 30.8607 37.1911 27.6955
8134 1 29.2781 35.6085 29.2781
8135 1 30.8607 37.1911 30.8607
8136 1 29.2781 35.6085 32.4433
8137 1 30.8607 37.1911 34.0259
8138 1 29.2781 35.6085 35.6085
8139 1 30.8607 37.1911 37.1911
8140 1 29.2781 38.7737 13.4521
8141 1 30.8607 40.3563 15.0347
8142 1 29.2781 38.7737 16.6173
8143 1 30.8607 40.3563 18.1999
8144 1 29.2781 38.7737 19.7825
8145 1 30.8607 40.3563 21.3651
8146 1 29.2781 38.7737 22.9477
8147 1 30.8607 40.3563 24.5303
8148 1 29.2781 38.7737 26.1129
8149 1 30.8607 40.3563 27.6955
8150 1 29.2781 38.7737 29.2781
8151 1 30.8607 40.3563 30.8607
8152 1 29.2781 38.7737 32.4433
8153 1 30.8607 40.3563 34.0259
8154 1 29.2781 38.7737 35.6085
8155 1 30.8607 40.3563 37.1911
8156 1 29.2781 41.9389 13.4521
8157 1 30.8607 43.5215 15.0347
8158 1 29.2781 41.9389 16.6173
8159 1 30.8607 43.5215 18.1999
8160 1 29.2781 41.9389 19.7825
8161 1 30.8607 43.5215 21.3651
8162 1 29.2781 41.9389 22.9477
8163 1 30.8607 43.5215 24.5303
8164 1 29.2781 41.9389 26.1129
8165 1 30.8607 43.5215 27.6955
8166 1 29.2781 41.9389 29.2781
8167 1 30.8607 43.5215 30.8607
8168 1 29.2781 41.9389 32.4433
8169 1 30.8607 43.5215 34.0259
8170 1 29.2781 41.9389 35.6085
8171 1 30.8607 43.5215 37.1911
8172 1 29.2781 45.1041 13.4521
8173 1 30.8607 46.6867 15.0347
8174 1 29.2781 45.1041 16.6173
8175 1 30.8607 46.6867 18.1999
8176 1 29.2781 45.1041 19.7825
8177 1 30.8607 46.6867 21.3651
8178 1 29.2781 45.1041 22.9477
8179 1 30.8607 46.6867 24.5303
8180 1 29.2781 45.1041 26.1129
8181 1 30.8607 46.6867 27.6955
8182 1 29.2781 45.1041 29.2781
8183 1 30.8607 46.6867 30.8607
8184 1 29.2781 45.1041 32.4433
8185 1 30.8607 46.6867 34.0259
8186 1 29.2781 45.1041 35.6085
8187 1 30.8607 46.6867 37.1911
8188 1 29.2781 48.2693 13.4521
8189 1 30.8607 49.8519 15.0347
8190 1 29.2781 48.2693 16.6173
8191 1 30.8607 49.8519 18.1999
8192 1 29.2781 48.2693 19.7825
8193 1 30.8607 49.8519 21.3651
8194 1 29.2781 48.2693 22.9477
8195 1 30.8607 49.8519 24.5303
8196 1 29.2781 48.2693 26.1129
8197 1 30.8607 49.8519 27.6955
8198 1 29.2781 48.2693 29.2781
8199 1 30.8607 49.8519 30.8607
8200 1 29.2781 48.2693 32.4433
8201 1 30.8607 49.8519 34.0259
8202 1 29.2781 48.2693 35.6085
8203 1 30.8607 49.8519 37.1911
