./desired/Juslin/6_5/29_18/cluster.dat


8198 atoms
0 bonds
0 angles
0 dihedrals
0 impropers

2 atom types
0 bond types
0 angle types
0 dihedral types
0 improper types


0.000      50.6432 xlo xhi
0.000      50.6432 ylo yhi
0.000      50.6432 zlo zhi


Atoms

1 1 16.6216 26.1501 16.6181
2 1 16.6173 16.6173 16.6173
3 1 18.1937 18.1824 18.1775
4 1 16.6228 16.6162 19.7912
5 1 16.6178 16.6215 22.9645
6 1 16.6157 16.6305 26.1395
7 1 16.6102 16.6075 29.324
8 1 16.5863 16.592 32.5133
9 1 16.6043 19.7876 16.5959
10 1 18.1429 21.3314 18.1244
11 1 16.5794 19.7606 19.7468
12 1 18.1212 21.3135 21.3068
13 1 16.5905 19.7726 22.9426
14 1 16.5898 19.7798 26.1334
15 1 16.5361 19.7332 29.3702
16 1 16.5544 19.7422 32.5498
17 1 16.6226 22.9764 16.6103
18 1 16.5735 22.9506 19.7471
19 1 16.5477 22.9167 22.9165
20 1 16.5204 22.9106 26.171
21 1 16.5422 22.9231 29.3628
22 1 16.5631 22.9375 32.5413
23 1 18.1993 24.5585 18.1913
24 1 16.5981 26.1487 19.7784
25 1 16.5466 26.1659 22.9443
26 1 16.5258 26.1665 26.1558
27 1 16.5393 26.1533 29.3794
28 1 16.6061 26.1351 32.5052
29 1 16.6247 29.3093 16.6123
30 1 16.6108 29.3258 19.782
31 1 16.5795 29.3424 22.9351
32 1 16.5829 29.3308 26.1541
33 1 16.5695 29.3411 29.3522
34 1 16.5836 29.3452 32.5282
35 1 16.6302 32.486 16.6342
36 1 16.6352 32.5018 19.7844
37 1 16.6263 32.4692 22.9628
38 1 16.6374 32.4798 26.1434
39 1 16.6295 32.4888 29.3098
40 1 16.6217 32.5145 32.5005
41 1 19.8082 16.6303 16.6181
42 1 19.7919 16.6133 19.7785
43 1 21.3728 18.192 21.3548
44 1 19.7972 16.6334 22.9702
45 1 19.7887 16.6471 26.1428
46 1 19.7779 16.608 29.3258
47 1 19.7553 16.5768 32.5269
48 1 19.7973 19.7854 16.5957
49 1 19.7519 19.7282 19.7227
50 1 21.2787 21.2348 21.2049
51 1 18.1801 18.1852 21.3552
52 1 19.7559 19.7577 22.9173
53 1 18.1981 18.2117 24.5519
54 1 19.7718 19.8331 26.1214
55 1 18.1789 18.1954 27.7272
56 1 19.6713 19.6517 29.4459
57 1 18.1155 18.1269 30.9767
58 1 19.7312 19.7249 32.5679
59 1 18.1633 18.1665 34.1218
60 1 19.7942 22.9669 16.6102
61 1 19.6633 22.8463 19.6347
62 1 21.2056 24.3354 21.0421
63 1 19.6819 22.8709 22.7375
64 1 20.5868 24.4028 24.5772
65 1 18.1508 21.3533 24.4713
66 1 19.3421 22.8619 26.2733
67 1 18.0657 21.2387 27.8254
68 1 19.6115 22.728 29.4056
69 1 18.0926 21.2854 31.0004
70 1 19.6236 22.8045 32.6436
71 1 18.121 21.3015 34.1778
72 1 19.8009 26.1441 16.6332
73 1 18.112 24.518 21.3179
74 1 19.7682 26.1751 19.8061
75 1 17.9409 24.5125 24.5464
76 1 19.3768 26.1411 22.976
77 1 17.9783 24.5412 27.813
78 1 19.3131 26.1623 26.1422
79 1 18.1421 24.4883 30.9523
80 1 19.5845 26.2291 29.5724
81 1 21.0196 24.2032 31.0542
82 1 19.7869 26.1575 32.4952
83 1 18.1776 24.5628 34.1032
84 1 19.811 29.3181 16.6262
85 1 18.2051 27.7412 18.1947
86 1 19.7775 29.356 19.7631
87 1 18.1411 27.7886 21.3022
88 1 19.724 29.3628 22.8973
89 1 18.1015 27.8207 24.5555
90 1 19.7528 29.3145 26.1597
91 1 18.0952 27.7763 27.8173
92 1 19.7077 29.4316 29.3845
93 1 18.1082 27.8156 31.0068
94 1 19.7357 29.3708 32.5599
95 1 18.184 27.7337 34.0992
96 1 19.8123 32.4731 16.6285
97 1 18.2238 30.9077 18.1979
98 1 19.8103 32.4952 19.7912
99 1 18.1991 30.9204 21.3567
100 1 19.8099 32.4736 22.9779
101 1 18.2051 30.9084 24.5461
102 1 19.8215 32.4707 26.1434
103 1 18.1932 30.9151 27.7189
104 1 19.8078 32.5015 29.3081
105 1 18.1676 30.9554 30.9495
106 1 19.7763 32.5274 32.507
107 1 18.1967 30.9331 34.0997
108 1 18.2299 34.0693 18.2158
109 1 18.2317 34.0665 21.3823
110 1 18.2245 34.0594 24.5436
111 1 18.2294 34.0649 27.7261
112 1 18.2258 34.0881 30.8852
113 1 18.2306 34.0839 34.0569
114 1 22.9743 16.6347 16.6238
115 1 22.9694 16.6224 19.7896
116 1 22.9714 16.65 22.9703
117 1 22.9658 16.6911 26.1403
118 1 22.9545 16.6225 29.3286
119 1 22.9692 16.6124 32.5035
120 1 22.9804 19.7948 16.6038
121 1 21.3756 18.187 18.1864
122 1 22.9654 19.76 19.7419
123 1 22.9512 19.7746 22.8979
124 1 24.5547 21.4611 24.3004
125 1 21.3696 18.2489 24.5498
126 1 22.9529 19.9337 26.1082
127 1 21.3605 18.2231 27.7535
128 1 22.8726 19.6262 29.4989
129 1 21.3292 18.1399 30.9702
130 1 22.9454 19.7769 32.5468
131 1 21.3652 18.2002 34.105
132 1 22.9759 22.9708 16.6298
133 1 21.3684 21.3668 18.1671
134 1 22.9962 22.9214 19.7217
135 1 22.8716 22.8717 22.5882
136 2 23.1884 24.3379 24.6092
137 1 21.3337 21.3788 24.3481
138 2 21.9869 22.893 26.3994
139 1 21.2415 21.0752 27.9869
140 1 22.813 22.7689 29.4531
141 1 21.2766 21.2668 31.0415
142 1 22.9539 22.9838 32.4774
143 1 21.3624 21.363 34.0981
144 1 22.9829 26.1462 16.6671
145 1 21.3705 24.5435 18.2117
146 1 22.9689 26.1285 19.8817
147 2 21.9377 25.8734 22.8997
148 2 24.2875 26.4542 23.3888
149 2 21.9099 26.0799 26.0806
150 2 24.4494 26.1849 25.9667
151 1 20.6634 24.5683 27.9124
152 2 23.5237 27.3292 28.1981
153 1 22.5481 25.9362 30.0017
154 1 22.9498 26.1425 32.6079
155 1 21.3485 24.5346 34.089
156 1 22.9798 29.3193 16.6378
157 1 21.3974 27.7233 18.2217
158 1 22.9905 29.355 19.7644
159 1 21.3735 27.8639 21.3087
160 1 23.094 29.295 22.969
161 1 21.2947 27.9315 24.4268
162 1 22.9205 29.1519 26.256
163 1 20.9871 27.7569 27.8986
164 1 22.9392 29.4818 29.4059
165 1 21.2734 27.9513 30.9893
166 1 22.9669 29.3495 32.5523
167 1 21.3566 27.7398 34.0946
168 1 22.9894 32.4837 16.6252
169 1 21.3997 30.9114 18.2161
170 1 22.9959 32.502 19.7893
171 1 21.4007 30.9047 21.3932
172 1 22.985 32.4895 22.9614
173 1 21.4219 30.868 24.5581
174 1 22.9907 32.44 26.1574
175 1 21.3881 30.8775 27.7392
176 1 22.9881 32.484 29.3088
177 1 21.3582 30.9639 30.9521
178 1 22.9867 32.5086 32.4889
179 1 21.3766 30.9323 34.1018
180 1 21.3977 34.0704 18.2179
181 1 21.3927 34.0722 21.3885
182 1 21.4129 34.0445 24.5514
183 1 21.4016 34.0592 27.7138
184 1 21.3947 34.0931 30.8843
185 1 21.3874 34.0669 34.0612
186 1 26.1567 16.6324 16.6222
187 1 26.1519 16.6261 19.7871
188 1 26.1393 16.649 22.9719
189 1 26.1296 16.7005 26.1445
190 1 26.1384 16.631 29.3215
191 1 26.1426 16.6249 32.498
192 1 26.1559 19.7983 16.6108
193 1 27.751 21.3848 18.1864
194 1 24.5696 18.2082 18.1919
195 1 26.169 19.7677 19.7439
196 1 24.5575 18.2026 21.3554
197 1 26.1654 19.767 22.9208
198 1 24.5536 18.2786 24.5579
199 1 26.1099 19.9569 26.1416
200 1 24.5368 18.2461 27.7425
201 1 26.191 19.6827 29.4149
202 1 24.5558 18.1671 30.956
203 1 26.1458 19.7939 32.5149
204 1 24.5479 18.2181 34.0916
205 1 26.1575 22.9825 16.6275
206 1 24.5789 21.3704 18.1675
207 1 26.1725 22.9664 19.7722
208 1 24.5761 21.3073 21.2483
209 1 26.2815 22.7919 22.6773
210 2 24.5183 22.9711 26.3859
211 2 25.7812 24.8169 27.7125
212 1 24.4653 21.0676 28.0507
213 1 26.1723 22.8033 29.2777
214 1 24.5384 21.3368 30.9543
215 1 26.139 22.9823 32.4585
216 1 24.5454 21.391 34.0771
217 1 26.1519 26.1498 16.6481
218 1 24.5697 24.5713 18.2573
219 1 26.1963 26.1527 19.8377
220 1 24.5886 24.5949 21.4951
221 1 26.8272 26.3041 22.9386
222 2 25.7164 24.4303 24.5063
223 1 27.0766 26.2277 25.9328
224 2 23.2683 24.7002 27.8464
225 1 26.322 26.5025 29.5001
226 1 24.6634 24.5456 30.725
227 1 26.1542 26.1677 32.4598
228 1 24.5675 24.5518 34.0425
229 1 26.1581 29.331 16.6181
230 1 24.5722 27.7298 18.2187
231 1 26.2096 29.3864 19.7187
232 1 24.6399 27.8053 21.276
233 1 26.2939 29.4285 22.796
234 1 25.0364 28.4364 24.7728
235 1 26.6932 29.9653 25.9819
236 2 25.7825 28.0625 27.3338
237 1 26.1883 29.3798 29.5012
238 1 24.4475 27.7617 30.9551
239 1 26.1558 29.3322 32.5037
240 1 24.559 27.7348 34.087
241 1 26.1587 32.5022 16.6231
242 1 24.5775 30.9195 18.1985
243 1 26.1681 32.5257 19.7739
244 1 24.5954 30.9529 21.3513
245 1 26.1559 32.5755 22.9068
246 1 24.6191 31.041 24.5283
247 1 26.1882 32.5934 26.1322
248 1 24.6388 30.8324 27.7109
249 1 26.1636 32.5222 29.3313
250 1 24.5678 30.9579 30.9519
251 1 26.162 32.5123 32.4956
252 1 24.5664 30.9158 34.0781
253 1 24.5786 34.0886 18.2047
254 1 24.5769 34.0957 21.3723
255 1 24.5777 34.0907 24.5476
256 1 24.5803 34.0588 27.7239
257 1 24.573 34.0816 30.8912
258 1 24.5701 34.0735 34.0798
259 1 29.3173 16.637 16.6258
260 1 29.334 16.6236 19.7922
261 1 29.3237 16.6379 22.9724
262 1 29.3187 16.6572 26.1399
263 1 29.3233 16.6388 29.3177
264 1 29.3307 16.6282 32.4975
265 1 29.3412 19.8053 16.615
266 1 27.7501 18.2075 18.202
267 1 29.3788 19.7502 19.7275
268 1 27.7461 18.1994 21.3655
269 1 29.3616 19.7588 22.9254
270 1 27.7344 18.2491 24.5521
271 1 29.3214 19.8399 26.1275
272 1 27.7308 18.2303 27.7303
273 1 29.3821 19.7374 29.3746
274 1 27.7635 18.184 30.9405
275 1 29.3274 19.7963 32.5027
276 1 27.7403 18.2196 34.0829
277 1 29.323 22.9757 16.6273
278 1 29.3735 22.9545 19.7509
279 1 29.4622 22.8301 22.814
280 1 27.8282 21.2764 21.2419
281 1 27.7914 21.3299 24.3829
282 1 27.0353 22.9974 26.2311
283 1 29.6883 22.9661 26.1612
284 1 27.8048 21.2063 27.8854
285 1 29.3828 22.8909 29.3469
286 1 27.7491 21.3536 30.9386
287 1 29.3206 22.9821 32.4852
288 1 27.7207 21.3977 34.0739
289 1 29.336 26.1546 16.6245
290 1 27.7569 24.5691 18.2086
291 1 29.37 26.1635 19.7772
292 1 27.8343 24.5188 21.3295
293 1 29.512 26.2736 22.9084
294 1 28.3441 24.5074 24.4174
295 1 29.6928 26.2202 26.0814
296 1 28.3282 24.6863 27.7908
297 1 29.5114 26.2197 29.4991
298 1 27.7602 24.5737 30.842
299 1 29.3457 26.148 32.5076
300 1 27.729 24.5676 34.0469
301 1 29.3401 29.3327 16.6083
302 1 27.7625 27.7456 18.1955
303 1 29.406 29.3835 19.7099
304 1 27.8778 27.874 21.2358
305 1 29.5208 29.4514 22.8044
306 1 27.9746 28.112 24.4659
307 1 29.5061 29.4533 26.1372
308 1 28.2882 27.8048 27.7702
309 1 29.4728 29.4032 29.4226
310 1 27.8909 27.8611 31.0006
311 1 29.3894 29.3818 32.5774
312 1 27.7434 27.7406 34.0858
313 1 29.3401 32.508 16.6021
314 1 27.7644 30.9356 18.1805
315 1 29.3762 32.5465 19.73
316 1 27.8416 31.019 21.2743
317 1 29.5082 32.6468 22.8093
318 1 27.9965 31.1288 24.1879
319 1 29.3206 32.4765 26.1504
320 1 27.8574 30.9349 28.0097
321 1 29.4 32.5896 29.3834
322 1 27.7874 30.9688 30.975
323 1 29.355 32.5203 32.5083
324 1 27.7464 30.917 34.0814
325 1 27.7481 34.1017 18.1936
326 1 27.7662 34.1179 21.356
327 1 27.7823 34.0942 24.5318
328 1 27.7704 34.0976 27.7325
329 1 27.7648 34.0949 30.9077
330 1 27.7406 34.0752 34.0782
331 1 32.5085 16.6357 16.6289
332 1 32.5031 16.6254 19.8048
333 1 32.4966 16.6366 22.9687
334 1 32.4941 16.6482 26.1496
335 1 32.4965 16.6401 29.3124
336 1 32.4937 16.6386 32.489
337 1 32.4983 19.8087 16.6215
338 1 30.931 18.205 18.1996
339 1 32.5385 19.7736 19.7626
340 1 30.9337 18.1947 21.3682
341 1 32.5299 19.7871 22.9607
342 1 30.9141 18.2195 24.5567
343 1 32.5096 19.8042 26.1391
344 1 30.9134 18.2211 27.7241
345 1 32.5295 19.7903 29.3333
346 1 30.9351 18.1976 30.9302
347 1 32.5065 19.8031 32.497
348 1 30.9125 18.2217 34.0771
349 1 32.5076 22.9781 16.6277
350 1 30.9367 21.3803 18.1921
351 1 32.5281 22.9799 19.779
352 1 30.993 21.3356 21.3134
353 1 32.5566 22.9656 22.9437
354 1 30.9814 21.3512 24.5097
355 1 32.5561 22.9763 26.1392
356 1 30.9784 21.3564 27.7584
357 1 32.5362 22.9622 29.3295
358 1 30.9397 21.3664 30.9336
359 1 32.5098 22.9764 32.5005
360 1 30.9073 21.3991 34.0763
361 1 32.5078 26.1557 16.6221
362 1 30.9317 24.5716 18.1999
363 1 32.5319 26.1484 19.7755
364 1 30.958 24.5605 21.3602
365 1 32.5788 26.1677 22.935
366 1 31.085 24.5703 24.4872
367 1 32.5863 26.1748 26.1357
368 1 31.0592 24.5838 27.769
369 1 32.5695 26.1808 29.3506
370 1 30.9471 24.5517 30.9264
371 1 32.516 26.1462 32.4979
372 1 30.9012 24.5696 34.0736
373 1 32.5082 29.3333 16.6111
374 1 30.941 27.7397 18.1923
375 1 32.5595 29.3483 19.7498
376 1 31.034 27.7922 21.2973
377 1 32.5811 29.3747 22.9296
378 1 31.062 27.8283 24.5111
379 1 32.5642 29.3612 26.1418
380 1 31.0526 27.7931 27.7664
381 1 32.572 29.3587 29.3418
382 1 31.0213 27.7773 30.9648
383 1 32.5484 29.3492 32.5305
384 1 30.9267 27.7407 34.0968
385 1 32.5189 32.507 16.6081
386 1 30.9661 30.948 18.1613
387 1 32.5551 32.5417 19.7497
388 1 31.0029 30.9778 21.3062
389 1 32.5615 32.5376 22.9385
390 1 30.9866 30.9803 24.502
391 1 32.5267 32.5184 26.134
392 1 30.9876 30.9578 27.761
393 1 32.5364 32.5202 29.3283
394 1 30.9868 30.9762 30.9594
395 1 32.5249 32.5161 32.506
396 1 30.9307 30.9267 34.1068
397 1 30.9469 34.1146 18.1739
398 1 31.0149 34.1868 21.2954
399 1 30.9477 34.099 24.5557
400 1 30.9304 34.0902 27.7244
401 1 30.9456 34.1076 30.9221
402 1 30.9242 34.0901 34.0922
403 1 34.1015 18.2223 18.2053
404 1 34.0936 18.2188 21.383
405 1 34.0872 18.2201 24.5572
406 1 34.0836 18.221 27.733
407 1 34.0875 18.2202 30.9054
408 1 34.0779 18.2265 34.0807
409 1 34.0939 21.3902 18.2133
410 1 34.1173 21.3739 21.3747
411 1 34.1101 21.3848 24.5521
412 1 34.1075 21.3914 27.7403
413 1 34.0935 21.3965 30.9089
414 1 34.0764 21.3959 34.079
415 1 34.0959 24.5605 18.2157
416 1 34.1194 24.5682 21.3714
417 1 34.1332 24.5723 24.5496
418 1 34.1339 24.5641 27.7301
419 1 34.1116 24.5641 30.9175
420 1 34.08 24.5662 34.0787
421 1 34.1076 27.7483 18.2027
422 1 34.1319 27.7562 21.361
423 1 34.1401 27.7615 24.544
424 1 34.1325 27.7564 27.7346
425 1 34.1196 27.7575 30.9242
426 1 34.0925 27.739 34.0828
427 1 34.1093 30.9226 18.1931
428 1 34.1294 30.9389 21.3648
429 1 34.1297 30.933 24.5475
430 1 34.1203 30.9302 27.7313
431 1 34.1164 30.9208 30.9168
432 1 34.0973 30.9139 34.0892
433 1 34.1052 34.1004 18.1996
434 1 34.1165 34.0995 21.3647
435 1 34.1006 34.0953 24.5505
436 1 34.0975 34.0836 27.7283
437 1 34.0994 34.0995 30.9022
438 1 34.0862 34.0879 34.0795
439 1 0.7913 0.7913 0.7913
440 1 2.3739 2.3739 2.3739
441 1 0.7913 0.7913 3.9565
442 1 2.3739 2.3739 5.5391
443 1 0.7913 0.7913 7.1217
444 1 2.3739 2.3739 8.7043
445 1 0.7913 0.7913 10.2869
446 1 2.3739 2.3739 11.8695
447 1 0.7913 0.7913 13.4521
448 1 2.3739 2.3739 15.0347
449 1 0.7913 0.7913 16.6173
450 1 2.3739 2.3739 18.1999
451 1 0.7913 0.7913 19.7825
452 1 2.3739 2.3739 21.3651
453 1 0.7913 0.7913 22.9477
454 1 2.3739 2.3739 24.5303
455 1 0.7913 0.7913 26.1129
456 1 2.3739 2.3739 27.6955
457 1 0.7913 0.7913 29.2781
458 1 2.3739 2.3739 30.8607
459 1 0.7913 0.7913 32.4433
460 1 2.3739 2.3739 34.0259
461 1 0.7913 0.7913 35.6085
462 1 2.3739 2.3739 37.1911
463 1 0.7913 0.7913 38.7737
464 1 2.3739 2.3739 40.3563
465 1 0.7913 0.7913 41.9389
466 1 2.3739 2.3739 43.5215
467 1 0.7913 0.7913 45.1041
468 1 2.3739 2.3739 46.6867
469 1 0.7913 0.7913 48.2693
470 1 2.3739 2.3739 49.8519
471 1 0.7913 3.9565 0.7913
472 1 2.3739 5.5391 2.3739
473 1 0.7913 3.9565 3.9565
474 1 2.3739 5.5391 5.5391
475 1 0.7913 3.9565 7.1217
476 1 2.3739 5.5391 8.7043
477 1 0.7913 3.9565 10.2869
478 1 2.3739 5.5391 11.8695
479 1 0.7913 3.9565 13.4521
480 1 2.3739 5.5391 15.0347
481 1 0.7913 3.9565 16.6173
482 1 2.3739 5.5391 18.1999
483 1 0.7913 3.9565 19.7825
484 1 2.3739 5.5391 21.3651
485 1 0.7913 3.9565 22.9477
486 1 2.3739 5.5391 24.5303
487 1 0.7913 3.9565 26.1129
488 1 2.3739 5.5391 27.6955
489 1 0.7913 3.9565 29.2781
490 1 2.3739 5.5391 30.8607
491 1 0.7913 3.9565 32.4433
492 1 2.3739 5.5391 34.0259
493 1 0.7913 3.9565 35.6085
494 1 2.3739 5.5391 37.1911
495 1 0.7913 3.9565 38.7737
496 1 2.3739 5.5391 40.3563
497 1 0.7913 3.9565 41.9389
498 1 2.3739 5.5391 43.5215
499 1 0.7913 3.9565 45.1041
500 1 2.3739 5.5391 46.6867
501 1 0.7913 3.9565 48.2693
502 1 2.3739 5.5391 49.8519
503 1 0.7913 7.1217 0.7913
504 1 2.3739 8.7043 2.3739
505 1 0.7913 7.1217 3.9565
506 1 2.3739 8.7043 5.5391
507 1 0.7913 7.1217 7.1217
508 1 2.3739 8.7043 8.7043
509 1 0.7913 7.1217 10.2869
510 1 2.3739 8.7043 11.8695
511 1 0.7913 7.1217 13.4521
512 1 2.3739 8.7043 15.0347
513 1 0.7913 7.1217 16.6173
514 1 2.3739 8.7043 18.1999
515 1 0.7913 7.1217 19.7825
516 1 2.3739 8.7043 21.3651
517 1 0.7913 7.1217 22.9477
518 1 2.3739 8.7043 24.5303
519 1 0.7913 7.1217 26.1129
520 1 2.3739 8.7043 27.6955
521 1 0.7913 7.1217 29.2781
522 1 2.3739 8.7043 30.8607
523 1 0.7913 7.1217 32.4433
524 1 2.3739 8.7043 34.0259
525 1 0.7913 7.1217 35.6085
526 1 2.3739 8.7043 37.1911
527 1 0.7913 7.1217 38.7737
528 1 2.3739 8.7043 40.3563
529 1 0.7913 7.1217 41.9389
530 1 2.3739 8.7043 43.5215
531 1 0.7913 7.1217 45.1041
532 1 2.3739 8.7043 46.6867
533 1 0.7913 7.1217 48.2693
534 1 2.3739 8.7043 49.8519
535 1 0.7913 10.2869 0.7913
536 1 2.3739 11.8695 2.3739
537 1 0.7913 10.2869 3.9565
538 1 2.3739 11.8695 5.5391
539 1 0.7913 10.2869 7.1217
540 1 2.3739 11.8695 8.7043
541 1 0.7913 10.2869 10.2869
542 1 2.3739 11.8695 11.8695
543 1 0.7913 10.2869 13.4521
544 1 2.3739 11.8695 15.0347
545 1 0.7913 10.2869 16.6173
546 1 2.3739 11.8695 18.1999
547 1 0.7913 10.2869 19.7825
548 1 2.3739 11.8695 21.3651
549 1 0.7913 10.2869 22.9477
550 1 2.3739 11.8695 24.5303
551 1 0.7913 10.2869 26.1129
552 1 2.3739 11.8695 27.6955
553 1 0.7913 10.2869 29.2781
554 1 2.3739 11.8695 30.8607
555 1 0.7913 10.2869 32.4433
556 1 2.3739 11.8695 34.0259
557 1 0.7913 10.2869 35.6085
558 1 2.3739 11.8695 37.1911
559 1 0.7913 10.2869 38.7737
560 1 2.3739 11.8695 40.3563
561 1 0.7913 10.2869 41.9389
562 1 2.3739 11.8695 43.5215
563 1 0.7913 10.2869 45.1041
564 1 2.3739 11.8695 46.6867
565 1 0.7913 10.2869 48.2693
566 1 2.3739 11.8695 49.8519
567 1 0.7913 13.4521 0.7913
568 1 2.3739 15.0347 2.3739
569 1 0.7913 13.4521 3.9565
570 1 2.3739 15.0347 5.5391
571 1 0.7913 13.4521 7.1217
572 1 2.3739 15.0347 8.7043
573 1 0.7913 13.4521 10.2869
574 1 2.3739 15.0347 11.8695
575 1 0.7913 13.4521 13.4521
576 1 2.3739 15.0347 15.0347
577 1 0.7913 13.4521 16.6173
578 1 2.3739 15.0347 18.1999
579 1 0.7913 13.4521 19.7825
580 1 2.3739 15.0347 21.3651
581 1 0.7913 13.4521 22.9477
582 1 2.3739 15.0347 24.5303
583 1 0.7913 13.4521 26.1129
584 1 2.3739 15.0347 27.6955
585 1 0.7913 13.4521 29.2781
586 1 2.3739 15.0347 30.8607
587 1 0.7913 13.4521 32.4433
588 1 2.3739 15.0347 34.0259
589 1 0.7913 13.4521 35.6085
590 1 2.3739 15.0347 37.1911
591 1 0.7913 13.4521 38.7737
592 1 2.3739 15.0347 40.3563
593 1 0.7913 13.4521 41.9389
594 1 2.3739 15.0347 43.5215
595 1 0.7913 13.4521 45.1041
596 1 2.3739 15.0347 46.6867
597 1 0.7913 13.4521 48.2693
598 1 2.3739 15.0347 49.8519
599 1 0.7913 16.6173 0.7913
600 1 2.3739 18.1999 2.3739
601 1 0.7913 16.6173 3.9565
602 1 2.3739 18.1999 5.5391
603 1 0.7913 16.6173 7.1217
604 1 2.3739 18.1999 8.7043
605 1 0.7913 16.6173 10.2869
606 1 2.3739 18.1999 11.8695
607 1 0.7913 16.6173 13.4521
608 1 2.3739 18.1999 15.0347
609 1 0.7913 16.6173 16.6173
610 1 2.3739 18.1999 18.1999
611 1 0.7913 16.6173 19.7825
612 1 2.3739 18.1999 21.3651
613 1 0.7913 16.6173 22.9477
614 1 2.3739 18.1999 24.5303
615 1 0.7913 16.6173 26.1129
616 1 2.3739 18.1999 27.6955
617 1 0.7913 16.6173 29.2781
618 1 2.3739 18.1999 30.8607
619 1 0.7913 16.6173 32.4433
620 1 2.3739 18.1999 34.0259
621 1 0.7913 16.6173 35.6085
622 1 2.3739 18.1999 37.1911
623 1 0.7913 16.6173 38.7737
624 1 2.3739 18.1999 40.3563
625 1 0.7913 16.6173 41.9389
626 1 2.3739 18.1999 43.5215
627 1 0.7913 16.6173 45.1041
628 1 2.3739 18.1999 46.6867
629 1 0.7913 16.6173 48.2693
630 1 2.3739 18.1999 49.8519
631 1 0.7913 19.7825 0.7913
632 1 2.3739 21.3651 2.3739
633 1 0.7913 19.7825 3.9565
634 1 2.3739 21.3651 5.5391
635 1 0.7913 19.7825 7.1217
636 1 2.3739 21.3651 8.7043
637 1 0.7913 19.7825 10.2869
638 1 2.3739 21.3651 11.8695
639 1 0.7913 19.7825 13.4521
640 1 2.3739 21.3651 15.0347
641 1 0.7913 19.7825 16.6173
642 1 2.3739 21.3651 18.1999
643 1 0.7913 19.7825 19.7825
644 1 2.3739 21.3651 21.3651
645 1 0.7913 19.7825 22.9477
646 1 2.3739 21.3651 24.5303
647 1 0.7913 19.7825 26.1129
648 1 2.3739 21.3651 27.6955
649 1 0.7913 19.7825 29.2781
650 1 2.3739 21.3651 30.8607
651 1 0.7913 19.7825 32.4433
652 1 2.3739 21.3651 34.0259
653 1 0.7913 19.7825 35.6085
654 1 2.3739 21.3651 37.1911
655 1 0.7913 19.7825 38.7737
656 1 2.3739 21.3651 40.3563
657 1 0.7913 19.7825 41.9389
658 1 2.3739 21.3651 43.5215
659 1 0.7913 19.7825 45.1041
660 1 2.3739 21.3651 46.6867
661 1 0.7913 19.7825 48.2693
662 1 2.3739 21.3651 49.8519
663 1 0.7913 22.9477 0.7913
664 1 2.3739 24.5303 2.3739
665 1 0.7913 22.9477 3.9565
666 1 2.3739 24.5303 5.5391
667 1 0.7913 22.9477 7.1217
668 1 2.3739 24.5303 8.7043
669 1 0.7913 22.9477 10.2869
670 1 2.3739 24.5303 11.8695
671 1 0.7913 22.9477 13.4521
672 1 2.3739 24.5303 15.0347
673 1 0.7913 22.9477 16.6173
674 1 2.3739 24.5303 18.1999
675 1 0.7913 22.9477 19.7825
676 1 2.3739 24.5303 21.3651
677 1 0.7913 22.9477 22.9477
678 1 2.3739 24.5303 24.5303
679 1 0.7913 22.9477 26.1129
680 1 2.3739 24.5303 27.6955
681 1 0.7913 22.9477 29.2781
682 1 2.3739 24.5303 30.8607
683 1 0.7913 22.9477 32.4433
684 1 2.3739 24.5303 34.0259
685 1 0.7913 22.9477 35.6085
686 1 2.3739 24.5303 37.1911
687 1 0.7913 22.9477 38.7737
688 1 2.3739 24.5303 40.3563
689 1 0.7913 22.9477 41.9389
690 1 2.3739 24.5303 43.5215
691 1 0.7913 22.9477 45.1041
692 1 2.3739 24.5303 46.6867
693 1 0.7913 22.9477 48.2693
694 1 2.3739 24.5303 49.8519
695 1 0.7913 26.1129 0.7913
696 1 2.3739 27.6955 2.3739
697 1 0.7913 26.1129 3.9565
698 1 2.3739 27.6955 5.5391
699 1 0.7913 26.1129 7.1217
700 1 2.3739 27.6955 8.7043
701 1 0.7913 26.1129 10.2869
702 1 2.3739 27.6955 11.8695
703 1 0.7913 26.1129 13.4521
704 1 2.3739 27.6955 15.0347
705 1 0.7913 26.1129 16.6173
706 1 2.3739 27.6955 18.1999
707 1 0.7913 26.1129 19.7825
708 1 2.3739 27.6955 21.3651
709 1 0.7913 26.1129 22.9477
710 1 2.3739 27.6955 24.5303
711 1 0.7913 26.1129 26.1129
712 1 2.3739 27.6955 27.6955
713 1 0.7913 26.1129 29.2781
714 1 2.3739 27.6955 30.8607
715 1 0.7913 26.1129 32.4433
716 1 2.3739 27.6955 34.0259
717 1 0.7913 26.1129 35.6085
718 1 2.3739 27.6955 37.1911
719 1 0.7913 26.1129 38.7737
720 1 2.3739 27.6955 40.3563
721 1 0.7913 26.1129 41.9389
722 1 2.3739 27.6955 43.5215
723 1 0.7913 26.1129 45.1041
724 1 2.3739 27.6955 46.6867
725 1 0.7913 26.1129 48.2693
726 1 2.3739 27.6955 49.8519
727 1 0.7913 29.2781 0.7913
728 1 2.3739 30.8607 2.3739
729 1 0.7913 29.2781 3.9565
730 1 2.3739 30.8607 5.5391
731 1 0.7913 29.2781 7.1217
732 1 2.3739 30.8607 8.7043
733 1 0.7913 29.2781 10.2869
734 1 2.3739 30.8607 11.8695
735 1 0.7913 29.2781 13.4521
736 1 2.3739 30.8607 15.0347
737 1 0.7913 29.2781 16.6173
738 1 2.3739 30.8607 18.1999
739 1 0.7913 29.2781 19.7825
740 1 2.3739 30.8607 21.3651
741 1 0.7913 29.2781 22.9477
742 1 2.3739 30.8607 24.5303
743 1 0.7913 29.2781 26.1129
744 1 2.3739 30.8607 27.6955
745 1 0.7913 29.2781 29.2781
746 1 2.3739 30.8607 30.8607
747 1 0.7913 29.2781 32.4433
748 1 2.3739 30.8607 34.0259
749 1 0.7913 29.2781 35.6085
750 1 2.3739 30.8607 37.1911
751 1 0.7913 29.2781 38.7737
752 1 2.3739 30.8607 40.3563
753 1 0.7913 29.2781 41.9389
754 1 2.3739 30.8607 43.5215
755 1 0.7913 29.2781 45.1041
756 1 2.3739 30.8607 46.6867
757 1 0.7913 29.2781 48.2693
758 1 2.3739 30.8607 49.8519
759 1 0.7913 32.4433 0.7913
760 1 2.3739 34.0259 2.3739
761 1 0.7913 32.4433 3.9565
762 1 2.3739 34.0259 5.5391
763 1 0.7913 32.4433 7.1217
764 1 2.3739 34.0259 8.7043
765 1 0.7913 32.4433 10.2869
766 1 2.3739 34.0259 11.8695
767 1 0.7913 32.4433 13.4521
768 1 2.3739 34.0259 15.0347
769 1 0.7913 32.4433 16.6173
770 1 2.3739 34.0259 18.1999
771 1 0.7913 32.4433 19.7825
772 1 2.3739 34.0259 21.3651
773 1 0.7913 32.4433 22.9477
774 1 2.3739 34.0259 24.5303
775 1 0.7913 32.4433 26.1129
776 1 2.3739 34.0259 27.6955
777 1 0.7913 32.4433 29.2781
778 1 2.3739 34.0259 30.8607
779 1 0.7913 32.4433 32.4433
780 1 2.3739 34.0259 34.0259
781 1 0.7913 32.4433 35.6085
782 1 2.3739 34.0259 37.1911
783 1 0.7913 32.4433 38.7737
784 1 2.3739 34.0259 40.3563
785 1 0.7913 32.4433 41.9389
786 1 2.3739 34.0259 43.5215
787 1 0.7913 32.4433 45.1041
788 1 2.3739 34.0259 46.6867
789 1 0.7913 32.4433 48.2693
790 1 2.3739 34.0259 49.8519
791 1 0.7913 35.6085 0.7913
792 1 2.3739 37.1911 2.3739
793 1 0.7913 35.6085 3.9565
794 1 2.3739 37.1911 5.5391
795 1 0.7913 35.6085 7.1217
796 1 2.3739 37.1911 8.7043
797 1 0.7913 35.6085 10.2869
798 1 2.3739 37.1911 11.8695
799 1 0.7913 35.6085 13.4521
800 1 2.3739 37.1911 15.0347
801 1 0.7913 35.6085 16.6173
802 1 2.3739 37.1911 18.1999
803 1 0.7913 35.6085 19.7825
804 1 2.3739 37.1911 21.3651
805 1 0.7913 35.6085 22.9477
806 1 2.3739 37.1911 24.5303
807 1 0.7913 35.6085 26.1129
808 1 2.3739 37.1911 27.6955
809 1 0.7913 35.6085 29.2781
810 1 2.3739 37.1911 30.8607
811 1 0.7913 35.6085 32.4433
812 1 2.3739 37.1911 34.0259
813 1 0.7913 35.6085 35.6085
814 1 2.3739 37.1911 37.1911
815 1 0.7913 35.6085 38.7737
816 1 2.3739 37.1911 40.3563
817 1 0.7913 35.6085 41.9389
818 1 2.3739 37.1911 43.5215
819 1 0.7913 35.6085 45.1041
820 1 2.3739 37.1911 46.6867
821 1 0.7913 35.6085 48.2693
822 1 2.3739 37.1911 49.8519
823 1 0.7913 38.7737 0.7913
824 1 2.3739 40.3563 2.3739
825 1 0.7913 38.7737 3.9565
826 1 2.3739 40.3563 5.5391
827 1 0.7913 38.7737 7.1217
828 1 2.3739 40.3563 8.7043
829 1 0.7913 38.7737 10.2869
830 1 2.3739 40.3563 11.8695
831 1 0.7913 38.7737 13.4521
832 1 2.3739 40.3563 15.0347
833 1 0.7913 38.7737 16.6173
834 1 2.3739 40.3563 18.1999
835 1 0.7913 38.7737 19.7825
836 1 2.3739 40.3563 21.3651
837 1 0.7913 38.7737 22.9477
838 1 2.3739 40.3563 24.5303
839 1 0.7913 38.7737 26.1129
840 1 2.3739 40.3563 27.6955
841 1 0.7913 38.7737 29.2781
842 1 2.3739 40.3563 30.8607
843 1 0.7913 38.7737 32.4433
844 1 2.3739 40.3563 34.0259
845 1 0.7913 38.7737 35.6085
846 1 2.3739 40.3563 37.1911
847 1 0.7913 38.7737 38.7737
848 1 2.3739 40.3563 40.3563
849 1 0.7913 38.7737 41.9389
850 1 2.3739 40.3563 43.5215
851 1 0.7913 38.7737 45.1041
852 1 2.3739 40.3563 46.6867
853 1 0.7913 38.7737 48.2693
854 1 2.3739 40.3563 49.8519
855 1 0.7913 41.9389 0.7913
856 1 2.3739 43.5215 2.3739
857 1 0.7913 41.9389 3.9565
858 1 2.3739 43.5215 5.5391
859 1 0.7913 41.9389 7.1217
860 1 2.3739 43.5215 8.7043
861 1 0.7913 41.9389 10.2869
862 1 2.3739 43.5215 11.8695
863 1 0.7913 41.9389 13.4521
864 1 2.3739 43.5215 15.0347
865 1 0.7913 41.9389 16.6173
866 1 2.3739 43.5215 18.1999
867 1 0.7913 41.9389 19.7825
868 1 2.3739 43.5215 21.3651
869 1 0.7913 41.9389 22.9477
870 1 2.3739 43.5215 24.5303
871 1 0.7913 41.9389 26.1129
872 1 2.3739 43.5215 27.6955
873 1 0.7913 41.9389 29.2781
874 1 2.3739 43.5215 30.8607
875 1 0.7913 41.9389 32.4433
876 1 2.3739 43.5215 34.0259
877 1 0.7913 41.9389 35.6085
878 1 2.3739 43.5215 37.1911
879 1 0.7913 41.9389 38.7737
880 1 2.3739 43.5215 40.3563
881 1 0.7913 41.9389 41.9389
882 1 2.3739 43.5215 43.5215
883 1 0.7913 41.9389 45.1041
884 1 2.3739 43.5215 46.6867
885 1 0.7913 41.9389 48.2693
886 1 2.3739 43.5215 49.8519
887 1 0.7913 45.1041 0.7913
888 1 2.3739 46.6867 2.3739
889 1 0.7913 45.1041 3.9565
890 1 2.3739 46.6867 5.5391
891 1 0.7913 45.1041 7.1217
892 1 2.3739 46.6867 8.7043
893 1 0.7913 45.1041 10.2869
894 1 2.3739 46.6867 11.8695
895 1 0.7913 45.1041 13.4521
896 1 2.3739 46.6867 15.0347
897 1 0.7913 45.1041 16.6173
898 1 2.3739 46.6867 18.1999
899 1 0.7913 45.1041 19.7825
900 1 2.3739 46.6867 21.3651
901 1 0.7913 45.1041 22.9477
902 1 2.3739 46.6867 24.5303
903 1 0.7913 45.1041 26.1129
904 1 2.3739 46.6867 27.6955
905 1 0.7913 45.1041 29.2781
906 1 2.3739 46.6867 30.8607
907 1 0.7913 45.1041 32.4433
908 1 2.3739 46.6867 34.0259
909 1 0.7913 45.1041 35.6085
910 1 2.3739 46.6867 37.1911
911 1 0.7913 45.1041 38.7737
912 1 2.3739 46.6867 40.3563
913 1 0.7913 45.1041 41.9389
914 1 2.3739 46.6867 43.5215
915 1 0.7913 45.1041 45.1041
916 1 2.3739 46.6867 46.6867
917 1 0.7913 45.1041 48.2693
918 1 2.3739 46.6867 49.8519
919 1 0.7913 48.2693 0.7913
920 1 2.3739 49.8519 2.3739
921 1 0.7913 48.2693 3.9565
922 1 2.3739 49.8519 5.5391
923 1 0.7913 48.2693 7.1217
924 1 2.3739 49.8519 8.7043
925 1 0.7913 48.2693 10.2869
926 1 2.3739 49.8519 11.8695
927 1 0.7913 48.2693 13.4521
928 1 2.3739 49.8519 15.0347
929 1 0.7913 48.2693 16.6173
930 1 2.3739 49.8519 18.1999
931 1 0.7913 48.2693 19.7825
932 1 2.3739 49.8519 21.3651
933 1 0.7913 48.2693 22.9477
934 1 2.3739 49.8519 24.5303
935 1 0.7913 48.2693 26.1129
936 1 2.3739 49.8519 27.6955
937 1 0.7913 48.2693 29.2781
938 1 2.3739 49.8519 30.8607
939 1 0.7913 48.2693 32.4433
940 1 2.3739 49.8519 34.0259
941 1 0.7913 48.2693 35.6085
942 1 2.3739 49.8519 37.1911
943 1 0.7913 48.2693 38.7737
944 1 2.3739 49.8519 40.3563
945 1 0.7913 48.2693 41.9389
946 1 2.3739 49.8519 43.5215
947 1 0.7913 48.2693 45.1041
948 1 2.3739 49.8519 46.6867
949 1 0.7913 48.2693 48.2693
950 1 2.3739 49.8519 49.8519
951 1 3.9565 0.7913 0.7913
952 1 5.5391 2.3739 2.3739
953 1 3.9565 0.7913 3.9565
954 1 5.5391 2.3739 5.5391
955 1 3.9565 0.7913 7.1217
956 1 5.5391 2.3739 8.7043
957 1 3.9565 0.7913 10.2869
958 1 5.5391 2.3739 11.8695
959 1 3.9565 0.7913 13.4521
960 1 5.5391 2.3739 15.0347
961 1 3.9565 0.7913 16.6173
962 1 5.5391 2.3739 18.1999
963 1 3.9565 0.7913 19.7825
964 1 5.5391 2.3739 21.3651
965 1 3.9565 0.7913 22.9477
966 1 5.5391 2.3739 24.5303
967 1 3.9565 0.7913 26.1129
968 1 5.5391 2.3739 27.6955
969 1 3.9565 0.7913 29.2781
970 1 5.5391 2.3739 30.8607
971 1 3.9565 0.7913 32.4433
972 1 5.5391 2.3739 34.0259
973 1 3.9565 0.7913 35.6085
974 1 5.5391 2.3739 37.1911
975 1 3.9565 0.7913 38.7737
976 1 5.5391 2.3739 40.3563
977 1 3.9565 0.7913 41.9389
978 1 5.5391 2.3739 43.5215
979 1 3.9565 0.7913 45.1041
980 1 5.5391 2.3739 46.6867
981 1 3.9565 0.7913 48.2693
982 1 5.5391 2.3739 49.8519
983 1 3.9565 3.9565 0.7913
984 1 5.5391 5.5391 2.3739
985 1 3.9565 3.9565 3.9565
986 1 5.5391 5.5391 5.5391
987 1 3.9565 3.9565 7.1217
988 1 5.5391 5.5391 8.7043
989 1 3.9565 3.9565 10.2869
990 1 5.5391 5.5391 11.8695
991 1 3.9565 3.9565 13.4521
992 1 5.5391 5.5391 15.0347
993 1 3.9565 3.9565 16.6173
994 1 5.5391 5.5391 18.1999
995 1 3.9565 3.9565 19.7825
996 1 5.5391 5.5391 21.3651
997 1 3.9565 3.9565 22.9477
998 1 5.5391 5.5391 24.5303
999 1 3.9565 3.9565 26.1129
1000 1 5.5391 5.5391 27.6955
1001 1 3.9565 3.9565 29.2781
1002 1 5.5391 5.5391 30.8607
1003 1 3.9565 3.9565 32.4433
1004 1 5.5391 5.5391 34.0259
1005 1 3.9565 3.9565 35.6085
1006 1 5.5391 5.5391 37.1911
1007 1 3.9565 3.9565 38.7737
1008 1 5.5391 5.5391 40.3563
1009 1 3.9565 3.9565 41.9389
1010 1 5.5391 5.5391 43.5215
1011 1 3.9565 3.9565 45.1041
1012 1 5.5391 5.5391 46.6867
1013 1 3.9565 3.9565 48.2693
1014 1 5.5391 5.5391 49.8519
1015 1 3.9565 7.1217 0.7913
1016 1 5.5391 8.7043 2.3739
1017 1 3.9565 7.1217 3.9565
1018 1 5.5391 8.7043 5.5391
1019 1 3.9565 7.1217 7.1217
1020 1 5.5391 8.7043 8.7043
1021 1 3.9565 7.1217 10.2869
1022 1 5.5391 8.7043 11.8695
1023 1 3.9565 7.1217 13.4521
1024 1 5.5391 8.7043 15.0347
1025 1 3.9565 7.1217 16.6173
1026 1 5.5391 8.7043 18.1999
1027 1 3.9565 7.1217 19.7825
1028 1 5.5391 8.7043 21.3651
1029 1 3.9565 7.1217 22.9477
1030 1 5.5391 8.7043 24.5303
1031 1 3.9565 7.1217 26.1129
1032 1 5.5391 8.7043 27.6955
1033 1 3.9565 7.1217 29.2781
1034 1 5.5391 8.7043 30.8607
1035 1 3.9565 7.1217 32.4433
1036 1 5.5391 8.7043 34.0259
1037 1 3.9565 7.1217 35.6085
1038 1 5.5391 8.7043 37.1911
1039 1 3.9565 7.1217 38.7737
1040 1 5.5391 8.7043 40.3563
1041 1 3.9565 7.1217 41.9389
1042 1 5.5391 8.7043 43.5215
1043 1 3.9565 7.1217 45.1041
1044 1 5.5391 8.7043 46.6867
1045 1 3.9565 7.1217 48.2693
1046 1 5.5391 8.7043 49.8519
1047 1 3.9565 10.2869 0.7913
1048 1 5.5391 11.8695 2.3739
1049 1 3.9565 10.2869 3.9565
1050 1 5.5391 11.8695 5.5391
1051 1 3.9565 10.2869 7.1217
1052 1 5.5391 11.8695 8.7043
1053 1 3.9565 10.2869 10.2869
1054 1 5.5391 11.8695 11.8695
1055 1 3.9565 10.2869 13.4521
1056 1 5.5391 11.8695 15.0347
1057 1 3.9565 10.2869 16.6173
1058 1 5.5391 11.8695 18.1999
1059 1 3.9565 10.2869 19.7825
1060 1 5.5391 11.8695 21.3651
1061 1 3.9565 10.2869 22.9477
1062 1 5.5391 11.8695 24.5303
1063 1 3.9565 10.2869 26.1129
1064 1 5.5391 11.8695 27.6955
1065 1 3.9565 10.2869 29.2781
1066 1 5.5391 11.8695 30.8607
1067 1 3.9565 10.2869 32.4433
1068 1 5.5391 11.8695 34.0259
1069 1 3.9565 10.2869 35.6085
1070 1 5.5391 11.8695 37.1911
1071 1 3.9565 10.2869 38.7737
1072 1 5.5391 11.8695 40.3563
1073 1 3.9565 10.2869 41.9389
1074 1 5.5391 11.8695 43.5215
1075 1 3.9565 10.2869 45.1041
1076 1 5.5391 11.8695 46.6867
1077 1 3.9565 10.2869 48.2693
1078 1 5.5391 11.8695 49.8519
1079 1 3.9565 13.4521 0.7913
1080 1 5.5391 15.0347 2.3739
1081 1 3.9565 13.4521 3.9565
1082 1 5.5391 15.0347 5.5391
1083 1 3.9565 13.4521 7.1217
1084 1 5.5391 15.0347 8.7043
1085 1 3.9565 13.4521 10.2869
1086 1 5.5391 15.0347 11.8695
1087 1 3.9565 13.4521 13.4521
1088 1 5.5391 15.0347 15.0347
1089 1 3.9565 13.4521 16.6173
1090 1 5.5391 15.0347 18.1999
1091 1 3.9565 13.4521 19.7825
1092 1 5.5391 15.0347 21.3651
1093 1 3.9565 13.4521 22.9477
1094 1 5.5391 15.0347 24.5303
1095 1 3.9565 13.4521 26.1129
1096 1 5.5391 15.0347 27.6955
1097 1 3.9565 13.4521 29.2781
1098 1 5.5391 15.0347 30.8607
1099 1 3.9565 13.4521 32.4433
1100 1 5.5391 15.0347 34.0259
1101 1 3.9565 13.4521 35.6085
1102 1 5.5391 15.0347 37.1911
1103 1 3.9565 13.4521 38.7737
1104 1 5.5391 15.0347 40.3563
1105 1 3.9565 13.4521 41.9389
1106 1 5.5391 15.0347 43.5215
1107 1 3.9565 13.4521 45.1041
1108 1 5.5391 15.0347 46.6867
1109 1 3.9565 13.4521 48.2693
1110 1 5.5391 15.0347 49.8519
1111 1 3.9565 16.6173 0.7913
1112 1 5.5391 18.1999 2.3739
1113 1 3.9565 16.6173 3.9565
1114 1 5.5391 18.1999 5.5391
1115 1 3.9565 16.6173 7.1217
1116 1 5.5391 18.1999 8.7043
1117 1 3.9565 16.6173 10.2869
1118 1 5.5391 18.1999 11.8695
1119 1 3.9565 16.6173 13.4521
1120 1 5.5391 18.1999 15.0347
1121 1 3.9565 16.6173 16.6173
1122 1 5.5391 18.1999 18.1999
1123 1 3.9565 16.6173 19.7825
1124 1 5.5391 18.1999 21.3651
1125 1 3.9565 16.6173 22.9477
1126 1 5.5391 18.1999 24.5303
1127 1 3.9565 16.6173 26.1129
1128 1 5.5391 18.1999 27.6955
1129 1 3.9565 16.6173 29.2781
1130 1 5.5391 18.1999 30.8607
1131 1 3.9565 16.6173 32.4433
1132 1 5.5391 18.1999 34.0259
1133 1 3.9565 16.6173 35.6085
1134 1 5.5391 18.1999 37.1911
1135 1 3.9565 16.6173 38.7737
1136 1 5.5391 18.1999 40.3563
1137 1 3.9565 16.6173 41.9389
1138 1 5.5391 18.1999 43.5215
1139 1 3.9565 16.6173 45.1041
1140 1 5.5391 18.1999 46.6867
1141 1 3.9565 16.6173 48.2693
1142 1 5.5391 18.1999 49.8519
1143 1 3.9565 19.7825 0.7913
1144 1 5.5391 21.3651 2.3739
1145 1 3.9565 19.7825 3.9565
1146 1 5.5391 21.3651 5.5391
1147 1 3.9565 19.7825 7.1217
1148 1 5.5391 21.3651 8.7043
1149 1 3.9565 19.7825 10.2869
1150 1 5.5391 21.3651 11.8695
1151 1 3.9565 19.7825 13.4521
1152 1 5.5391 21.3651 15.0347
1153 1 3.9565 19.7825 16.6173
1154 1 5.5391 21.3651 18.1999
1155 1 3.9565 19.7825 19.7825
1156 1 5.5391 21.3651 21.3651
1157 1 3.9565 19.7825 22.9477
1158 1 5.5391 21.3651 24.5303
1159 1 3.9565 19.7825 26.1129
1160 1 5.5391 21.3651 27.6955
1161 1 3.9565 19.7825 29.2781
1162 1 5.5391 21.3651 30.8607
1163 1 3.9565 19.7825 32.4433
1164 1 5.5391 21.3651 34.0259
1165 1 3.9565 19.7825 35.6085
1166 1 5.5391 21.3651 37.1911
1167 1 3.9565 19.7825 38.7737
1168 1 5.5391 21.3651 40.3563
1169 1 3.9565 19.7825 41.9389
1170 1 5.5391 21.3651 43.5215
1171 1 3.9565 19.7825 45.1041
1172 1 5.5391 21.3651 46.6867
1173 1 3.9565 19.7825 48.2693
1174 1 5.5391 21.3651 49.8519
1175 1 3.9565 22.9477 0.7913
1176 1 5.5391 24.5303 2.3739
1177 1 3.9565 22.9477 3.9565
1178 1 5.5391 24.5303 5.5391
1179 1 3.9565 22.9477 7.1217
1180 1 5.5391 24.5303 8.7043
1181 1 3.9565 22.9477 10.2869
1182 1 5.5391 24.5303 11.8695
1183 1 3.9565 22.9477 13.4521
1184 1 5.5391 24.5303 15.0347
1185 1 3.9565 22.9477 16.6173
1186 1 5.5391 24.5303 18.1999
1187 1 3.9565 22.9477 19.7825
1188 1 5.5391 24.5303 21.3651
1189 1 3.9565 22.9477 22.9477
1190 1 5.5391 24.5303 24.5303
1191 1 3.9565 22.9477 26.1129
1192 1 5.5391 24.5303 27.6955
1193 1 3.9565 22.9477 29.2781
1194 1 5.5391 24.5303 30.8607
1195 1 3.9565 22.9477 32.4433
1196 1 5.5391 24.5303 34.0259
1197 1 3.9565 22.9477 35.6085
1198 1 5.5391 24.5303 37.1911
1199 1 3.9565 22.9477 38.7737
1200 1 5.5391 24.5303 40.3563
1201 1 3.9565 22.9477 41.9389
1202 1 5.5391 24.5303 43.5215
1203 1 3.9565 22.9477 45.1041
1204 1 5.5391 24.5303 46.6867
1205 1 3.9565 22.9477 48.2693
1206 1 5.5391 24.5303 49.8519
1207 1 3.9565 26.1129 0.7913
1208 1 5.5391 27.6955 2.3739
1209 1 3.9565 26.1129 3.9565
1210 1 5.5391 27.6955 5.5391
1211 1 3.9565 26.1129 7.1217
1212 1 5.5391 27.6955 8.7043
1213 1 3.9565 26.1129 10.2869
1214 1 5.5391 27.6955 11.8695
1215 1 3.9565 26.1129 13.4521
1216 1 5.5391 27.6955 15.0347
1217 1 3.9565 26.1129 16.6173
1218 1 5.5391 27.6955 18.1999
1219 1 3.9565 26.1129 19.7825
1220 1 5.5391 27.6955 21.3651
1221 1 3.9565 26.1129 22.9477
1222 1 5.5391 27.6955 24.5303
1223 1 3.9565 26.1129 26.1129
1224 1 5.5391 27.6955 27.6955
1225 1 3.9565 26.1129 29.2781
1226 1 5.5391 27.6955 30.8607
1227 1 3.9565 26.1129 32.4433
1228 1 5.5391 27.6955 34.0259
1229 1 3.9565 26.1129 35.6085
1230 1 5.5391 27.6955 37.1911
1231 1 3.9565 26.1129 38.7737
1232 1 5.5391 27.6955 40.3563
1233 1 3.9565 26.1129 41.9389
1234 1 5.5391 27.6955 43.5215
1235 1 3.9565 26.1129 45.1041
1236 1 5.5391 27.6955 46.6867
1237 1 3.9565 26.1129 48.2693
1238 1 5.5391 27.6955 49.8519
1239 1 3.9565 29.2781 0.7913
1240 1 5.5391 30.8607 2.3739
1241 1 3.9565 29.2781 3.9565
1242 1 5.5391 30.8607 5.5391
1243 1 3.9565 29.2781 7.1217
1244 1 5.5391 30.8607 8.7043
1245 1 3.9565 29.2781 10.2869
1246 1 5.5391 30.8607 11.8695
1247 1 3.9565 29.2781 13.4521
1248 1 5.5391 30.8607 15.0347
1249 1 3.9565 29.2781 16.6173
1250 1 5.5391 30.8607 18.1999
1251 1 3.9565 29.2781 19.7825
1252 1 5.5391 30.8607 21.3651
1253 1 3.9565 29.2781 22.9477
1254 1 5.5391 30.8607 24.5303
1255 1 3.9565 29.2781 26.1129
1256 1 5.5391 30.8607 27.6955
1257 1 3.9565 29.2781 29.2781
1258 1 5.5391 30.8607 30.8607
1259 1 3.9565 29.2781 32.4433
1260 1 5.5391 30.8607 34.0259
1261 1 3.9565 29.2781 35.6085
1262 1 5.5391 30.8607 37.1911
1263 1 3.9565 29.2781 38.7737
1264 1 5.5391 30.8607 40.3563
1265 1 3.9565 29.2781 41.9389
1266 1 5.5391 30.8607 43.5215
1267 1 3.9565 29.2781 45.1041
1268 1 5.5391 30.8607 46.6867
1269 1 3.9565 29.2781 48.2693
1270 1 5.5391 30.8607 49.8519
1271 1 3.9565 32.4433 0.7913
1272 1 5.5391 34.0259 2.3739
1273 1 3.9565 32.4433 3.9565
1274 1 5.5391 34.0259 5.5391
1275 1 3.9565 32.4433 7.1217
1276 1 5.5391 34.0259 8.7043
1277 1 3.9565 32.4433 10.2869
1278 1 5.5391 34.0259 11.8695
1279 1 3.9565 32.4433 13.4521
1280 1 5.5391 34.0259 15.0347
1281 1 3.9565 32.4433 16.6173
1282 1 5.5391 34.0259 18.1999
1283 1 3.9565 32.4433 19.7825
1284 1 5.5391 34.0259 21.3651
1285 1 3.9565 32.4433 22.9477
1286 1 5.5391 34.0259 24.5303
1287 1 3.9565 32.4433 26.1129
1288 1 5.5391 34.0259 27.6955
1289 1 3.9565 32.4433 29.2781
1290 1 5.5391 34.0259 30.8607
1291 1 3.9565 32.4433 32.4433
1292 1 5.5391 34.0259 34.0259
1293 1 3.9565 32.4433 35.6085
1294 1 5.5391 34.0259 37.1911
1295 1 3.9565 32.4433 38.7737
1296 1 5.5391 34.0259 40.3563
1297 1 3.9565 32.4433 41.9389
1298 1 5.5391 34.0259 43.5215
1299 1 3.9565 32.4433 45.1041
1300 1 5.5391 34.0259 46.6867
1301 1 3.9565 32.4433 48.2693
1302 1 5.5391 34.0259 49.8519
1303 1 3.9565 35.6085 0.7913
1304 1 5.5391 37.1911 2.3739
1305 1 3.9565 35.6085 3.9565
1306 1 5.5391 37.1911 5.5391
1307 1 3.9565 35.6085 7.1217
1308 1 5.5391 37.1911 8.7043
1309 1 3.9565 35.6085 10.2869
1310 1 5.5391 37.1911 11.8695
1311 1 3.9565 35.6085 13.4521
1312 1 5.5391 37.1911 15.0347
1313 1 3.9565 35.6085 16.6173
1314 1 5.5391 37.1911 18.1999
1315 1 3.9565 35.6085 19.7825
1316 1 5.5391 37.1911 21.3651
1317 1 3.9565 35.6085 22.9477
1318 1 5.5391 37.1911 24.5303
1319 1 3.9565 35.6085 26.1129
1320 1 5.5391 37.1911 27.6955
1321 1 3.9565 35.6085 29.2781
1322 1 5.5391 37.1911 30.8607
1323 1 3.9565 35.6085 32.4433
1324 1 5.5391 37.1911 34.0259
1325 1 3.9565 35.6085 35.6085
1326 1 5.5391 37.1911 37.1911
1327 1 3.9565 35.6085 38.7737
1328 1 5.5391 37.1911 40.3563
1329 1 3.9565 35.6085 41.9389
1330 1 5.5391 37.1911 43.5215
1331 1 3.9565 35.6085 45.1041
1332 1 5.5391 37.1911 46.6867
1333 1 3.9565 35.6085 48.2693
1334 1 5.5391 37.1911 49.8519
1335 1 3.9565 38.7737 0.7913
1336 1 5.5391 40.3563 2.3739
1337 1 3.9565 38.7737 3.9565
1338 1 5.5391 40.3563 5.5391
1339 1 3.9565 38.7737 7.1217
1340 1 5.5391 40.3563 8.7043
1341 1 3.9565 38.7737 10.2869
1342 1 5.5391 40.3563 11.8695
1343 1 3.9565 38.7737 13.4521
1344 1 5.5391 40.3563 15.0347
1345 1 3.9565 38.7737 16.6173
1346 1 5.5391 40.3563 18.1999
1347 1 3.9565 38.7737 19.7825
1348 1 5.5391 40.3563 21.3651
1349 1 3.9565 38.7737 22.9477
1350 1 5.5391 40.3563 24.5303
1351 1 3.9565 38.7737 26.1129
1352 1 5.5391 40.3563 27.6955
1353 1 3.9565 38.7737 29.2781
1354 1 5.5391 40.3563 30.8607
1355 1 3.9565 38.7737 32.4433
1356 1 5.5391 40.3563 34.0259
1357 1 3.9565 38.7737 35.6085
1358 1 5.5391 40.3563 37.1911
1359 1 3.9565 38.7737 38.7737
1360 1 5.5391 40.3563 40.3563
1361 1 3.9565 38.7737 41.9389
1362 1 5.5391 40.3563 43.5215
1363 1 3.9565 38.7737 45.1041
1364 1 5.5391 40.3563 46.6867
1365 1 3.9565 38.7737 48.2693
1366 1 5.5391 40.3563 49.8519
1367 1 3.9565 41.9389 0.7913
1368 1 5.5391 43.5215 2.3739
1369 1 3.9565 41.9389 3.9565
1370 1 5.5391 43.5215 5.5391
1371 1 3.9565 41.9389 7.1217
1372 1 5.5391 43.5215 8.7043
1373 1 3.9565 41.9389 10.2869
1374 1 5.5391 43.5215 11.8695
1375 1 3.9565 41.9389 13.4521
1376 1 5.5391 43.5215 15.0347
1377 1 3.9565 41.9389 16.6173
1378 1 5.5391 43.5215 18.1999
1379 1 3.9565 41.9389 19.7825
1380 1 5.5391 43.5215 21.3651
1381 1 3.9565 41.9389 22.9477
1382 1 5.5391 43.5215 24.5303
1383 1 3.9565 41.9389 26.1129
1384 1 5.5391 43.5215 27.6955
1385 1 3.9565 41.9389 29.2781
1386 1 5.5391 43.5215 30.8607
1387 1 3.9565 41.9389 32.4433
1388 1 5.5391 43.5215 34.0259
1389 1 3.9565 41.9389 35.6085
1390 1 5.5391 43.5215 37.1911
1391 1 3.9565 41.9389 38.7737
1392 1 5.5391 43.5215 40.3563
1393 1 3.9565 41.9389 41.9389
1394 1 5.5391 43.5215 43.5215
1395 1 3.9565 41.9389 45.1041
1396 1 5.5391 43.5215 46.6867
1397 1 3.9565 41.9389 48.2693
1398 1 5.5391 43.5215 49.8519
1399 1 3.9565 45.1041 0.7913
1400 1 5.5391 46.6867 2.3739
1401 1 3.9565 45.1041 3.9565
1402 1 5.5391 46.6867 5.5391
1403 1 3.9565 45.1041 7.1217
1404 1 5.5391 46.6867 8.7043
1405 1 3.9565 45.1041 10.2869
1406 1 5.5391 46.6867 11.8695
1407 1 3.9565 45.1041 13.4521
1408 1 5.5391 46.6867 15.0347
1409 1 3.9565 45.1041 16.6173
1410 1 5.5391 46.6867 18.1999
1411 1 3.9565 45.1041 19.7825
1412 1 5.5391 46.6867 21.3651
1413 1 3.9565 45.1041 22.9477
1414 1 5.5391 46.6867 24.5303
1415 1 3.9565 45.1041 26.1129
1416 1 5.5391 46.6867 27.6955
1417 1 3.9565 45.1041 29.2781
1418 1 5.5391 46.6867 30.8607
1419 1 3.9565 45.1041 32.4433
1420 1 5.5391 46.6867 34.0259
1421 1 3.9565 45.1041 35.6085
1422 1 5.5391 46.6867 37.1911
1423 1 3.9565 45.1041 38.7737
1424 1 5.5391 46.6867 40.3563
1425 1 3.9565 45.1041 41.9389
1426 1 5.5391 46.6867 43.5215
1427 1 3.9565 45.1041 45.1041
1428 1 5.5391 46.6867 46.6867
1429 1 3.9565 45.1041 48.2693
1430 1 5.5391 46.6867 49.8519
1431 1 3.9565 48.2693 0.7913
1432 1 5.5391 49.8519 2.3739
1433 1 3.9565 48.2693 3.9565
1434 1 5.5391 49.8519 5.5391
1435 1 3.9565 48.2693 7.1217
1436 1 5.5391 49.8519 8.7043
1437 1 3.9565 48.2693 10.2869
1438 1 5.5391 49.8519 11.8695
1439 1 3.9565 48.2693 13.4521
1440 1 5.5391 49.8519 15.0347
1441 1 3.9565 48.2693 16.6173
1442 1 5.5391 49.8519 18.1999
1443 1 3.9565 48.2693 19.7825
1444 1 5.5391 49.8519 21.3651
1445 1 3.9565 48.2693 22.9477
1446 1 5.5391 49.8519 24.5303
1447 1 3.9565 48.2693 26.1129
1448 1 5.5391 49.8519 27.6955
1449 1 3.9565 48.2693 29.2781
1450 1 5.5391 49.8519 30.8607
1451 1 3.9565 48.2693 32.4433
1452 1 5.5391 49.8519 34.0259
1453 1 3.9565 48.2693 35.6085
1454 1 5.5391 49.8519 37.1911
1455 1 3.9565 48.2693 38.7737
1456 1 5.5391 49.8519 40.3563
1457 1 3.9565 48.2693 41.9389
1458 1 5.5391 49.8519 43.5215
1459 1 3.9565 48.2693 45.1041
1460 1 5.5391 49.8519 46.6867
1461 1 3.9565 48.2693 48.2693
1462 1 5.5391 49.8519 49.8519
1463 1 7.1217 0.7913 0.7913
1464 1 8.7043 2.3739 2.3739
1465 1 7.1217 0.7913 3.9565
1466 1 8.7043 2.3739 5.5391
1467 1 7.1217 0.7913 7.1217
1468 1 8.7043 2.3739 8.7043
1469 1 7.1217 0.7913 10.2869
1470 1 8.7043 2.3739 11.8695
1471 1 7.1217 0.7913 13.4521
1472 1 8.7043 2.3739 15.0347
1473 1 7.1217 0.7913 16.6173
1474 1 8.7043 2.3739 18.1999
1475 1 7.1217 0.7913 19.7825
1476 1 8.7043 2.3739 21.3651
1477 1 7.1217 0.7913 22.9477
1478 1 8.7043 2.3739 24.5303
1479 1 7.1217 0.7913 26.1129
1480 1 8.7043 2.3739 27.6955
1481 1 7.1217 0.7913 29.2781
1482 1 8.7043 2.3739 30.8607
1483 1 7.1217 0.7913 32.4433
1484 1 8.7043 2.3739 34.0259
1485 1 7.1217 0.7913 35.6085
1486 1 8.7043 2.3739 37.1911
1487 1 7.1217 0.7913 38.7737
1488 1 8.7043 2.3739 40.3563
1489 1 7.1217 0.7913 41.9389
1490 1 8.7043 2.3739 43.5215
1491 1 7.1217 0.7913 45.1041
1492 1 8.7043 2.3739 46.6867
1493 1 7.1217 0.7913 48.2693
1494 1 8.7043 2.3739 49.8519
1495 1 7.1217 3.9565 0.7913
1496 1 8.7043 5.5391 2.3739
1497 1 7.1217 3.9565 3.9565
1498 1 8.7043 5.5391 5.5391
1499 1 7.1217 3.9565 7.1217
1500 1 8.7043 5.5391 8.7043
1501 1 7.1217 3.9565 10.2869
1502 1 8.7043 5.5391 11.8695
1503 1 7.1217 3.9565 13.4521
1504 1 8.7043 5.5391 15.0347
1505 1 7.1217 3.9565 16.6173
1506 1 8.7043 5.5391 18.1999
1507 1 7.1217 3.9565 19.7825
1508 1 8.7043 5.5391 21.3651
1509 1 7.1217 3.9565 22.9477
1510 1 8.7043 5.5391 24.5303
1511 1 7.1217 3.9565 26.1129
1512 1 8.7043 5.5391 27.6955
1513 1 7.1217 3.9565 29.2781
1514 1 8.7043 5.5391 30.8607
1515 1 7.1217 3.9565 32.4433
1516 1 8.7043 5.5391 34.0259
1517 1 7.1217 3.9565 35.6085
1518 1 8.7043 5.5391 37.1911
1519 1 7.1217 3.9565 38.7737
1520 1 8.7043 5.5391 40.3563
1521 1 7.1217 3.9565 41.9389
1522 1 8.7043 5.5391 43.5215
1523 1 7.1217 3.9565 45.1041
1524 1 8.7043 5.5391 46.6867
1525 1 7.1217 3.9565 48.2693
1526 1 8.7043 5.5391 49.8519
1527 1 7.1217 7.1217 0.7913
1528 1 8.7043 8.7043 2.3739
1529 1 7.1217 7.1217 3.9565
1530 1 8.7043 8.7043 5.5391
1531 1 7.1217 7.1217 7.1217
1532 1 8.7043 8.7043 8.7043
1533 1 7.1217 7.1217 10.2869
1534 1 8.7043 8.7043 11.8695
1535 1 7.1217 7.1217 13.4521
1536 1 8.7043 8.7043 15.0347
1537 1 7.1217 7.1217 16.6173
1538 1 8.7043 8.7043 18.1999
1539 1 7.1217 7.1217 19.7825
1540 1 8.7043 8.7043 21.3651
1541 1 7.1217 7.1217 22.9477
1542 1 8.7043 8.7043 24.5303
1543 1 7.1217 7.1217 26.1129
1544 1 8.7043 8.7043 27.6955
1545 1 7.1217 7.1217 29.2781
1546 1 8.7043 8.7043 30.8607
1547 1 7.1217 7.1217 32.4433
1548 1 8.7043 8.7043 34.0259
1549 1 7.1217 7.1217 35.6085
1550 1 8.7043 8.7043 37.1911
1551 1 7.1217 7.1217 38.7737
1552 1 8.7043 8.7043 40.3563
1553 1 7.1217 7.1217 41.9389
1554 1 8.7043 8.7043 43.5215
1555 1 7.1217 7.1217 45.1041
1556 1 8.7043 8.7043 46.6867
1557 1 7.1217 7.1217 48.2693
1558 1 8.7043 8.7043 49.8519
1559 1 7.1217 10.2869 0.7913
1560 1 8.7043 11.8695 2.3739
1561 1 7.1217 10.2869 3.9565
1562 1 8.7043 11.8695 5.5391
1563 1 7.1217 10.2869 7.1217
1564 1 8.7043 11.8695 8.7043
1565 1 7.1217 10.2869 10.2869
1566 1 8.7043 11.8695 11.8695
1567 1 7.1217 10.2869 13.4521
1568 1 8.7043 11.8695 15.0347
1569 1 7.1217 10.2869 16.6173
1570 1 8.7043 11.8695 18.1999
1571 1 7.1217 10.2869 19.7825
1572 1 8.7043 11.8695 21.3651
1573 1 7.1217 10.2869 22.9477
1574 1 8.7043 11.8695 24.5303
1575 1 7.1217 10.2869 26.1129
1576 1 8.7043 11.8695 27.6955
1577 1 7.1217 10.2869 29.2781
1578 1 8.7043 11.8695 30.8607
1579 1 7.1217 10.2869 32.4433
1580 1 8.7043 11.8695 34.0259
1581 1 7.1217 10.2869 35.6085
1582 1 8.7043 11.8695 37.1911
1583 1 7.1217 10.2869 38.7737
1584 1 8.7043 11.8695 40.3563
1585 1 7.1217 10.2869 41.9389
1586 1 8.7043 11.8695 43.5215
1587 1 7.1217 10.2869 45.1041
1588 1 8.7043 11.8695 46.6867
1589 1 7.1217 10.2869 48.2693
1590 1 8.7043 11.8695 49.8519
1591 1 7.1217 13.4521 0.7913
1592 1 8.7043 15.0347 2.3739
1593 1 7.1217 13.4521 3.9565
1594 1 8.7043 15.0347 5.5391
1595 1 7.1217 13.4521 7.1217
1596 1 8.7043 15.0347 8.7043
1597 1 7.1217 13.4521 10.2869
1598 1 8.7043 15.0347 11.8695
1599 1 7.1217 13.4521 13.4521
1600 1 8.7043 15.0347 15.0347
1601 1 7.1217 13.4521 16.6173
1602 1 8.7043 15.0347 18.1999
1603 1 7.1217 13.4521 19.7825
1604 1 8.7043 15.0347 21.3651
1605 1 7.1217 13.4521 22.9477
1606 1 8.7043 15.0347 24.5303
1607 1 7.1217 13.4521 26.1129
1608 1 8.7043 15.0347 27.6955
1609 1 7.1217 13.4521 29.2781
1610 1 8.7043 15.0347 30.8607
1611 1 7.1217 13.4521 32.4433
1612 1 8.7043 15.0347 34.0259
1613 1 7.1217 13.4521 35.6085
1614 1 8.7043 15.0347 37.1911
1615 1 7.1217 13.4521 38.7737
1616 1 8.7043 15.0347 40.3563
1617 1 7.1217 13.4521 41.9389
1618 1 8.7043 15.0347 43.5215
1619 1 7.1217 13.4521 45.1041
1620 1 8.7043 15.0347 46.6867
1621 1 7.1217 13.4521 48.2693
1622 1 8.7043 15.0347 49.8519
1623 1 7.1217 16.6173 0.7913
1624 1 8.7043 18.1999 2.3739
1625 1 7.1217 16.6173 3.9565
1626 1 8.7043 18.1999 5.5391
1627 1 7.1217 16.6173 7.1217
1628 1 8.7043 18.1999 8.7043
1629 1 7.1217 16.6173 10.2869
1630 1 8.7043 18.1999 11.8695
1631 1 7.1217 16.6173 13.4521
1632 1 8.7043 18.1999 15.0347
1633 1 7.1217 16.6173 16.6173
1634 1 8.7043 18.1999 18.1999
1635 1 7.1217 16.6173 19.7825
1636 1 8.7043 18.1999 21.3651
1637 1 7.1217 16.6173 22.9477
1638 1 8.7043 18.1999 24.5303
1639 1 7.1217 16.6173 26.1129
1640 1 8.7043 18.1999 27.6955
1641 1 7.1217 16.6173 29.2781
1642 1 8.7043 18.1999 30.8607
1643 1 7.1217 16.6173 32.4433
1644 1 8.7043 18.1999 34.0259
1645 1 7.1217 16.6173 35.6085
1646 1 8.7043 18.1999 37.1911
1647 1 7.1217 16.6173 38.7737
1648 1 8.7043 18.1999 40.3563
1649 1 7.1217 16.6173 41.9389
1650 1 8.7043 18.1999 43.5215
1651 1 7.1217 16.6173 45.1041
1652 1 8.7043 18.1999 46.6867
1653 1 7.1217 16.6173 48.2693
1654 1 8.7043 18.1999 49.8519
1655 1 7.1217 19.7825 0.7913
1656 1 8.7043 21.3651 2.3739
1657 1 7.1217 19.7825 3.9565
1658 1 8.7043 21.3651 5.5391
1659 1 7.1217 19.7825 7.1217
1660 1 8.7043 21.3651 8.7043
1661 1 7.1217 19.7825 10.2869
1662 1 8.7043 21.3651 11.8695
1663 1 7.1217 19.7825 13.4521
1664 1 8.7043 21.3651 15.0347
1665 1 7.1217 19.7825 16.6173
1666 1 8.7043 21.3651 18.1999
1667 1 7.1217 19.7825 19.7825
1668 1 8.7043 21.3651 21.3651
1669 1 7.1217 19.7825 22.9477
1670 1 8.7043 21.3651 24.5303
1671 1 7.1217 19.7825 26.1129
1672 1 8.7043 21.3651 27.6955
1673 1 7.1217 19.7825 29.2781
1674 1 8.7043 21.3651 30.8607
1675 1 7.1217 19.7825 32.4433
1676 1 8.7043 21.3651 34.0259
1677 1 7.1217 19.7825 35.6085
1678 1 8.7043 21.3651 37.1911
1679 1 7.1217 19.7825 38.7737
1680 1 8.7043 21.3651 40.3563
1681 1 7.1217 19.7825 41.9389
1682 1 8.7043 21.3651 43.5215
1683 1 7.1217 19.7825 45.1041
1684 1 8.7043 21.3651 46.6867
1685 1 7.1217 19.7825 48.2693
1686 1 8.7043 21.3651 49.8519
1687 1 7.1217 22.9477 0.7913
1688 1 8.7043 24.5303 2.3739
1689 1 7.1217 22.9477 3.9565
1690 1 8.7043 24.5303 5.5391
1691 1 7.1217 22.9477 7.1217
1692 1 8.7043 24.5303 8.7043
1693 1 7.1217 22.9477 10.2869
1694 1 8.7043 24.5303 11.8695
1695 1 7.1217 22.9477 13.4521
1696 1 8.7043 24.5303 15.0347
1697 1 7.1217 22.9477 16.6173
1698 1 8.7043 24.5303 18.1999
1699 1 7.1217 22.9477 19.7825
1700 1 8.7043 24.5303 21.3651
1701 1 7.1217 22.9477 22.9477
1702 1 8.7043 24.5303 24.5303
1703 1 7.1217 22.9477 26.1129
1704 1 8.7043 24.5303 27.6955
1705 1 7.1217 22.9477 29.2781
1706 1 8.7043 24.5303 30.8607
1707 1 7.1217 22.9477 32.4433
1708 1 8.7043 24.5303 34.0259
1709 1 7.1217 22.9477 35.6085
1710 1 8.7043 24.5303 37.1911
1711 1 7.1217 22.9477 38.7737
1712 1 8.7043 24.5303 40.3563
1713 1 7.1217 22.9477 41.9389
1714 1 8.7043 24.5303 43.5215
1715 1 7.1217 22.9477 45.1041
1716 1 8.7043 24.5303 46.6867
1717 1 7.1217 22.9477 48.2693
1718 1 8.7043 24.5303 49.8519
1719 1 7.1217 26.1129 0.7913
1720 1 8.7043 27.6955 2.3739
1721 1 7.1217 26.1129 3.9565
1722 1 8.7043 27.6955 5.5391
1723 1 7.1217 26.1129 7.1217
1724 1 8.7043 27.6955 8.7043
1725 1 7.1217 26.1129 10.2869
1726 1 8.7043 27.6955 11.8695
1727 1 7.1217 26.1129 13.4521
1728 1 8.7043 27.6955 15.0347
1729 1 7.1217 26.1129 16.6173
1730 1 8.7043 27.6955 18.1999
1731 1 7.1217 26.1129 19.7825
1732 1 8.7043 27.6955 21.3651
1733 1 7.1217 26.1129 22.9477
1734 1 8.7043 27.6955 24.5303
1735 1 7.1217 26.1129 26.1129
1736 1 8.7043 27.6955 27.6955
1737 1 7.1217 26.1129 29.2781
1738 1 8.7043 27.6955 30.8607
1739 1 7.1217 26.1129 32.4433
1740 1 8.7043 27.6955 34.0259
1741 1 7.1217 26.1129 35.6085
1742 1 8.7043 27.6955 37.1911
1743 1 7.1217 26.1129 38.7737
1744 1 8.7043 27.6955 40.3563
1745 1 7.1217 26.1129 41.9389
1746 1 8.7043 27.6955 43.5215
1747 1 7.1217 26.1129 45.1041
1748 1 8.7043 27.6955 46.6867
1749 1 7.1217 26.1129 48.2693
1750 1 8.7043 27.6955 49.8519
1751 1 7.1217 29.2781 0.7913
1752 1 8.7043 30.8607 2.3739
1753 1 7.1217 29.2781 3.9565
1754 1 8.7043 30.8607 5.5391
1755 1 7.1217 29.2781 7.1217
1756 1 8.7043 30.8607 8.7043
1757 1 7.1217 29.2781 10.2869
1758 1 8.7043 30.8607 11.8695
1759 1 7.1217 29.2781 13.4521
1760 1 8.7043 30.8607 15.0347
1761 1 7.1217 29.2781 16.6173
1762 1 8.7043 30.8607 18.1999
1763 1 7.1217 29.2781 19.7825
1764 1 8.7043 30.8607 21.3651
1765 1 7.1217 29.2781 22.9477
1766 1 8.7043 30.8607 24.5303
1767 1 7.1217 29.2781 26.1129
1768 1 8.7043 30.8607 27.6955
1769 1 7.1217 29.2781 29.2781
1770 1 8.7043 30.8607 30.8607
1771 1 7.1217 29.2781 32.4433
1772 1 8.7043 30.8607 34.0259
1773 1 7.1217 29.2781 35.6085
1774 1 8.7043 30.8607 37.1911
1775 1 7.1217 29.2781 38.7737
1776 1 8.7043 30.8607 40.3563
1777 1 7.1217 29.2781 41.9389
1778 1 8.7043 30.8607 43.5215
1779 1 7.1217 29.2781 45.1041
1780 1 8.7043 30.8607 46.6867
1781 1 7.1217 29.2781 48.2693
1782 1 8.7043 30.8607 49.8519
1783 1 7.1217 32.4433 0.7913
1784 1 8.7043 34.0259 2.3739
1785 1 7.1217 32.4433 3.9565
1786 1 8.7043 34.0259 5.5391
1787 1 7.1217 32.4433 7.1217
1788 1 8.7043 34.0259 8.7043
1789 1 7.1217 32.4433 10.2869
1790 1 8.7043 34.0259 11.8695
1791 1 7.1217 32.4433 13.4521
1792 1 8.7043 34.0259 15.0347
1793 1 7.1217 32.4433 16.6173
1794 1 8.7043 34.0259 18.1999
1795 1 7.1217 32.4433 19.7825
1796 1 8.7043 34.0259 21.3651
1797 1 7.1217 32.4433 22.9477
1798 1 8.7043 34.0259 24.5303
1799 1 7.1217 32.4433 26.1129
1800 1 8.7043 34.0259 27.6955
1801 1 7.1217 32.4433 29.2781
1802 1 8.7043 34.0259 30.8607
1803 1 7.1217 32.4433 32.4433
1804 1 8.7043 34.0259 34.0259
1805 1 7.1217 32.4433 35.6085
1806 1 8.7043 34.0259 37.1911
1807 1 7.1217 32.4433 38.7737
1808 1 8.7043 34.0259 40.3563
1809 1 7.1217 32.4433 41.9389
1810 1 8.7043 34.0259 43.5215
1811 1 7.1217 32.4433 45.1041
1812 1 8.7043 34.0259 46.6867
1813 1 7.1217 32.4433 48.2693
1814 1 8.7043 34.0259 49.8519
1815 1 7.1217 35.6085 0.7913
1816 1 8.7043 37.1911 2.3739
1817 1 7.1217 35.6085 3.9565
1818 1 8.7043 37.1911 5.5391
1819 1 7.1217 35.6085 7.1217
1820 1 8.7043 37.1911 8.7043
1821 1 7.1217 35.6085 10.2869
1822 1 8.7043 37.1911 11.8695
1823 1 7.1217 35.6085 13.4521
1824 1 8.7043 37.1911 15.0347
1825 1 7.1217 35.6085 16.6173
1826 1 8.7043 37.1911 18.1999
1827 1 7.1217 35.6085 19.7825
1828 1 8.7043 37.1911 21.3651
1829 1 7.1217 35.6085 22.9477
1830 1 8.7043 37.1911 24.5303
1831 1 7.1217 35.6085 26.1129
1832 1 8.7043 37.1911 27.6955
1833 1 7.1217 35.6085 29.2781
1834 1 8.7043 37.1911 30.8607
1835 1 7.1217 35.6085 32.4433
1836 1 8.7043 37.1911 34.0259
1837 1 7.1217 35.6085 35.6085
1838 1 8.7043 37.1911 37.1911
1839 1 7.1217 35.6085 38.7737
1840 1 8.7043 37.1911 40.3563
1841 1 7.1217 35.6085 41.9389
1842 1 8.7043 37.1911 43.5215
1843 1 7.1217 35.6085 45.1041
1844 1 8.7043 37.1911 46.6867
1845 1 7.1217 35.6085 48.2693
1846 1 8.7043 37.1911 49.8519
1847 1 7.1217 38.7737 0.7913
1848 1 8.7043 40.3563 2.3739
1849 1 7.1217 38.7737 3.9565
1850 1 8.7043 40.3563 5.5391
1851 1 7.1217 38.7737 7.1217
1852 1 8.7043 40.3563 8.7043
1853 1 7.1217 38.7737 10.2869
1854 1 8.7043 40.3563 11.8695
1855 1 7.1217 38.7737 13.4521
1856 1 8.7043 40.3563 15.0347
1857 1 7.1217 38.7737 16.6173
1858 1 8.7043 40.3563 18.1999
1859 1 7.1217 38.7737 19.7825
1860 1 8.7043 40.3563 21.3651
1861 1 7.1217 38.7737 22.9477
1862 1 8.7043 40.3563 24.5303
1863 1 7.1217 38.7737 26.1129
1864 1 8.7043 40.3563 27.6955
1865 1 7.1217 38.7737 29.2781
1866 1 8.7043 40.3563 30.8607
1867 1 7.1217 38.7737 32.4433
1868 1 8.7043 40.3563 34.0259
1869 1 7.1217 38.7737 35.6085
1870 1 8.7043 40.3563 37.1911
1871 1 7.1217 38.7737 38.7737
1872 1 8.7043 40.3563 40.3563
1873 1 7.1217 38.7737 41.9389
1874 1 8.7043 40.3563 43.5215
1875 1 7.1217 38.7737 45.1041
1876 1 8.7043 40.3563 46.6867
1877 1 7.1217 38.7737 48.2693
1878 1 8.7043 40.3563 49.8519
1879 1 7.1217 41.9389 0.7913
1880 1 8.7043 43.5215 2.3739
1881 1 7.1217 41.9389 3.9565
1882 1 8.7043 43.5215 5.5391
1883 1 7.1217 41.9389 7.1217
1884 1 8.7043 43.5215 8.7043
1885 1 7.1217 41.9389 10.2869
1886 1 8.7043 43.5215 11.8695
1887 1 7.1217 41.9389 13.4521
1888 1 8.7043 43.5215 15.0347
1889 1 7.1217 41.9389 16.6173
1890 1 8.7043 43.5215 18.1999
1891 1 7.1217 41.9389 19.7825
1892 1 8.7043 43.5215 21.3651
1893 1 7.1217 41.9389 22.9477
1894 1 8.7043 43.5215 24.5303
1895 1 7.1217 41.9389 26.1129
1896 1 8.7043 43.5215 27.6955
1897 1 7.1217 41.9389 29.2781
1898 1 8.7043 43.5215 30.8607
1899 1 7.1217 41.9389 32.4433
1900 1 8.7043 43.5215 34.0259
1901 1 7.1217 41.9389 35.6085
1902 1 8.7043 43.5215 37.1911
1903 1 7.1217 41.9389 38.7737
1904 1 8.7043 43.5215 40.3563
1905 1 7.1217 41.9389 41.9389
1906 1 8.7043 43.5215 43.5215
1907 1 7.1217 41.9389 45.1041
1908 1 8.7043 43.5215 46.6867
1909 1 7.1217 41.9389 48.2693
1910 1 8.7043 43.5215 49.8519
1911 1 7.1217 45.1041 0.7913
1912 1 8.7043 46.6867 2.3739
1913 1 7.1217 45.1041 3.9565
1914 1 8.7043 46.6867 5.5391
1915 1 7.1217 45.1041 7.1217
1916 1 8.7043 46.6867 8.7043
1917 1 7.1217 45.1041 10.2869
1918 1 8.7043 46.6867 11.8695
1919 1 7.1217 45.1041 13.4521
1920 1 8.7043 46.6867 15.0347
1921 1 7.1217 45.1041 16.6173
1922 1 8.7043 46.6867 18.1999
1923 1 7.1217 45.1041 19.7825
1924 1 8.7043 46.6867 21.3651
1925 1 7.1217 45.1041 22.9477
1926 1 8.7043 46.6867 24.5303
1927 1 7.1217 45.1041 26.1129
1928 1 8.7043 46.6867 27.6955
1929 1 7.1217 45.1041 29.2781
1930 1 8.7043 46.6867 30.8607
1931 1 7.1217 45.1041 32.4433
1932 1 8.7043 46.6867 34.0259
1933 1 7.1217 45.1041 35.6085
1934 1 8.7043 46.6867 37.1911
1935 1 7.1217 45.1041 38.7737
1936 1 8.7043 46.6867 40.3563
1937 1 7.1217 45.1041 41.9389
1938 1 8.7043 46.6867 43.5215
1939 1 7.1217 45.1041 45.1041
1940 1 8.7043 46.6867 46.6867
1941 1 7.1217 45.1041 48.2693
1942 1 8.7043 46.6867 49.8519
1943 1 7.1217 48.2693 0.7913
1944 1 8.7043 49.8519 2.3739
1945 1 7.1217 48.2693 3.9565
1946 1 8.7043 49.8519 5.5391
1947 1 7.1217 48.2693 7.1217
1948 1 8.7043 49.8519 8.7043
1949 1 7.1217 48.2693 10.2869
1950 1 8.7043 49.8519 11.8695
1951 1 7.1217 48.2693 13.4521
1952 1 8.7043 49.8519 15.0347
1953 1 7.1217 48.2693 16.6173
1954 1 8.7043 49.8519 18.1999
1955 1 7.1217 48.2693 19.7825
1956 1 8.7043 49.8519 21.3651
1957 1 7.1217 48.2693 22.9477
1958 1 8.7043 49.8519 24.5303
1959 1 7.1217 48.2693 26.1129
1960 1 8.7043 49.8519 27.6955
1961 1 7.1217 48.2693 29.2781
1962 1 8.7043 49.8519 30.8607
1963 1 7.1217 48.2693 32.4433
1964 1 8.7043 49.8519 34.0259
1965 1 7.1217 48.2693 35.6085
1966 1 8.7043 49.8519 37.1911
1967 1 7.1217 48.2693 38.7737
1968 1 8.7043 49.8519 40.3563
1969 1 7.1217 48.2693 41.9389
1970 1 8.7043 49.8519 43.5215
1971 1 7.1217 48.2693 45.1041
1972 1 8.7043 49.8519 46.6867
1973 1 7.1217 48.2693 48.2693
1974 1 8.7043 49.8519 49.8519
1975 1 10.2869 0.7913 0.7913
1976 1 11.8695 2.3739 2.3739
1977 1 10.2869 0.7913 3.9565
1978 1 11.8695 2.3739 5.5391
1979 1 10.2869 0.7913 7.1217
1980 1 11.8695 2.3739 8.7043
1981 1 10.2869 0.7913 10.2869
1982 1 11.8695 2.3739 11.8695
1983 1 10.2869 0.7913 13.4521
1984 1 11.8695 2.3739 15.0347
1985 1 10.2869 0.7913 16.6173
1986 1 11.8695 2.3739 18.1999
1987 1 10.2869 0.7913 19.7825
1988 1 11.8695 2.3739 21.3651
1989 1 10.2869 0.7913 22.9477
1990 1 11.8695 2.3739 24.5303
1991 1 10.2869 0.7913 26.1129
1992 1 11.8695 2.3739 27.6955
1993 1 10.2869 0.7913 29.2781
1994 1 11.8695 2.3739 30.8607
1995 1 10.2869 0.7913 32.4433
1996 1 11.8695 2.3739 34.0259
1997 1 10.2869 0.7913 35.6085
1998 1 11.8695 2.3739 37.1911
1999 1 10.2869 0.7913 38.7737
2000 1 11.8695 2.3739 40.3563
2001 1 10.2869 0.7913 41.9389
2002 1 11.8695 2.3739 43.5215
2003 1 10.2869 0.7913 45.1041
2004 1 11.8695 2.3739 46.6867
2005 1 10.2869 0.7913 48.2693
2006 1 11.8695 2.3739 49.8519
2007 1 10.2869 3.9565 0.7913
2008 1 11.8695 5.5391 2.3739
2009 1 10.2869 3.9565 3.9565
2010 1 11.8695 5.5391 5.5391
2011 1 10.2869 3.9565 7.1217
2012 1 11.8695 5.5391 8.7043
2013 1 10.2869 3.9565 10.2869
2014 1 11.8695 5.5391 11.8695
2015 1 10.2869 3.9565 13.4521
2016 1 11.8695 5.5391 15.0347
2017 1 10.2869 3.9565 16.6173
2018 1 11.8695 5.5391 18.1999
2019 1 10.2869 3.9565 19.7825
2020 1 11.8695 5.5391 21.3651
2021 1 10.2869 3.9565 22.9477
2022 1 11.8695 5.5391 24.5303
2023 1 10.2869 3.9565 26.1129
2024 1 11.8695 5.5391 27.6955
2025 1 10.2869 3.9565 29.2781
2026 1 11.8695 5.5391 30.8607
2027 1 10.2869 3.9565 32.4433
2028 1 11.8695 5.5391 34.0259
2029 1 10.2869 3.9565 35.6085
2030 1 11.8695 5.5391 37.1911
2031 1 10.2869 3.9565 38.7737
2032 1 11.8695 5.5391 40.3563
2033 1 10.2869 3.9565 41.9389
2034 1 11.8695 5.5391 43.5215
2035 1 10.2869 3.9565 45.1041
2036 1 11.8695 5.5391 46.6867
2037 1 10.2869 3.9565 48.2693
2038 1 11.8695 5.5391 49.8519
2039 1 10.2869 7.1217 0.7913
2040 1 11.8695 8.7043 2.3739
2041 1 10.2869 7.1217 3.9565
2042 1 11.8695 8.7043 5.5391
2043 1 10.2869 7.1217 7.1217
2044 1 11.8695 8.7043 8.7043
2045 1 10.2869 7.1217 10.2869
2046 1 11.8695 8.7043 11.8695
2047 1 10.2869 7.1217 13.4521
2048 1 11.8695 8.7043 15.0347
2049 1 10.2869 7.1217 16.6173
2050 1 11.8695 8.7043 18.1999
2051 1 10.2869 7.1217 19.7825
2052 1 11.8695 8.7043 21.3651
2053 1 10.2869 7.1217 22.9477
2054 1 11.8695 8.7043 24.5303
2055 1 10.2869 7.1217 26.1129
2056 1 11.8695 8.7043 27.6955
2057 1 10.2869 7.1217 29.2781
2058 1 11.8695 8.7043 30.8607
2059 1 10.2869 7.1217 32.4433
2060 1 11.8695 8.7043 34.0259
2061 1 10.2869 7.1217 35.6085
2062 1 11.8695 8.7043 37.1911
2063 1 10.2869 7.1217 38.7737
2064 1 11.8695 8.7043 40.3563
2065 1 10.2869 7.1217 41.9389
2066 1 11.8695 8.7043 43.5215
2067 1 10.2869 7.1217 45.1041
2068 1 11.8695 8.7043 46.6867
2069 1 10.2869 7.1217 48.2693
2070 1 11.8695 8.7043 49.8519
2071 1 10.2869 10.2869 0.7913
2072 1 11.8695 11.8695 2.3739
2073 1 10.2869 10.2869 3.9565
2074 1 11.8695 11.8695 5.5391
2075 1 10.2869 10.2869 7.1217
2076 1 11.8695 11.8695 8.7043
2077 1 10.2869 10.2869 10.2869
2078 1 11.8695 11.8695 11.8695
2079 1 10.2869 10.2869 13.4521
2080 1 11.8695 11.8695 15.0347
2081 1 10.2869 10.2869 16.6173
2082 1 11.8695 11.8695 18.1999
2083 1 10.2869 10.2869 19.7825
2084 1 11.8695 11.8695 21.3651
2085 1 10.2869 10.2869 22.9477
2086 1 11.8695 11.8695 24.5303
2087 1 10.2869 10.2869 26.1129
2088 1 11.8695 11.8695 27.6955
2089 1 10.2869 10.2869 29.2781
2090 1 11.8695 11.8695 30.8607
2091 1 10.2869 10.2869 32.4433
2092 1 11.8695 11.8695 34.0259
2093 1 10.2869 10.2869 35.6085
2094 1 11.8695 11.8695 37.1911
2095 1 10.2869 10.2869 38.7737
2096 1 11.8695 11.8695 40.3563
2097 1 10.2869 10.2869 41.9389
2098 1 11.8695 11.8695 43.5215
2099 1 10.2869 10.2869 45.1041
2100 1 11.8695 11.8695 46.6867
2101 1 10.2869 10.2869 48.2693
2102 1 11.8695 11.8695 49.8519
2103 1 10.2869 13.4521 0.7913
2104 1 11.8695 15.0347 2.3739
2105 1 10.2869 13.4521 3.9565
2106 1 11.8695 15.0347 5.5391
2107 1 10.2869 13.4521 7.1217
2108 1 11.8695 15.0347 8.7043
2109 1 10.2869 13.4521 10.2869
2110 1 11.8695 15.0347 11.8695
2111 1 10.2869 13.4521 13.4521
2112 1 11.8695 15.0347 15.0347
2113 1 10.2869 13.4521 16.6173
2114 1 11.8695 15.0347 18.1999
2115 1 10.2869 13.4521 19.7825
2116 1 11.8695 15.0347 21.3651
2117 1 10.2869 13.4521 22.9477
2118 1 11.8695 15.0347 24.5303
2119 1 10.2869 13.4521 26.1129
2120 1 11.8695 15.0347 27.6955
2121 1 10.2869 13.4521 29.2781
2122 1 11.8695 15.0347 30.8607
2123 1 10.2869 13.4521 32.4433
2124 1 11.8695 15.0347 34.0259
2125 1 10.2869 13.4521 35.6085
2126 1 11.8695 15.0347 37.1911
2127 1 10.2869 13.4521 38.7737
2128 1 11.8695 15.0347 40.3563
2129 1 10.2869 13.4521 41.9389
2130 1 11.8695 15.0347 43.5215
2131 1 10.2869 13.4521 45.1041
2132 1 11.8695 15.0347 46.6867
2133 1 10.2869 13.4521 48.2693
2134 1 11.8695 15.0347 49.8519
2135 1 10.2869 16.6173 0.7913
2136 1 11.8695 18.1999 2.3739
2137 1 10.2869 16.6173 3.9565
2138 1 11.8695 18.1999 5.5391
2139 1 10.2869 16.6173 7.1217
2140 1 11.8695 18.1999 8.7043
2141 1 10.2869 16.6173 10.2869
2142 1 11.8695 18.1999 11.8695
2143 1 10.2869 16.6173 13.4521
2144 1 11.8695 18.1999 15.0347
2145 1 10.2869 16.6173 16.6173
2146 1 11.8695 18.1999 18.1999
2147 1 10.2869 16.6173 19.7825
2148 1 11.8695 18.1999 21.3651
2149 1 10.2869 16.6173 22.9477
2150 1 11.8695 18.1999 24.5303
2151 1 10.2869 16.6173 26.1129
2152 1 11.8695 18.1999 27.6955
2153 1 10.2869 16.6173 29.2781
2154 1 11.8695 18.1999 30.8607
2155 1 10.2869 16.6173 32.4433
2156 1 11.8695 18.1999 34.0259
2157 1 10.2869 16.6173 35.6085
2158 1 11.8695 18.1999 37.1911
2159 1 10.2869 16.6173 38.7737
2160 1 11.8695 18.1999 40.3563
2161 1 10.2869 16.6173 41.9389
2162 1 11.8695 18.1999 43.5215
2163 1 10.2869 16.6173 45.1041
2164 1 11.8695 18.1999 46.6867
2165 1 10.2869 16.6173 48.2693
2166 1 11.8695 18.1999 49.8519
2167 1 10.2869 19.7825 0.7913
2168 1 11.8695 21.3651 2.3739
2169 1 10.2869 19.7825 3.9565
2170 1 11.8695 21.3651 5.5391
2171 1 10.2869 19.7825 7.1217
2172 1 11.8695 21.3651 8.7043
2173 1 10.2869 19.7825 10.2869
2174 1 11.8695 21.3651 11.8695
2175 1 10.2869 19.7825 13.4521
2176 1 11.8695 21.3651 15.0347
2177 1 10.2869 19.7825 16.6173
2178 1 11.8695 21.3651 18.1999
2179 1 10.2869 19.7825 19.7825
2180 1 11.8695 21.3651 21.3651
2181 1 10.2869 19.7825 22.9477
2182 1 11.8695 21.3651 24.5303
2183 1 10.2869 19.7825 26.1129
2184 1 11.8695 21.3651 27.6955
2185 1 10.2869 19.7825 29.2781
2186 1 11.8695 21.3651 30.8607
2187 1 10.2869 19.7825 32.4433
2188 1 11.8695 21.3651 34.0259
2189 1 10.2869 19.7825 35.6085
2190 1 11.8695 21.3651 37.1911
2191 1 10.2869 19.7825 38.7737
2192 1 11.8695 21.3651 40.3563
2193 1 10.2869 19.7825 41.9389
2194 1 11.8695 21.3651 43.5215
2195 1 10.2869 19.7825 45.1041
2196 1 11.8695 21.3651 46.6867
2197 1 10.2869 19.7825 48.2693
2198 1 11.8695 21.3651 49.8519
2199 1 10.2869 22.9477 0.7913
2200 1 11.8695 24.5303 2.3739
2201 1 10.2869 22.9477 3.9565
2202 1 11.8695 24.5303 5.5391
2203 1 10.2869 22.9477 7.1217
2204 1 11.8695 24.5303 8.7043
2205 1 10.2869 22.9477 10.2869
2206 1 11.8695 24.5303 11.8695
2207 1 10.2869 22.9477 13.4521
2208 1 11.8695 24.5303 15.0347
2209 1 10.2869 22.9477 16.6173
2210 1 11.8695 24.5303 18.1999
2211 1 10.2869 22.9477 19.7825
2212 1 11.8695 24.5303 21.3651
2213 1 10.2869 22.9477 22.9477
2214 1 11.8695 24.5303 24.5303
2215 1 10.2869 22.9477 26.1129
2216 1 11.8695 24.5303 27.6955
2217 1 10.2869 22.9477 29.2781
2218 1 11.8695 24.5303 30.8607
2219 1 10.2869 22.9477 32.4433
2220 1 11.8695 24.5303 34.0259
2221 1 10.2869 22.9477 35.6085
2222 1 11.8695 24.5303 37.1911
2223 1 10.2869 22.9477 38.7737
2224 1 11.8695 24.5303 40.3563
2225 1 10.2869 22.9477 41.9389
2226 1 11.8695 24.5303 43.5215
2227 1 10.2869 22.9477 45.1041
2228 1 11.8695 24.5303 46.6867
2229 1 10.2869 22.9477 48.2693
2230 1 11.8695 24.5303 49.8519
2231 1 10.2869 26.1129 0.7913
2232 1 11.8695 27.6955 2.3739
2233 1 10.2869 26.1129 3.9565
2234 1 11.8695 27.6955 5.5391
2235 1 10.2869 26.1129 7.1217
2236 1 11.8695 27.6955 8.7043
2237 1 10.2869 26.1129 10.2869
2238 1 11.8695 27.6955 11.8695
2239 1 10.2869 26.1129 13.4521
2240 1 11.8695 27.6955 15.0347
2241 1 10.2869 26.1129 16.6173
2242 1 11.8695 27.6955 18.1999
2243 1 10.2869 26.1129 19.7825
2244 1 11.8695 27.6955 21.3651
2245 1 10.2869 26.1129 22.9477
2246 1 11.8695 27.6955 24.5303
2247 1 10.2869 26.1129 26.1129
2248 1 11.8695 27.6955 27.6955
2249 1 10.2869 26.1129 29.2781
2250 1 11.8695 27.6955 30.8607
2251 1 10.2869 26.1129 32.4433
2252 1 11.8695 27.6955 34.0259
2253 1 10.2869 26.1129 35.6085
2254 1 11.8695 27.6955 37.1911
2255 1 10.2869 26.1129 38.7737
2256 1 11.8695 27.6955 40.3563
2257 1 10.2869 26.1129 41.9389
2258 1 11.8695 27.6955 43.5215
2259 1 10.2869 26.1129 45.1041
2260 1 11.8695 27.6955 46.6867
2261 1 10.2869 26.1129 48.2693
2262 1 11.8695 27.6955 49.8519
2263 1 10.2869 29.2781 0.7913
2264 1 11.8695 30.8607 2.3739
2265 1 10.2869 29.2781 3.9565
2266 1 11.8695 30.8607 5.5391
2267 1 10.2869 29.2781 7.1217
2268 1 11.8695 30.8607 8.7043
2269 1 10.2869 29.2781 10.2869
2270 1 11.8695 30.8607 11.8695
2271 1 10.2869 29.2781 13.4521
2272 1 11.8695 30.8607 15.0347
2273 1 10.2869 29.2781 16.6173
2274 1 11.8695 30.8607 18.1999
2275 1 10.2869 29.2781 19.7825
2276 1 11.8695 30.8607 21.3651
2277 1 10.2869 29.2781 22.9477
2278 1 11.8695 30.8607 24.5303
2279 1 10.2869 29.2781 26.1129
2280 1 11.8695 30.8607 27.6955
2281 1 10.2869 29.2781 29.2781
2282 1 11.8695 30.8607 30.8607
2283 1 10.2869 29.2781 32.4433
2284 1 11.8695 30.8607 34.0259
2285 1 10.2869 29.2781 35.6085
2286 1 11.8695 30.8607 37.1911
2287 1 10.2869 29.2781 38.7737
2288 1 11.8695 30.8607 40.3563
2289 1 10.2869 29.2781 41.9389
2290 1 11.8695 30.8607 43.5215
2291 1 10.2869 29.2781 45.1041
2292 1 11.8695 30.8607 46.6867
2293 1 10.2869 29.2781 48.2693
2294 1 11.8695 30.8607 49.8519
2295 1 10.2869 32.4433 0.7913
2296 1 11.8695 34.0259 2.3739
2297 1 10.2869 32.4433 3.9565
2298 1 11.8695 34.0259 5.5391
2299 1 10.2869 32.4433 7.1217
2300 1 11.8695 34.0259 8.7043
2301 1 10.2869 32.4433 10.2869
2302 1 11.8695 34.0259 11.8695
2303 1 10.2869 32.4433 13.4521
2304 1 11.8695 34.0259 15.0347
2305 1 10.2869 32.4433 16.6173
2306 1 11.8695 34.0259 18.1999
2307 1 10.2869 32.4433 19.7825
2308 1 11.8695 34.0259 21.3651
2309 1 10.2869 32.4433 22.9477
2310 1 11.8695 34.0259 24.5303
2311 1 10.2869 32.4433 26.1129
2312 1 11.8695 34.0259 27.6955
2313 1 10.2869 32.4433 29.2781
2314 1 11.8695 34.0259 30.8607
2315 1 10.2869 32.4433 32.4433
2316 1 11.8695 34.0259 34.0259
2317 1 10.2869 32.4433 35.6085
2318 1 11.8695 34.0259 37.1911
2319 1 10.2869 32.4433 38.7737
2320 1 11.8695 34.0259 40.3563
2321 1 10.2869 32.4433 41.9389
2322 1 11.8695 34.0259 43.5215
2323 1 10.2869 32.4433 45.1041
2324 1 11.8695 34.0259 46.6867
2325 1 10.2869 32.4433 48.2693
2326 1 11.8695 34.0259 49.8519
2327 1 10.2869 35.6085 0.7913
2328 1 11.8695 37.1911 2.3739
2329 1 10.2869 35.6085 3.9565
2330 1 11.8695 37.1911 5.5391
2331 1 10.2869 35.6085 7.1217
2332 1 11.8695 37.1911 8.7043
2333 1 10.2869 35.6085 10.2869
2334 1 11.8695 37.1911 11.8695
2335 1 10.2869 35.6085 13.4521
2336 1 11.8695 37.1911 15.0347
2337 1 10.2869 35.6085 16.6173
2338 1 11.8695 37.1911 18.1999
2339 1 10.2869 35.6085 19.7825
2340 1 11.8695 37.1911 21.3651
2341 1 10.2869 35.6085 22.9477
2342 1 11.8695 37.1911 24.5303
2343 1 10.2869 35.6085 26.1129
2344 1 11.8695 37.1911 27.6955
2345 1 10.2869 35.6085 29.2781
2346 1 11.8695 37.1911 30.8607
2347 1 10.2869 35.6085 32.4433
2348 1 11.8695 37.1911 34.0259
2349 1 10.2869 35.6085 35.6085
2350 1 11.8695 37.1911 37.1911
2351 1 10.2869 35.6085 38.7737
2352 1 11.8695 37.1911 40.3563
2353 1 10.2869 35.6085 41.9389
2354 1 11.8695 37.1911 43.5215
2355 1 10.2869 35.6085 45.1041
2356 1 11.8695 37.1911 46.6867
2357 1 10.2869 35.6085 48.2693
2358 1 11.8695 37.1911 49.8519
2359 1 10.2869 38.7737 0.7913
2360 1 11.8695 40.3563 2.3739
2361 1 10.2869 38.7737 3.9565
2362 1 11.8695 40.3563 5.5391
2363 1 10.2869 38.7737 7.1217
2364 1 11.8695 40.3563 8.7043
2365 1 10.2869 38.7737 10.2869
2366 1 11.8695 40.3563 11.8695
2367 1 10.2869 38.7737 13.4521
2368 1 11.8695 40.3563 15.0347
2369 1 10.2869 38.7737 16.6173
2370 1 11.8695 40.3563 18.1999
2371 1 10.2869 38.7737 19.7825
2372 1 11.8695 40.3563 21.3651
2373 1 10.2869 38.7737 22.9477
2374 1 11.8695 40.3563 24.5303
2375 1 10.2869 38.7737 26.1129
2376 1 11.8695 40.3563 27.6955
2377 1 10.2869 38.7737 29.2781
2378 1 11.8695 40.3563 30.8607
2379 1 10.2869 38.7737 32.4433
2380 1 11.8695 40.3563 34.0259
2381 1 10.2869 38.7737 35.6085
2382 1 11.8695 40.3563 37.1911
2383 1 10.2869 38.7737 38.7737
2384 1 11.8695 40.3563 40.3563
2385 1 10.2869 38.7737 41.9389
2386 1 11.8695 40.3563 43.5215
2387 1 10.2869 38.7737 45.1041
2388 1 11.8695 40.3563 46.6867
2389 1 10.2869 38.7737 48.2693
2390 1 11.8695 40.3563 49.8519
2391 1 10.2869 41.9389 0.7913
2392 1 11.8695 43.5215 2.3739
2393 1 10.2869 41.9389 3.9565
2394 1 11.8695 43.5215 5.5391
2395 1 10.2869 41.9389 7.1217
2396 1 11.8695 43.5215 8.7043
2397 1 10.2869 41.9389 10.2869
2398 1 11.8695 43.5215 11.8695
2399 1 10.2869 41.9389 13.4521
2400 1 11.8695 43.5215 15.0347
2401 1 10.2869 41.9389 16.6173
2402 1 11.8695 43.5215 18.1999
2403 1 10.2869 41.9389 19.7825
2404 1 11.8695 43.5215 21.3651
2405 1 10.2869 41.9389 22.9477
2406 1 11.8695 43.5215 24.5303
2407 1 10.2869 41.9389 26.1129
2408 1 11.8695 43.5215 27.6955
2409 1 10.2869 41.9389 29.2781
2410 1 11.8695 43.5215 30.8607
2411 1 10.2869 41.9389 32.4433
2412 1 11.8695 43.5215 34.0259
2413 1 10.2869 41.9389 35.6085
2414 1 11.8695 43.5215 37.1911
2415 1 10.2869 41.9389 38.7737
2416 1 11.8695 43.5215 40.3563
2417 1 10.2869 41.9389 41.9389
2418 1 11.8695 43.5215 43.5215
2419 1 10.2869 41.9389 45.1041
2420 1 11.8695 43.5215 46.6867
2421 1 10.2869 41.9389 48.2693
2422 1 11.8695 43.5215 49.8519
2423 1 10.2869 45.1041 0.7913
2424 1 11.8695 46.6867 2.3739
2425 1 10.2869 45.1041 3.9565
2426 1 11.8695 46.6867 5.5391
2427 1 10.2869 45.1041 7.1217
2428 1 11.8695 46.6867 8.7043
2429 1 10.2869 45.1041 10.2869
2430 1 11.8695 46.6867 11.8695
2431 1 10.2869 45.1041 13.4521
2432 1 11.8695 46.6867 15.0347
2433 1 10.2869 45.1041 16.6173
2434 1 11.8695 46.6867 18.1999
2435 1 10.2869 45.1041 19.7825
2436 1 11.8695 46.6867 21.3651
2437 1 10.2869 45.1041 22.9477
2438 1 11.8695 46.6867 24.5303
2439 1 10.2869 45.1041 26.1129
2440 1 11.8695 46.6867 27.6955
2441 1 10.2869 45.1041 29.2781
2442 1 11.8695 46.6867 30.8607
2443 1 10.2869 45.1041 32.4433
2444 1 11.8695 46.6867 34.0259
2445 1 10.2869 45.1041 35.6085
2446 1 11.8695 46.6867 37.1911
2447 1 10.2869 45.1041 38.7737
2448 1 11.8695 46.6867 40.3563
2449 1 10.2869 45.1041 41.9389
2450 1 11.8695 46.6867 43.5215
2451 1 10.2869 45.1041 45.1041
2452 1 11.8695 46.6867 46.6867
2453 1 10.2869 45.1041 48.2693
2454 1 11.8695 46.6867 49.8519
2455 1 10.2869 48.2693 0.7913
2456 1 11.8695 49.8519 2.3739
2457 1 10.2869 48.2693 3.9565
2458 1 11.8695 49.8519 5.5391
2459 1 10.2869 48.2693 7.1217
2460 1 11.8695 49.8519 8.7043
2461 1 10.2869 48.2693 10.2869
2462 1 11.8695 49.8519 11.8695
2463 1 10.2869 48.2693 13.4521
2464 1 11.8695 49.8519 15.0347
2465 1 10.2869 48.2693 16.6173
2466 1 11.8695 49.8519 18.1999
2467 1 10.2869 48.2693 19.7825
2468 1 11.8695 49.8519 21.3651
2469 1 10.2869 48.2693 22.9477
2470 1 11.8695 49.8519 24.5303
2471 1 10.2869 48.2693 26.1129
2472 1 11.8695 49.8519 27.6955
2473 1 10.2869 48.2693 29.2781
2474 1 11.8695 49.8519 30.8607
2475 1 10.2869 48.2693 32.4433
2476 1 11.8695 49.8519 34.0259
2477 1 10.2869 48.2693 35.6085
2478 1 11.8695 49.8519 37.1911
2479 1 10.2869 48.2693 38.7737
2480 1 11.8695 49.8519 40.3563
2481 1 10.2869 48.2693 41.9389
2482 1 11.8695 49.8519 43.5215
2483 1 10.2869 48.2693 45.1041
2484 1 11.8695 49.8519 46.6867
2485 1 10.2869 48.2693 48.2693
2486 1 11.8695 49.8519 49.8519
2487 1 13.4521 0.7913 0.7913
2488 1 15.0347 2.3739 2.3739
2489 1 13.4521 0.7913 3.9565
2490 1 15.0347 2.3739 5.5391
2491 1 13.4521 0.7913 7.1217
2492 1 15.0347 2.3739 8.7043
2493 1 13.4521 0.7913 10.2869
2494 1 15.0347 2.3739 11.8695
2495 1 13.4521 0.7913 13.4521
2496 1 15.0347 2.3739 15.0347
2497 1 13.4521 0.7913 16.6173
2498 1 15.0347 2.3739 18.1999
2499 1 13.4521 0.7913 19.7825
2500 1 15.0347 2.3739 21.3651
2501 1 13.4521 0.7913 22.9477
2502 1 15.0347 2.3739 24.5303
2503 1 13.4521 0.7913 26.1129
2504 1 15.0347 2.3739 27.6955
2505 1 13.4521 0.7913 29.2781
2506 1 15.0347 2.3739 30.8607
2507 1 13.4521 0.7913 32.4433
2508 1 15.0347 2.3739 34.0259
2509 1 13.4521 0.7913 35.6085
2510 1 15.0347 2.3739 37.1911
2511 1 13.4521 0.7913 38.7737
2512 1 15.0347 2.3739 40.3563
2513 1 13.4521 0.7913 41.9389
2514 1 15.0347 2.3739 43.5215
2515 1 13.4521 0.7913 45.1041
2516 1 15.0347 2.3739 46.6867
2517 1 13.4521 0.7913 48.2693
2518 1 15.0347 2.3739 49.8519
2519 1 13.4521 3.9565 0.7913
2520 1 15.0347 5.5391 2.3739
2521 1 13.4521 3.9565 3.9565
2522 1 15.0347 5.5391 5.5391
2523 1 13.4521 3.9565 7.1217
2524 1 15.0347 5.5391 8.7043
2525 1 13.4521 3.9565 10.2869
2526 1 15.0347 5.5391 11.8695
2527 1 13.4521 3.9565 13.4521
2528 1 15.0347 5.5391 15.0347
2529 1 13.4521 3.9565 16.6173
2530 1 15.0347 5.5391 18.1999
2531 1 13.4521 3.9565 19.7825
2532 1 15.0347 5.5391 21.3651
2533 1 13.4521 3.9565 22.9477
2534 1 15.0347 5.5391 24.5303
2535 1 13.4521 3.9565 26.1129
2536 1 15.0347 5.5391 27.6955
2537 1 13.4521 3.9565 29.2781
2538 1 15.0347 5.5391 30.8607
2539 1 13.4521 3.9565 32.4433
2540 1 15.0347 5.5391 34.0259
2541 1 13.4521 3.9565 35.6085
2542 1 15.0347 5.5391 37.1911
2543 1 13.4521 3.9565 38.7737
2544 1 15.0347 5.5391 40.3563
2545 1 13.4521 3.9565 41.9389
2546 1 15.0347 5.5391 43.5215
2547 1 13.4521 3.9565 45.1041
2548 1 15.0347 5.5391 46.6867
2549 1 13.4521 3.9565 48.2693
2550 1 15.0347 5.5391 49.8519
2551 1 13.4521 7.1217 0.7913
2552 1 15.0347 8.7043 2.3739
2553 1 13.4521 7.1217 3.9565
2554 1 15.0347 8.7043 5.5391
2555 1 13.4521 7.1217 7.1217
2556 1 15.0347 8.7043 8.7043
2557 1 13.4521 7.1217 10.2869
2558 1 15.0347 8.7043 11.8695
2559 1 13.4521 7.1217 13.4521
2560 1 15.0347 8.7043 15.0347
2561 1 13.4521 7.1217 16.6173
2562 1 15.0347 8.7043 18.1999
2563 1 13.4521 7.1217 19.7825
2564 1 15.0347 8.7043 21.3651
2565 1 13.4521 7.1217 22.9477
2566 1 15.0347 8.7043 24.5303
2567 1 13.4521 7.1217 26.1129
2568 1 15.0347 8.7043 27.6955
2569 1 13.4521 7.1217 29.2781
2570 1 15.0347 8.7043 30.8607
2571 1 13.4521 7.1217 32.4433
2572 1 15.0347 8.7043 34.0259
2573 1 13.4521 7.1217 35.6085
2574 1 15.0347 8.7043 37.1911
2575 1 13.4521 7.1217 38.7737
2576 1 15.0347 8.7043 40.3563
2577 1 13.4521 7.1217 41.9389
2578 1 15.0347 8.7043 43.5215
2579 1 13.4521 7.1217 45.1041
2580 1 15.0347 8.7043 46.6867
2581 1 13.4521 7.1217 48.2693
2582 1 15.0347 8.7043 49.8519
2583 1 13.4521 10.2869 0.7913
2584 1 15.0347 11.8695 2.3739
2585 1 13.4521 10.2869 3.9565
2586 1 15.0347 11.8695 5.5391
2587 1 13.4521 10.2869 7.1217
2588 1 15.0347 11.8695 8.7043
2589 1 13.4521 10.2869 10.2869
2590 1 15.0347 11.8695 11.8695
2591 1 13.4521 10.2869 13.4521
2592 1 15.0347 11.8695 15.0347
2593 1 13.4521 10.2869 16.6173
2594 1 15.0347 11.8695 18.1999
2595 1 13.4521 10.2869 19.7825
2596 1 15.0347 11.8695 21.3651
2597 1 13.4521 10.2869 22.9477
2598 1 15.0347 11.8695 24.5303
2599 1 13.4521 10.2869 26.1129
2600 1 15.0347 11.8695 27.6955
2601 1 13.4521 10.2869 29.2781
2602 1 15.0347 11.8695 30.8607
2603 1 13.4521 10.2869 32.4433
2604 1 15.0347 11.8695 34.0259
2605 1 13.4521 10.2869 35.6085
2606 1 15.0347 11.8695 37.1911
2607 1 13.4521 10.2869 38.7737
2608 1 15.0347 11.8695 40.3563
2609 1 13.4521 10.2869 41.9389
2610 1 15.0347 11.8695 43.5215
2611 1 13.4521 10.2869 45.1041
2612 1 15.0347 11.8695 46.6867
2613 1 13.4521 10.2869 48.2693
2614 1 15.0347 11.8695 49.8519
2615 1 13.4521 13.4521 0.7913
2616 1 15.0347 15.0347 2.3739
2617 1 13.4521 13.4521 3.9565
2618 1 15.0347 15.0347 5.5391
2619 1 13.4521 13.4521 7.1217
2620 1 15.0347 15.0347 8.7043
2621 1 13.4521 13.4521 10.2869
2622 1 15.0347 15.0347 11.8695
2623 1 13.4521 13.4521 13.4521
2624 1 15.0347 15.0347 15.0347
2625 1 13.4521 13.4521 16.6173
2626 1 15.0347 15.0347 18.1999
2627 1 13.4521 13.4521 19.7825
2628 1 15.0347 15.0347 21.3651
2629 1 13.4521 13.4521 22.9477
2630 1 15.0347 15.0347 24.5303
2631 1 13.4521 13.4521 26.1129
2632 1 15.0347 15.0347 27.6955
2633 1 13.4521 13.4521 29.2781
2634 1 15.0347 15.0347 30.8607
2635 1 13.4521 13.4521 32.4433
2636 1 15.0347 15.0347 34.0259
2637 1 13.4521 13.4521 35.6085
2638 1 15.0347 15.0347 37.1911
2639 1 13.4521 13.4521 38.7737
2640 1 15.0347 15.0347 40.3563
2641 1 13.4521 13.4521 41.9389
2642 1 15.0347 15.0347 43.5215
2643 1 13.4521 13.4521 45.1041
2644 1 15.0347 15.0347 46.6867
2645 1 13.4521 13.4521 48.2693
2646 1 15.0347 15.0347 49.8519
2647 1 13.4521 16.6173 0.7913
2648 1 15.0347 18.1999 2.3739
2649 1 13.4521 16.6173 3.9565
2650 1 15.0347 18.1999 5.5391
2651 1 13.4521 16.6173 7.1217
2652 1 15.0347 18.1999 8.7043
2653 1 13.4521 16.6173 10.2869
2654 1 15.0347 18.1999 11.8695
2655 1 13.4521 16.6173 13.4521
2656 1 15.0347 18.1999 15.0347
2657 1 13.4521 16.6173 16.6173
2658 1 15.0347 18.1999 18.1999
2659 1 13.4521 16.6173 19.7825
2660 1 15.0347 18.1999 21.3651
2661 1 13.4521 16.6173 22.9477
2662 1 15.0347 18.1999 24.5303
2663 1 13.4521 16.6173 26.1129
2664 1 15.0347 18.1999 27.6955
2665 1 13.4521 16.6173 29.2781
2666 1 15.0347 18.1999 30.8607
2667 1 13.4521 16.6173 32.4433
2668 1 15.0347 18.1999 34.0259
2669 1 13.4521 16.6173 35.6085
2670 1 15.0347 18.1999 37.1911
2671 1 13.4521 16.6173 38.7737
2672 1 15.0347 18.1999 40.3563
2673 1 13.4521 16.6173 41.9389
2674 1 15.0347 18.1999 43.5215
2675 1 13.4521 16.6173 45.1041
2676 1 15.0347 18.1999 46.6867
2677 1 13.4521 16.6173 48.2693
2678 1 15.0347 18.1999 49.8519
2679 1 13.4521 19.7825 0.7913
2680 1 15.0347 21.3651 2.3739
2681 1 13.4521 19.7825 3.9565
2682 1 15.0347 21.3651 5.5391
2683 1 13.4521 19.7825 7.1217
2684 1 15.0347 21.3651 8.7043
2685 1 13.4521 19.7825 10.2869
2686 1 15.0347 21.3651 11.8695
2687 1 13.4521 19.7825 13.4521
2688 1 15.0347 21.3651 15.0347
2689 1 13.4521 19.7825 16.6173
2690 1 15.0347 21.3651 18.1999
2691 1 13.4521 19.7825 19.7825
2692 1 15.0347 21.3651 21.3651
2693 1 13.4521 19.7825 22.9477
2694 1 15.0347 21.3651 24.5303
2695 1 13.4521 19.7825 26.1129
2696 1 15.0347 21.3651 27.6955
2697 1 13.4521 19.7825 29.2781
2698 1 15.0347 21.3651 30.8607
2699 1 13.4521 19.7825 32.4433
2700 1 15.0347 21.3651 34.0259
2701 1 13.4521 19.7825 35.6085
2702 1 15.0347 21.3651 37.1911
2703 1 13.4521 19.7825 38.7737
2704 1 15.0347 21.3651 40.3563
2705 1 13.4521 19.7825 41.9389
2706 1 15.0347 21.3651 43.5215
2707 1 13.4521 19.7825 45.1041
2708 1 15.0347 21.3651 46.6867
2709 1 13.4521 19.7825 48.2693
2710 1 15.0347 21.3651 49.8519
2711 1 13.4521 22.9477 0.7913
2712 1 15.0347 24.5303 2.3739
2713 1 13.4521 22.9477 3.9565
2714 1 15.0347 24.5303 5.5391
2715 1 13.4521 22.9477 7.1217
2716 1 15.0347 24.5303 8.7043
2717 1 13.4521 22.9477 10.2869
2718 1 15.0347 24.5303 11.8695
2719 1 13.4521 22.9477 13.4521
2720 1 15.0347 24.5303 15.0347
2721 1 13.4521 22.9477 16.6173
2722 1 15.0347 24.5303 18.1999
2723 1 13.4521 22.9477 19.7825
2724 1 15.0347 24.5303 21.3651
2725 1 13.4521 22.9477 22.9477
2726 1 15.0347 24.5303 24.5303
2727 1 13.4521 22.9477 26.1129
2728 1 15.0347 24.5303 27.6955
2729 1 13.4521 22.9477 29.2781
2730 1 15.0347 24.5303 30.8607
2731 1 13.4521 22.9477 32.4433
2732 1 15.0347 24.5303 34.0259
2733 1 13.4521 22.9477 35.6085
2734 1 15.0347 24.5303 37.1911
2735 1 13.4521 22.9477 38.7737
2736 1 15.0347 24.5303 40.3563
2737 1 13.4521 22.9477 41.9389
2738 1 15.0347 24.5303 43.5215
2739 1 13.4521 22.9477 45.1041
2740 1 15.0347 24.5303 46.6867
2741 1 13.4521 22.9477 48.2693
2742 1 15.0347 24.5303 49.8519
2743 1 13.4521 26.1129 0.7913
2744 1 15.0347 27.6955 2.3739
2745 1 13.4521 26.1129 3.9565
2746 1 15.0347 27.6955 5.5391
2747 1 13.4521 26.1129 7.1217
2748 1 15.0347 27.6955 8.7043
2749 1 13.4521 26.1129 10.2869
2750 1 15.0347 27.6955 11.8695
2751 1 13.4521 26.1129 13.4521
2752 1 15.0347 27.6955 15.0347
2753 1 13.4521 26.1129 16.6173
2754 1 15.0347 27.6955 18.1999
2755 1 13.4521 26.1129 19.7825
2756 1 15.0347 27.6955 21.3651
2757 1 13.4521 26.1129 22.9477
2758 1 15.0347 27.6955 24.5303
2759 1 13.4521 26.1129 26.1129
2760 1 15.0347 27.6955 27.6955
2761 1 13.4521 26.1129 29.2781
2762 1 15.0347 27.6955 30.8607
2763 1 13.4521 26.1129 32.4433
2764 1 15.0347 27.6955 34.0259
2765 1 13.4521 26.1129 35.6085
2766 1 15.0347 27.6955 37.1911
2767 1 13.4521 26.1129 38.7737
2768 1 15.0347 27.6955 40.3563
2769 1 13.4521 26.1129 41.9389
2770 1 15.0347 27.6955 43.5215
2771 1 13.4521 26.1129 45.1041
2772 1 15.0347 27.6955 46.6867
2773 1 13.4521 26.1129 48.2693
2774 1 15.0347 27.6955 49.8519
2775 1 13.4521 29.2781 0.7913
2776 1 15.0347 30.8607 2.3739
2777 1 13.4521 29.2781 3.9565
2778 1 15.0347 30.8607 5.5391
2779 1 13.4521 29.2781 7.1217
2780 1 15.0347 30.8607 8.7043
2781 1 13.4521 29.2781 10.2869
2782 1 15.0347 30.8607 11.8695
2783 1 13.4521 29.2781 13.4521
2784 1 15.0347 30.8607 15.0347
2785 1 13.4521 29.2781 16.6173
2786 1 15.0347 30.8607 18.1999
2787 1 13.4521 29.2781 19.7825
2788 1 15.0347 30.8607 21.3651
2789 1 13.4521 29.2781 22.9477
2790 1 15.0347 30.8607 24.5303
2791 1 13.4521 29.2781 26.1129
2792 1 15.0347 30.8607 27.6955
2793 1 13.4521 29.2781 29.2781
2794 1 15.0347 30.8607 30.8607
2795 1 13.4521 29.2781 32.4433
2796 1 15.0347 30.8607 34.0259
2797 1 13.4521 29.2781 35.6085
2798 1 15.0347 30.8607 37.1911
2799 1 13.4521 29.2781 38.7737
2800 1 15.0347 30.8607 40.3563
2801 1 13.4521 29.2781 41.9389
2802 1 15.0347 30.8607 43.5215
2803 1 13.4521 29.2781 45.1041
2804 1 15.0347 30.8607 46.6867
2805 1 13.4521 29.2781 48.2693
2806 1 15.0347 30.8607 49.8519
2807 1 13.4521 32.4433 0.7913
2808 1 15.0347 34.0259 2.3739
2809 1 13.4521 32.4433 3.9565
2810 1 15.0347 34.0259 5.5391
2811 1 13.4521 32.4433 7.1217
2812 1 15.0347 34.0259 8.7043
2813 1 13.4521 32.4433 10.2869
2814 1 15.0347 34.0259 11.8695
2815 1 13.4521 32.4433 13.4521
2816 1 15.0347 34.0259 15.0347
2817 1 13.4521 32.4433 16.6173
2818 1 15.0347 34.0259 18.1999
2819 1 13.4521 32.4433 19.7825
2820 1 15.0347 34.0259 21.3651
2821 1 13.4521 32.4433 22.9477
2822 1 15.0347 34.0259 24.5303
2823 1 13.4521 32.4433 26.1129
2824 1 15.0347 34.0259 27.6955
2825 1 13.4521 32.4433 29.2781
2826 1 15.0347 34.0259 30.8607
2827 1 13.4521 32.4433 32.4433
2828 1 15.0347 34.0259 34.0259
2829 1 13.4521 32.4433 35.6085
2830 1 15.0347 34.0259 37.1911
2831 1 13.4521 32.4433 38.7737
2832 1 15.0347 34.0259 40.3563
2833 1 13.4521 32.4433 41.9389
2834 1 15.0347 34.0259 43.5215
2835 1 13.4521 32.4433 45.1041
2836 1 15.0347 34.0259 46.6867
2837 1 13.4521 32.4433 48.2693
2838 1 15.0347 34.0259 49.8519
2839 1 13.4521 35.6085 0.7913
2840 1 15.0347 37.1911 2.3739
2841 1 13.4521 35.6085 3.9565
2842 1 15.0347 37.1911 5.5391
2843 1 13.4521 35.6085 7.1217
2844 1 15.0347 37.1911 8.7043
2845 1 13.4521 35.6085 10.2869
2846 1 15.0347 37.1911 11.8695
2847 1 13.4521 35.6085 13.4521
2848 1 15.0347 37.1911 15.0347
2849 1 13.4521 35.6085 16.6173
2850 1 15.0347 37.1911 18.1999
2851 1 13.4521 35.6085 19.7825
2852 1 15.0347 37.1911 21.3651
2853 1 13.4521 35.6085 22.9477
2854 1 15.0347 37.1911 24.5303
2855 1 13.4521 35.6085 26.1129
2856 1 15.0347 37.1911 27.6955
2857 1 13.4521 35.6085 29.2781
2858 1 15.0347 37.1911 30.8607
2859 1 13.4521 35.6085 32.4433
2860 1 15.0347 37.1911 34.0259
2861 1 13.4521 35.6085 35.6085
2862 1 15.0347 37.1911 37.1911
2863 1 13.4521 35.6085 38.7737
2864 1 15.0347 37.1911 40.3563
2865 1 13.4521 35.6085 41.9389
2866 1 15.0347 37.1911 43.5215
2867 1 13.4521 35.6085 45.1041
2868 1 15.0347 37.1911 46.6867
2869 1 13.4521 35.6085 48.2693
2870 1 15.0347 37.1911 49.8519
2871 1 13.4521 38.7737 0.7913
2872 1 15.0347 40.3563 2.3739
2873 1 13.4521 38.7737 3.9565
2874 1 15.0347 40.3563 5.5391
2875 1 13.4521 38.7737 7.1217
2876 1 15.0347 40.3563 8.7043
2877 1 13.4521 38.7737 10.2869
2878 1 15.0347 40.3563 11.8695
2879 1 13.4521 38.7737 13.4521
2880 1 15.0347 40.3563 15.0347
2881 1 13.4521 38.7737 16.6173
2882 1 15.0347 40.3563 18.1999
2883 1 13.4521 38.7737 19.7825
2884 1 15.0347 40.3563 21.3651
2885 1 13.4521 38.7737 22.9477
2886 1 15.0347 40.3563 24.5303
2887 1 13.4521 38.7737 26.1129
2888 1 15.0347 40.3563 27.6955
2889 1 13.4521 38.7737 29.2781
2890 1 15.0347 40.3563 30.8607
2891 1 13.4521 38.7737 32.4433
2892 1 15.0347 40.3563 34.0259
2893 1 13.4521 38.7737 35.6085
2894 1 15.0347 40.3563 37.1911
2895 1 13.4521 38.7737 38.7737
2896 1 15.0347 40.3563 40.3563
2897 1 13.4521 38.7737 41.9389
2898 1 15.0347 40.3563 43.5215
2899 1 13.4521 38.7737 45.1041
2900 1 15.0347 40.3563 46.6867
2901 1 13.4521 38.7737 48.2693
2902 1 15.0347 40.3563 49.8519
2903 1 13.4521 41.9389 0.7913
2904 1 15.0347 43.5215 2.3739
2905 1 13.4521 41.9389 3.9565
2906 1 15.0347 43.5215 5.5391
2907 1 13.4521 41.9389 7.1217
2908 1 15.0347 43.5215 8.7043
2909 1 13.4521 41.9389 10.2869
2910 1 15.0347 43.5215 11.8695
2911 1 13.4521 41.9389 13.4521
2912 1 15.0347 43.5215 15.0347
2913 1 13.4521 41.9389 16.6173
2914 1 15.0347 43.5215 18.1999
2915 1 13.4521 41.9389 19.7825
2916 1 15.0347 43.5215 21.3651
2917 1 13.4521 41.9389 22.9477
2918 1 15.0347 43.5215 24.5303
2919 1 13.4521 41.9389 26.1129
2920 1 15.0347 43.5215 27.6955
2921 1 13.4521 41.9389 29.2781
2922 1 15.0347 43.5215 30.8607
2923 1 13.4521 41.9389 32.4433
2924 1 15.0347 43.5215 34.0259
2925 1 13.4521 41.9389 35.6085
2926 1 15.0347 43.5215 37.1911
2927 1 13.4521 41.9389 38.7737
2928 1 15.0347 43.5215 40.3563
2929 1 13.4521 41.9389 41.9389
2930 1 15.0347 43.5215 43.5215
2931 1 13.4521 41.9389 45.1041
2932 1 15.0347 43.5215 46.6867
2933 1 13.4521 41.9389 48.2693
2934 1 15.0347 43.5215 49.8519
2935 1 13.4521 45.1041 0.7913
2936 1 15.0347 46.6867 2.3739
2937 1 13.4521 45.1041 3.9565
2938 1 15.0347 46.6867 5.5391
2939 1 13.4521 45.1041 7.1217
2940 1 15.0347 46.6867 8.7043
2941 1 13.4521 45.1041 10.2869
2942 1 15.0347 46.6867 11.8695
2943 1 13.4521 45.1041 13.4521
2944 1 15.0347 46.6867 15.0347
2945 1 13.4521 45.1041 16.6173
2946 1 15.0347 46.6867 18.1999
2947 1 13.4521 45.1041 19.7825
2948 1 15.0347 46.6867 21.3651
2949 1 13.4521 45.1041 22.9477
2950 1 15.0347 46.6867 24.5303
2951 1 13.4521 45.1041 26.1129
2952 1 15.0347 46.6867 27.6955
2953 1 13.4521 45.1041 29.2781
2954 1 15.0347 46.6867 30.8607
2955 1 13.4521 45.1041 32.4433
2956 1 15.0347 46.6867 34.0259
2957 1 13.4521 45.1041 35.6085
2958 1 15.0347 46.6867 37.1911
2959 1 13.4521 45.1041 38.7737
2960 1 15.0347 46.6867 40.3563
2961 1 13.4521 45.1041 41.9389
2962 1 15.0347 46.6867 43.5215
2963 1 13.4521 45.1041 45.1041
2964 1 15.0347 46.6867 46.6867
2965 1 13.4521 45.1041 48.2693
2966 1 15.0347 46.6867 49.8519
2967 1 13.4521 48.2693 0.7913
2968 1 15.0347 49.8519 2.3739
2969 1 13.4521 48.2693 3.9565
2970 1 15.0347 49.8519 5.5391
2971 1 13.4521 48.2693 7.1217
2972 1 15.0347 49.8519 8.7043
2973 1 13.4521 48.2693 10.2869
2974 1 15.0347 49.8519 11.8695
2975 1 13.4521 48.2693 13.4521
2976 1 15.0347 49.8519 15.0347
2977 1 13.4521 48.2693 16.6173
2978 1 15.0347 49.8519 18.1999
2979 1 13.4521 48.2693 19.7825
2980 1 15.0347 49.8519 21.3651
2981 1 13.4521 48.2693 22.9477
2982 1 15.0347 49.8519 24.5303
2983 1 13.4521 48.2693 26.1129
2984 1 15.0347 49.8519 27.6955
2985 1 13.4521 48.2693 29.2781
2986 1 15.0347 49.8519 30.8607
2987 1 13.4521 48.2693 32.4433
2988 1 15.0347 49.8519 34.0259
2989 1 13.4521 48.2693 35.6085
2990 1 15.0347 49.8519 37.1911
2991 1 13.4521 48.2693 38.7737
2992 1 15.0347 49.8519 40.3563
2993 1 13.4521 48.2693 41.9389
2994 1 15.0347 49.8519 43.5215
2995 1 13.4521 48.2693 45.1041
2996 1 15.0347 49.8519 46.6867
2997 1 13.4521 48.2693 48.2693
2998 1 15.0347 49.8519 49.8519
2999 1 35.6085 0.7913 0.7913
3000 1 37.1911 2.3739 2.3739
3001 1 35.6085 0.7913 3.9565
3002 1 37.1911 2.3739 5.5391
3003 1 35.6085 0.7913 7.1217
3004 1 37.1911 2.3739 8.7043
3005 1 35.6085 0.7913 10.2869
3006 1 37.1911 2.3739 11.8695
3007 1 35.6085 0.7913 13.4521
3008 1 37.1911 2.3739 15.0347
3009 1 35.6085 0.7913 16.6173
3010 1 37.1911 2.3739 18.1999
3011 1 35.6085 0.7913 19.7825
3012 1 37.1911 2.3739 21.3651
3013 1 35.6085 0.7913 22.9477
3014 1 37.1911 2.3739 24.5303
3015 1 35.6085 0.7913 26.1129
3016 1 37.1911 2.3739 27.6955
3017 1 35.6085 0.7913 29.2781
3018 1 37.1911 2.3739 30.8607
3019 1 35.6085 0.7913 32.4433
3020 1 37.1911 2.3739 34.0259
3021 1 35.6085 0.7913 35.6085
3022 1 37.1911 2.3739 37.1911
3023 1 35.6085 0.7913 38.7737
3024 1 37.1911 2.3739 40.3563
3025 1 35.6085 0.7913 41.9389
3026 1 37.1911 2.3739 43.5215
3027 1 35.6085 0.7913 45.1041
3028 1 37.1911 2.3739 46.6867
3029 1 35.6085 0.7913 48.2693
3030 1 37.1911 2.3739 49.8519
3031 1 35.6085 3.9565 0.7913
3032 1 37.1911 5.5391 2.3739
3033 1 35.6085 3.9565 3.9565
3034 1 37.1911 5.5391 5.5391
3035 1 35.6085 3.9565 7.1217
3036 1 37.1911 5.5391 8.7043
3037 1 35.6085 3.9565 10.2869
3038 1 37.1911 5.5391 11.8695
3039 1 35.6085 3.9565 13.4521
3040 1 37.1911 5.5391 15.0347
3041 1 35.6085 3.9565 16.6173
3042 1 37.1911 5.5391 18.1999
3043 1 35.6085 3.9565 19.7825
3044 1 37.1911 5.5391 21.3651
3045 1 35.6085 3.9565 22.9477
3046 1 37.1911 5.5391 24.5303
3047 1 35.6085 3.9565 26.1129
3048 1 37.1911 5.5391 27.6955
3049 1 35.6085 3.9565 29.2781
3050 1 37.1911 5.5391 30.8607
3051 1 35.6085 3.9565 32.4433
3052 1 37.1911 5.5391 34.0259
3053 1 35.6085 3.9565 35.6085
3054 1 37.1911 5.5391 37.1911
3055 1 35.6085 3.9565 38.7737
3056 1 37.1911 5.5391 40.3563
3057 1 35.6085 3.9565 41.9389
3058 1 37.1911 5.5391 43.5215
3059 1 35.6085 3.9565 45.1041
3060 1 37.1911 5.5391 46.6867
3061 1 35.6085 3.9565 48.2693
3062 1 37.1911 5.5391 49.8519
3063 1 35.6085 7.1217 0.7913
3064 1 37.1911 8.7043 2.3739
3065 1 35.6085 7.1217 3.9565
3066 1 37.1911 8.7043 5.5391
3067 1 35.6085 7.1217 7.1217
3068 1 37.1911 8.7043 8.7043
3069 1 35.6085 7.1217 10.2869
3070 1 37.1911 8.7043 11.8695
3071 1 35.6085 7.1217 13.4521
3072 1 37.1911 8.7043 15.0347
3073 1 35.6085 7.1217 16.6173
3074 1 37.1911 8.7043 18.1999
3075 1 35.6085 7.1217 19.7825
3076 1 37.1911 8.7043 21.3651
3077 1 35.6085 7.1217 22.9477
3078 1 37.1911 8.7043 24.5303
3079 1 35.6085 7.1217 26.1129
3080 1 37.1911 8.7043 27.6955
3081 1 35.6085 7.1217 29.2781
3082 1 37.1911 8.7043 30.8607
3083 1 35.6085 7.1217 32.4433
3084 1 37.1911 8.7043 34.0259
3085 1 35.6085 7.1217 35.6085
3086 1 37.1911 8.7043 37.1911
3087 1 35.6085 7.1217 38.7737
3088 1 37.1911 8.7043 40.3563
3089 1 35.6085 7.1217 41.9389
3090 1 37.1911 8.7043 43.5215
3091 1 35.6085 7.1217 45.1041
3092 1 37.1911 8.7043 46.6867
3093 1 35.6085 7.1217 48.2693
3094 1 37.1911 8.7043 49.8519
3095 1 35.6085 10.2869 0.7913
3096 1 37.1911 11.8695 2.3739
3097 1 35.6085 10.2869 3.9565
3098 1 37.1911 11.8695 5.5391
3099 1 35.6085 10.2869 7.1217
3100 1 37.1911 11.8695 8.7043
3101 1 35.6085 10.2869 10.2869
3102 1 37.1911 11.8695 11.8695
3103 1 35.6085 10.2869 13.4521
3104 1 37.1911 11.8695 15.0347
3105 1 35.6085 10.2869 16.6173
3106 1 37.1911 11.8695 18.1999
3107 1 35.6085 10.2869 19.7825
3108 1 37.1911 11.8695 21.3651
3109 1 35.6085 10.2869 22.9477
3110 1 37.1911 11.8695 24.5303
3111 1 35.6085 10.2869 26.1129
3112 1 37.1911 11.8695 27.6955
3113 1 35.6085 10.2869 29.2781
3114 1 37.1911 11.8695 30.8607
3115 1 35.6085 10.2869 32.4433
3116 1 37.1911 11.8695 34.0259
3117 1 35.6085 10.2869 35.6085
3118 1 37.1911 11.8695 37.1911
3119 1 35.6085 10.2869 38.7737
3120 1 37.1911 11.8695 40.3563
3121 1 35.6085 10.2869 41.9389
3122 1 37.1911 11.8695 43.5215
3123 1 35.6085 10.2869 45.1041
3124 1 37.1911 11.8695 46.6867
3125 1 35.6085 10.2869 48.2693
3126 1 37.1911 11.8695 49.8519
3127 1 35.6085 13.4521 0.7913
3128 1 37.1911 15.0347 2.3739
3129 1 35.6085 13.4521 3.9565
3130 1 37.1911 15.0347 5.5391
3131 1 35.6085 13.4521 7.1217
3132 1 37.1911 15.0347 8.7043
3133 1 35.6085 13.4521 10.2869
3134 1 37.1911 15.0347 11.8695
3135 1 35.6085 13.4521 13.4521
3136 1 37.1911 15.0347 15.0347
3137 1 35.6085 13.4521 16.6173
3138 1 37.1911 15.0347 18.1999
3139 1 35.6085 13.4521 19.7825
3140 1 37.1911 15.0347 21.3651
3141 1 35.6085 13.4521 22.9477
3142 1 37.1911 15.0347 24.5303
3143 1 35.6085 13.4521 26.1129
3144 1 37.1911 15.0347 27.6955
3145 1 35.6085 13.4521 29.2781
3146 1 37.1911 15.0347 30.8607
3147 1 35.6085 13.4521 32.4433
3148 1 37.1911 15.0347 34.0259
3149 1 35.6085 13.4521 35.6085
3150 1 37.1911 15.0347 37.1911
3151 1 35.6085 13.4521 38.7737
3152 1 37.1911 15.0347 40.3563
3153 1 35.6085 13.4521 41.9389
3154 1 37.1911 15.0347 43.5215
3155 1 35.6085 13.4521 45.1041
3156 1 37.1911 15.0347 46.6867
3157 1 35.6085 13.4521 48.2693
3158 1 37.1911 15.0347 49.8519
3159 1 35.6085 16.6173 0.7913
3160 1 37.1911 18.1999 2.3739
3161 1 35.6085 16.6173 3.9565
3162 1 37.1911 18.1999 5.5391
3163 1 35.6085 16.6173 7.1217
3164 1 37.1911 18.1999 8.7043
3165 1 35.6085 16.6173 10.2869
3166 1 37.1911 18.1999 11.8695
3167 1 35.6085 16.6173 13.4521
3168 1 37.1911 18.1999 15.0347
3169 1 35.6085 16.6173 16.6173
3170 1 37.1911 18.1999 18.1999
3171 1 35.6085 16.6173 19.7825
3172 1 37.1911 18.1999 21.3651
3173 1 35.6085 16.6173 22.9477
3174 1 37.1911 18.1999 24.5303
3175 1 35.6085 16.6173 26.1129
3176 1 37.1911 18.1999 27.6955
3177 1 35.6085 16.6173 29.2781
3178 1 37.1911 18.1999 30.8607
3179 1 35.6085 16.6173 32.4433
3180 1 37.1911 18.1999 34.0259
3181 1 35.6085 16.6173 35.6085
3182 1 37.1911 18.1999 37.1911
3183 1 35.6085 16.6173 38.7737
3184 1 37.1911 18.1999 40.3563
3185 1 35.6085 16.6173 41.9389
3186 1 37.1911 18.1999 43.5215
3187 1 35.6085 16.6173 45.1041
3188 1 37.1911 18.1999 46.6867
3189 1 35.6085 16.6173 48.2693
3190 1 37.1911 18.1999 49.8519
3191 1 35.6085 19.7825 0.7913
3192 1 37.1911 21.3651 2.3739
3193 1 35.6085 19.7825 3.9565
3194 1 37.1911 21.3651 5.5391
3195 1 35.6085 19.7825 7.1217
3196 1 37.1911 21.3651 8.7043
3197 1 35.6085 19.7825 10.2869
3198 1 37.1911 21.3651 11.8695
3199 1 35.6085 19.7825 13.4521
3200 1 37.1911 21.3651 15.0347
3201 1 35.6085 19.7825 16.6173
3202 1 37.1911 21.3651 18.1999
3203 1 35.6085 19.7825 19.7825
3204 1 37.1911 21.3651 21.3651
3205 1 35.6085 19.7825 22.9477
3206 1 37.1911 21.3651 24.5303
3207 1 35.6085 19.7825 26.1129
3208 1 37.1911 21.3651 27.6955
3209 1 35.6085 19.7825 29.2781
3210 1 37.1911 21.3651 30.8607
3211 1 35.6085 19.7825 32.4433
3212 1 37.1911 21.3651 34.0259
3213 1 35.6085 19.7825 35.6085
3214 1 37.1911 21.3651 37.1911
3215 1 35.6085 19.7825 38.7737
3216 1 37.1911 21.3651 40.3563
3217 1 35.6085 19.7825 41.9389
3218 1 37.1911 21.3651 43.5215
3219 1 35.6085 19.7825 45.1041
3220 1 37.1911 21.3651 46.6867
3221 1 35.6085 19.7825 48.2693
3222 1 37.1911 21.3651 49.8519
3223 1 35.6085 22.9477 0.7913
3224 1 37.1911 24.5303 2.3739
3225 1 35.6085 22.9477 3.9565
3226 1 37.1911 24.5303 5.5391
3227 1 35.6085 22.9477 7.1217
3228 1 37.1911 24.5303 8.7043
3229 1 35.6085 22.9477 10.2869
3230 1 37.1911 24.5303 11.8695
3231 1 35.6085 22.9477 13.4521
3232 1 37.1911 24.5303 15.0347
3233 1 35.6085 22.9477 16.6173
3234 1 37.1911 24.5303 18.1999
3235 1 35.6085 22.9477 19.7825
3236 1 37.1911 24.5303 21.3651
3237 1 35.6085 22.9477 22.9477
3238 1 37.1911 24.5303 24.5303
3239 1 35.6085 22.9477 26.1129
3240 1 37.1911 24.5303 27.6955
3241 1 35.6085 22.9477 29.2781
3242 1 37.1911 24.5303 30.8607
3243 1 35.6085 22.9477 32.4433
3244 1 37.1911 24.5303 34.0259
3245 1 35.6085 22.9477 35.6085
3246 1 37.1911 24.5303 37.1911
3247 1 35.6085 22.9477 38.7737
3248 1 37.1911 24.5303 40.3563
3249 1 35.6085 22.9477 41.9389
3250 1 37.1911 24.5303 43.5215
3251 1 35.6085 22.9477 45.1041
3252 1 37.1911 24.5303 46.6867
3253 1 35.6085 22.9477 48.2693
3254 1 37.1911 24.5303 49.8519
3255 1 35.6085 26.1129 0.7913
3256 1 37.1911 27.6955 2.3739
3257 1 35.6085 26.1129 3.9565
3258 1 37.1911 27.6955 5.5391
3259 1 35.6085 26.1129 7.1217
3260 1 37.1911 27.6955 8.7043
3261 1 35.6085 26.1129 10.2869
3262 1 37.1911 27.6955 11.8695
3263 1 35.6085 26.1129 13.4521
3264 1 37.1911 27.6955 15.0347
3265 1 35.6085 26.1129 16.6173
3266 1 37.1911 27.6955 18.1999
3267 1 35.6085 26.1129 19.7825
3268 1 37.1911 27.6955 21.3651
3269 1 35.6085 26.1129 22.9477
3270 1 37.1911 27.6955 24.5303
3271 1 35.6085 26.1129 26.1129
3272 1 37.1911 27.6955 27.6955
3273 1 35.6085 26.1129 29.2781
3274 1 37.1911 27.6955 30.8607
3275 1 35.6085 26.1129 32.4433
3276 1 37.1911 27.6955 34.0259
3277 1 35.6085 26.1129 35.6085
3278 1 37.1911 27.6955 37.1911
3279 1 35.6085 26.1129 38.7737
3280 1 37.1911 27.6955 40.3563
3281 1 35.6085 26.1129 41.9389
3282 1 37.1911 27.6955 43.5215
3283 1 35.6085 26.1129 45.1041
3284 1 37.1911 27.6955 46.6867
3285 1 35.6085 26.1129 48.2693
3286 1 37.1911 27.6955 49.8519
3287 1 35.6085 29.2781 0.7913
3288 1 37.1911 30.8607 2.3739
3289 1 35.6085 29.2781 3.9565
3290 1 37.1911 30.8607 5.5391
3291 1 35.6085 29.2781 7.1217
3292 1 37.1911 30.8607 8.7043
3293 1 35.6085 29.2781 10.2869
3294 1 37.1911 30.8607 11.8695
3295 1 35.6085 29.2781 13.4521
3296 1 37.1911 30.8607 15.0347
3297 1 35.6085 29.2781 16.6173
3298 1 37.1911 30.8607 18.1999
3299 1 35.6085 29.2781 19.7825
3300 1 37.1911 30.8607 21.3651
3301 1 35.6085 29.2781 22.9477
3302 1 37.1911 30.8607 24.5303
3303 1 35.6085 29.2781 26.1129
3304 1 37.1911 30.8607 27.6955
3305 1 35.6085 29.2781 29.2781
3306 1 37.1911 30.8607 30.8607
3307 1 35.6085 29.2781 32.4433
3308 1 37.1911 30.8607 34.0259
3309 1 35.6085 29.2781 35.6085
3310 1 37.1911 30.8607 37.1911
3311 1 35.6085 29.2781 38.7737
3312 1 37.1911 30.8607 40.3563
3313 1 35.6085 29.2781 41.9389
3314 1 37.1911 30.8607 43.5215
3315 1 35.6085 29.2781 45.1041
3316 1 37.1911 30.8607 46.6867
3317 1 35.6085 29.2781 48.2693
3318 1 37.1911 30.8607 49.8519
3319 1 35.6085 32.4433 0.7913
3320 1 37.1911 34.0259 2.3739
3321 1 35.6085 32.4433 3.9565
3322 1 37.1911 34.0259 5.5391
3323 1 35.6085 32.4433 7.1217
3324 1 37.1911 34.0259 8.7043
3325 1 35.6085 32.4433 10.2869
3326 1 37.1911 34.0259 11.8695
3327 1 35.6085 32.4433 13.4521
3328 1 37.1911 34.0259 15.0347
3329 1 35.6085 32.4433 16.6173
3330 1 37.1911 34.0259 18.1999
3331 1 35.6085 32.4433 19.7825
3332 1 37.1911 34.0259 21.3651
3333 1 35.6085 32.4433 22.9477
3334 1 37.1911 34.0259 24.5303
3335 1 35.6085 32.4433 26.1129
3336 1 37.1911 34.0259 27.6955
3337 1 35.6085 32.4433 29.2781
3338 1 37.1911 34.0259 30.8607
3339 1 35.6085 32.4433 32.4433
3340 1 37.1911 34.0259 34.0259
3341 1 35.6085 32.4433 35.6085
3342 1 37.1911 34.0259 37.1911
3343 1 35.6085 32.4433 38.7737
3344 1 37.1911 34.0259 40.3563
3345 1 35.6085 32.4433 41.9389
3346 1 37.1911 34.0259 43.5215
3347 1 35.6085 32.4433 45.1041
3348 1 37.1911 34.0259 46.6867
3349 1 35.6085 32.4433 48.2693
3350 1 37.1911 34.0259 49.8519
3351 1 35.6085 35.6085 0.7913
3352 1 37.1911 37.1911 2.3739
3353 1 35.6085 35.6085 3.9565
3354 1 37.1911 37.1911 5.5391
3355 1 35.6085 35.6085 7.1217
3356 1 37.1911 37.1911 8.7043
3357 1 35.6085 35.6085 10.2869
3358 1 37.1911 37.1911 11.8695
3359 1 35.6085 35.6085 13.4521
3360 1 37.1911 37.1911 15.0347
3361 1 35.6085 35.6085 16.6173
3362 1 37.1911 37.1911 18.1999
3363 1 35.6085 35.6085 19.7825
3364 1 37.1911 37.1911 21.3651
3365 1 35.6085 35.6085 22.9477
3366 1 37.1911 37.1911 24.5303
3367 1 35.6085 35.6085 26.1129
3368 1 37.1911 37.1911 27.6955
3369 1 35.6085 35.6085 29.2781
3370 1 37.1911 37.1911 30.8607
3371 1 35.6085 35.6085 32.4433
3372 1 37.1911 37.1911 34.0259
3373 1 35.6085 35.6085 35.6085
3374 1 37.1911 37.1911 37.1911
3375 1 35.6085 35.6085 38.7737
3376 1 37.1911 37.1911 40.3563
3377 1 35.6085 35.6085 41.9389
3378 1 37.1911 37.1911 43.5215
3379 1 35.6085 35.6085 45.1041
3380 1 37.1911 37.1911 46.6867
3381 1 35.6085 35.6085 48.2693
3382 1 37.1911 37.1911 49.8519
3383 1 35.6085 38.7737 0.7913
3384 1 37.1911 40.3563 2.3739
3385 1 35.6085 38.7737 3.9565
3386 1 37.1911 40.3563 5.5391
3387 1 35.6085 38.7737 7.1217
3388 1 37.1911 40.3563 8.7043
3389 1 35.6085 38.7737 10.2869
3390 1 37.1911 40.3563 11.8695
3391 1 35.6085 38.7737 13.4521
3392 1 37.1911 40.3563 15.0347
3393 1 35.6085 38.7737 16.6173
3394 1 37.1911 40.3563 18.1999
3395 1 35.6085 38.7737 19.7825
3396 1 37.1911 40.3563 21.3651
3397 1 35.6085 38.7737 22.9477
3398 1 37.1911 40.3563 24.5303
3399 1 35.6085 38.7737 26.1129
3400 1 37.1911 40.3563 27.6955
3401 1 35.6085 38.7737 29.2781
3402 1 37.1911 40.3563 30.8607
3403 1 35.6085 38.7737 32.4433
3404 1 37.1911 40.3563 34.0259
3405 1 35.6085 38.7737 35.6085
3406 1 37.1911 40.3563 37.1911
3407 1 35.6085 38.7737 38.7737
3408 1 37.1911 40.3563 40.3563
3409 1 35.6085 38.7737 41.9389
3410 1 37.1911 40.3563 43.5215
3411 1 35.6085 38.7737 45.1041
3412 1 37.1911 40.3563 46.6867
3413 1 35.6085 38.7737 48.2693
3414 1 37.1911 40.3563 49.8519
3415 1 35.6085 41.9389 0.7913
3416 1 37.1911 43.5215 2.3739
3417 1 35.6085 41.9389 3.9565
3418 1 37.1911 43.5215 5.5391
3419 1 35.6085 41.9389 7.1217
3420 1 37.1911 43.5215 8.7043
3421 1 35.6085 41.9389 10.2869
3422 1 37.1911 43.5215 11.8695
3423 1 35.6085 41.9389 13.4521
3424 1 37.1911 43.5215 15.0347
3425 1 35.6085 41.9389 16.6173
3426 1 37.1911 43.5215 18.1999
3427 1 35.6085 41.9389 19.7825
3428 1 37.1911 43.5215 21.3651
3429 1 35.6085 41.9389 22.9477
3430 1 37.1911 43.5215 24.5303
3431 1 35.6085 41.9389 26.1129
3432 1 37.1911 43.5215 27.6955
3433 1 35.6085 41.9389 29.2781
3434 1 37.1911 43.5215 30.8607
3435 1 35.6085 41.9389 32.4433
3436 1 37.1911 43.5215 34.0259
3437 1 35.6085 41.9389 35.6085
3438 1 37.1911 43.5215 37.1911
3439 1 35.6085 41.9389 38.7737
3440 1 37.1911 43.5215 40.3563
3441 1 35.6085 41.9389 41.9389
3442 1 37.1911 43.5215 43.5215
3443 1 35.6085 41.9389 45.1041
3444 1 37.1911 43.5215 46.6867
3445 1 35.6085 41.9389 48.2693
3446 1 37.1911 43.5215 49.8519
3447 1 35.6085 45.1041 0.7913
3448 1 37.1911 46.6867 2.3739
3449 1 35.6085 45.1041 3.9565
3450 1 37.1911 46.6867 5.5391
3451 1 35.6085 45.1041 7.1217
3452 1 37.1911 46.6867 8.7043
3453 1 35.6085 45.1041 10.2869
3454 1 37.1911 46.6867 11.8695
3455 1 35.6085 45.1041 13.4521
3456 1 37.1911 46.6867 15.0347
3457 1 35.6085 45.1041 16.6173
3458 1 37.1911 46.6867 18.1999
3459 1 35.6085 45.1041 19.7825
3460 1 37.1911 46.6867 21.3651
3461 1 35.6085 45.1041 22.9477
3462 1 37.1911 46.6867 24.5303
3463 1 35.6085 45.1041 26.1129
3464 1 37.1911 46.6867 27.6955
3465 1 35.6085 45.1041 29.2781
3466 1 37.1911 46.6867 30.8607
3467 1 35.6085 45.1041 32.4433
3468 1 37.1911 46.6867 34.0259
3469 1 35.6085 45.1041 35.6085
3470 1 37.1911 46.6867 37.1911
3471 1 35.6085 45.1041 38.7737
3472 1 37.1911 46.6867 40.3563
3473 1 35.6085 45.1041 41.9389
3474 1 37.1911 46.6867 43.5215
3475 1 35.6085 45.1041 45.1041
3476 1 37.1911 46.6867 46.6867
3477 1 35.6085 45.1041 48.2693
3478 1 37.1911 46.6867 49.8519
3479 1 35.6085 48.2693 0.7913
3480 1 37.1911 49.8519 2.3739
3481 1 35.6085 48.2693 3.9565
3482 1 37.1911 49.8519 5.5391
3483 1 35.6085 48.2693 7.1217
3484 1 37.1911 49.8519 8.7043
3485 1 35.6085 48.2693 10.2869
3486 1 37.1911 49.8519 11.8695
3487 1 35.6085 48.2693 13.4521
3488 1 37.1911 49.8519 15.0347
3489 1 35.6085 48.2693 16.6173
3490 1 37.1911 49.8519 18.1999
3491 1 35.6085 48.2693 19.7825
3492 1 37.1911 49.8519 21.3651
3493 1 35.6085 48.2693 22.9477
3494 1 37.1911 49.8519 24.5303
3495 1 35.6085 48.2693 26.1129
3496 1 37.1911 49.8519 27.6955
3497 1 35.6085 48.2693 29.2781
3498 1 37.1911 49.8519 30.8607
3499 1 35.6085 48.2693 32.4433
3500 1 37.1911 49.8519 34.0259
3501 1 35.6085 48.2693 35.6085
3502 1 37.1911 49.8519 37.1911
3503 1 35.6085 48.2693 38.7737
3504 1 37.1911 49.8519 40.3563
3505 1 35.6085 48.2693 41.9389
3506 1 37.1911 49.8519 43.5215
3507 1 35.6085 48.2693 45.1041
3508 1 37.1911 49.8519 46.6867
3509 1 35.6085 48.2693 48.2693
3510 1 37.1911 49.8519 49.8519
3511 1 38.7737 0.7913 0.7913
3512 1 40.3563 2.3739 2.3739
3513 1 38.7737 0.7913 3.9565
3514 1 40.3563 2.3739 5.5391
3515 1 38.7737 0.7913 7.1217
3516 1 40.3563 2.3739 8.7043
3517 1 38.7737 0.7913 10.2869
3518 1 40.3563 2.3739 11.8695
3519 1 38.7737 0.7913 13.4521
3520 1 40.3563 2.3739 15.0347
3521 1 38.7737 0.7913 16.6173
3522 1 40.3563 2.3739 18.1999
3523 1 38.7737 0.7913 19.7825
3524 1 40.3563 2.3739 21.3651
3525 1 38.7737 0.7913 22.9477
3526 1 40.3563 2.3739 24.5303
3527 1 38.7737 0.7913 26.1129
3528 1 40.3563 2.3739 27.6955
3529 1 38.7737 0.7913 29.2781
3530 1 40.3563 2.3739 30.8607
3531 1 38.7737 0.7913 32.4433
3532 1 40.3563 2.3739 34.0259
3533 1 38.7737 0.7913 35.6085
3534 1 40.3563 2.3739 37.1911
3535 1 38.7737 0.7913 38.7737
3536 1 40.3563 2.3739 40.3563
3537 1 38.7737 0.7913 41.9389
3538 1 40.3563 2.3739 43.5215
3539 1 38.7737 0.7913 45.1041
3540 1 40.3563 2.3739 46.6867
3541 1 38.7737 0.7913 48.2693
3542 1 40.3563 2.3739 49.8519
3543 1 38.7737 3.9565 0.7913
3544 1 40.3563 5.5391 2.3739
3545 1 38.7737 3.9565 3.9565
3546 1 40.3563 5.5391 5.5391
3547 1 38.7737 3.9565 7.1217
3548 1 40.3563 5.5391 8.7043
3549 1 38.7737 3.9565 10.2869
3550 1 40.3563 5.5391 11.8695
3551 1 38.7737 3.9565 13.4521
3552 1 40.3563 5.5391 15.0347
3553 1 38.7737 3.9565 16.6173
3554 1 40.3563 5.5391 18.1999
3555 1 38.7737 3.9565 19.7825
3556 1 40.3563 5.5391 21.3651
3557 1 38.7737 3.9565 22.9477
3558 1 40.3563 5.5391 24.5303
3559 1 38.7737 3.9565 26.1129
3560 1 40.3563 5.5391 27.6955
3561 1 38.7737 3.9565 29.2781
3562 1 40.3563 5.5391 30.8607
3563 1 38.7737 3.9565 32.4433
3564 1 40.3563 5.5391 34.0259
3565 1 38.7737 3.9565 35.6085
3566 1 40.3563 5.5391 37.1911
3567 1 38.7737 3.9565 38.7737
3568 1 40.3563 5.5391 40.3563
3569 1 38.7737 3.9565 41.9389
3570 1 40.3563 5.5391 43.5215
3571 1 38.7737 3.9565 45.1041
3572 1 40.3563 5.5391 46.6867
3573 1 38.7737 3.9565 48.2693
3574 1 40.3563 5.5391 49.8519
3575 1 38.7737 7.1217 0.7913
3576 1 40.3563 8.7043 2.3739
3577 1 38.7737 7.1217 3.9565
3578 1 40.3563 8.7043 5.5391
3579 1 38.7737 7.1217 7.1217
3580 1 40.3563 8.7043 8.7043
3581 1 38.7737 7.1217 10.2869
3582 1 40.3563 8.7043 11.8695
3583 1 38.7737 7.1217 13.4521
3584 1 40.3563 8.7043 15.0347
3585 1 38.7737 7.1217 16.6173
3586 1 40.3563 8.7043 18.1999
3587 1 38.7737 7.1217 19.7825
3588 1 40.3563 8.7043 21.3651
3589 1 38.7737 7.1217 22.9477
3590 1 40.3563 8.7043 24.5303
3591 1 38.7737 7.1217 26.1129
3592 1 40.3563 8.7043 27.6955
3593 1 38.7737 7.1217 29.2781
3594 1 40.3563 8.7043 30.8607
3595 1 38.7737 7.1217 32.4433
3596 1 40.3563 8.7043 34.0259
3597 1 38.7737 7.1217 35.6085
3598 1 40.3563 8.7043 37.1911
3599 1 38.7737 7.1217 38.7737
3600 1 40.3563 8.7043 40.3563
3601 1 38.7737 7.1217 41.9389
3602 1 40.3563 8.7043 43.5215
3603 1 38.7737 7.1217 45.1041
3604 1 40.3563 8.7043 46.6867
3605 1 38.7737 7.1217 48.2693
3606 1 40.3563 8.7043 49.8519
3607 1 38.7737 10.2869 0.7913
3608 1 40.3563 11.8695 2.3739
3609 1 38.7737 10.2869 3.9565
3610 1 40.3563 11.8695 5.5391
3611 1 38.7737 10.2869 7.1217
3612 1 40.3563 11.8695 8.7043
3613 1 38.7737 10.2869 10.2869
3614 1 40.3563 11.8695 11.8695
3615 1 38.7737 10.2869 13.4521
3616 1 40.3563 11.8695 15.0347
3617 1 38.7737 10.2869 16.6173
3618 1 40.3563 11.8695 18.1999
3619 1 38.7737 10.2869 19.7825
3620 1 40.3563 11.8695 21.3651
3621 1 38.7737 10.2869 22.9477
3622 1 40.3563 11.8695 24.5303
3623 1 38.7737 10.2869 26.1129
3624 1 40.3563 11.8695 27.6955
3625 1 38.7737 10.2869 29.2781
3626 1 40.3563 11.8695 30.8607
3627 1 38.7737 10.2869 32.4433
3628 1 40.3563 11.8695 34.0259
3629 1 38.7737 10.2869 35.6085
3630 1 40.3563 11.8695 37.1911
3631 1 38.7737 10.2869 38.7737
3632 1 40.3563 11.8695 40.3563
3633 1 38.7737 10.2869 41.9389
3634 1 40.3563 11.8695 43.5215
3635 1 38.7737 10.2869 45.1041
3636 1 40.3563 11.8695 46.6867
3637 1 38.7737 10.2869 48.2693
3638 1 40.3563 11.8695 49.8519
3639 1 38.7737 13.4521 0.7913
3640 1 40.3563 15.0347 2.3739
3641 1 38.7737 13.4521 3.9565
3642 1 40.3563 15.0347 5.5391
3643 1 38.7737 13.4521 7.1217
3644 1 40.3563 15.0347 8.7043
3645 1 38.7737 13.4521 10.2869
3646 1 40.3563 15.0347 11.8695
3647 1 38.7737 13.4521 13.4521
3648 1 40.3563 15.0347 15.0347
3649 1 38.7737 13.4521 16.6173
3650 1 40.3563 15.0347 18.1999
3651 1 38.7737 13.4521 19.7825
3652 1 40.3563 15.0347 21.3651
3653 1 38.7737 13.4521 22.9477
3654 1 40.3563 15.0347 24.5303
3655 1 38.7737 13.4521 26.1129
3656 1 40.3563 15.0347 27.6955
3657 1 38.7737 13.4521 29.2781
3658 1 40.3563 15.0347 30.8607
3659 1 38.7737 13.4521 32.4433
3660 1 40.3563 15.0347 34.0259
3661 1 38.7737 13.4521 35.6085
3662 1 40.3563 15.0347 37.1911
3663 1 38.7737 13.4521 38.7737
3664 1 40.3563 15.0347 40.3563
3665 1 38.7737 13.4521 41.9389
3666 1 40.3563 15.0347 43.5215
3667 1 38.7737 13.4521 45.1041
3668 1 40.3563 15.0347 46.6867
3669 1 38.7737 13.4521 48.2693
3670 1 40.3563 15.0347 49.8519
3671 1 38.7737 16.6173 0.7913
3672 1 40.3563 18.1999 2.3739
3673 1 38.7737 16.6173 3.9565
3674 1 40.3563 18.1999 5.5391
3675 1 38.7737 16.6173 7.1217
3676 1 40.3563 18.1999 8.7043
3677 1 38.7737 16.6173 10.2869
3678 1 40.3563 18.1999 11.8695
3679 1 38.7737 16.6173 13.4521
3680 1 40.3563 18.1999 15.0347
3681 1 38.7737 16.6173 16.6173
3682 1 40.3563 18.1999 18.1999
3683 1 38.7737 16.6173 19.7825
3684 1 40.3563 18.1999 21.3651
3685 1 38.7737 16.6173 22.9477
3686 1 40.3563 18.1999 24.5303
3687 1 38.7737 16.6173 26.1129
3688 1 40.3563 18.1999 27.6955
3689 1 38.7737 16.6173 29.2781
3690 1 40.3563 18.1999 30.8607
3691 1 38.7737 16.6173 32.4433
3692 1 40.3563 18.1999 34.0259
3693 1 38.7737 16.6173 35.6085
3694 1 40.3563 18.1999 37.1911
3695 1 38.7737 16.6173 38.7737
3696 1 40.3563 18.1999 40.3563
3697 1 38.7737 16.6173 41.9389
3698 1 40.3563 18.1999 43.5215
3699 1 38.7737 16.6173 45.1041
3700 1 40.3563 18.1999 46.6867
3701 1 38.7737 16.6173 48.2693
3702 1 40.3563 18.1999 49.8519
3703 1 38.7737 19.7825 0.7913
3704 1 40.3563 21.3651 2.3739
3705 1 38.7737 19.7825 3.9565
3706 1 40.3563 21.3651 5.5391
3707 1 38.7737 19.7825 7.1217
3708 1 40.3563 21.3651 8.7043
3709 1 38.7737 19.7825 10.2869
3710 1 40.3563 21.3651 11.8695
3711 1 38.7737 19.7825 13.4521
3712 1 40.3563 21.3651 15.0347
3713 1 38.7737 19.7825 16.6173
3714 1 40.3563 21.3651 18.1999
3715 1 38.7737 19.7825 19.7825
3716 1 40.3563 21.3651 21.3651
3717 1 38.7737 19.7825 22.9477
3718 1 40.3563 21.3651 24.5303
3719 1 38.7737 19.7825 26.1129
3720 1 40.3563 21.3651 27.6955
3721 1 38.7737 19.7825 29.2781
3722 1 40.3563 21.3651 30.8607
3723 1 38.7737 19.7825 32.4433
3724 1 40.3563 21.3651 34.0259
3725 1 38.7737 19.7825 35.6085
3726 1 40.3563 21.3651 37.1911
3727 1 38.7737 19.7825 38.7737
3728 1 40.3563 21.3651 40.3563
3729 1 38.7737 19.7825 41.9389
3730 1 40.3563 21.3651 43.5215
3731 1 38.7737 19.7825 45.1041
3732 1 40.3563 21.3651 46.6867
3733 1 38.7737 19.7825 48.2693
3734 1 40.3563 21.3651 49.8519
3735 1 38.7737 22.9477 0.7913
3736 1 40.3563 24.5303 2.3739
3737 1 38.7737 22.9477 3.9565
3738 1 40.3563 24.5303 5.5391
3739 1 38.7737 22.9477 7.1217
3740 1 40.3563 24.5303 8.7043
3741 1 38.7737 22.9477 10.2869
3742 1 40.3563 24.5303 11.8695
3743 1 38.7737 22.9477 13.4521
3744 1 40.3563 24.5303 15.0347
3745 1 38.7737 22.9477 16.6173
3746 1 40.3563 24.5303 18.1999
3747 1 38.7737 22.9477 19.7825
3748 1 40.3563 24.5303 21.3651
3749 1 38.7737 22.9477 22.9477
3750 1 40.3563 24.5303 24.5303
3751 1 38.7737 22.9477 26.1129
3752 1 40.3563 24.5303 27.6955
3753 1 38.7737 22.9477 29.2781
3754 1 40.3563 24.5303 30.8607
3755 1 38.7737 22.9477 32.4433
3756 1 40.3563 24.5303 34.0259
3757 1 38.7737 22.9477 35.6085
3758 1 40.3563 24.5303 37.1911
3759 1 38.7737 22.9477 38.7737
3760 1 40.3563 24.5303 40.3563
3761 1 38.7737 22.9477 41.9389
3762 1 40.3563 24.5303 43.5215
3763 1 38.7737 22.9477 45.1041
3764 1 40.3563 24.5303 46.6867
3765 1 38.7737 22.9477 48.2693
3766 1 40.3563 24.5303 49.8519
3767 1 38.7737 26.1129 0.7913
3768 1 40.3563 27.6955 2.3739
3769 1 38.7737 26.1129 3.9565
3770 1 40.3563 27.6955 5.5391
3771 1 38.7737 26.1129 7.1217
3772 1 40.3563 27.6955 8.7043
3773 1 38.7737 26.1129 10.2869
3774 1 40.3563 27.6955 11.8695
3775 1 38.7737 26.1129 13.4521
3776 1 40.3563 27.6955 15.0347
3777 1 38.7737 26.1129 16.6173
3778 1 40.3563 27.6955 18.1999
3779 1 38.7737 26.1129 19.7825
3780 1 40.3563 27.6955 21.3651
3781 1 38.7737 26.1129 22.9477
3782 1 40.3563 27.6955 24.5303
3783 1 38.7737 26.1129 26.1129
3784 1 40.3563 27.6955 27.6955
3785 1 38.7737 26.1129 29.2781
3786 1 40.3563 27.6955 30.8607
3787 1 38.7737 26.1129 32.4433
3788 1 40.3563 27.6955 34.0259
3789 1 38.7737 26.1129 35.6085
3790 1 40.3563 27.6955 37.1911
3791 1 38.7737 26.1129 38.7737
3792 1 40.3563 27.6955 40.3563
3793 1 38.7737 26.1129 41.9389
3794 1 40.3563 27.6955 43.5215
3795 1 38.7737 26.1129 45.1041
3796 1 40.3563 27.6955 46.6867
3797 1 38.7737 26.1129 48.2693
3798 1 40.3563 27.6955 49.8519
3799 1 38.7737 29.2781 0.7913
3800 1 40.3563 30.8607 2.3739
3801 1 38.7737 29.2781 3.9565
3802 1 40.3563 30.8607 5.5391
3803 1 38.7737 29.2781 7.1217
3804 1 40.3563 30.8607 8.7043
3805 1 38.7737 29.2781 10.2869
3806 1 40.3563 30.8607 11.8695
3807 1 38.7737 29.2781 13.4521
3808 1 40.3563 30.8607 15.0347
3809 1 38.7737 29.2781 16.6173
3810 1 40.3563 30.8607 18.1999
3811 1 38.7737 29.2781 19.7825
3812 1 40.3563 30.8607 21.3651
3813 1 38.7737 29.2781 22.9477
3814 1 40.3563 30.8607 24.5303
3815 1 38.7737 29.2781 26.1129
3816 1 40.3563 30.8607 27.6955
3817 1 38.7737 29.2781 29.2781
3818 1 40.3563 30.8607 30.8607
3819 1 38.7737 29.2781 32.4433
3820 1 40.3563 30.8607 34.0259
3821 1 38.7737 29.2781 35.6085
3822 1 40.3563 30.8607 37.1911
3823 1 38.7737 29.2781 38.7737
3824 1 40.3563 30.8607 40.3563
3825 1 38.7737 29.2781 41.9389
3826 1 40.3563 30.8607 43.5215
3827 1 38.7737 29.2781 45.1041
3828 1 40.3563 30.8607 46.6867
3829 1 38.7737 29.2781 48.2693
3830 1 40.3563 30.8607 49.8519
3831 1 38.7737 32.4433 0.7913
3832 1 40.3563 34.0259 2.3739
3833 1 38.7737 32.4433 3.9565
3834 1 40.3563 34.0259 5.5391
3835 1 38.7737 32.4433 7.1217
3836 1 40.3563 34.0259 8.7043
3837 1 38.7737 32.4433 10.2869
3838 1 40.3563 34.0259 11.8695
3839 1 38.7737 32.4433 13.4521
3840 1 40.3563 34.0259 15.0347
3841 1 38.7737 32.4433 16.6173
3842 1 40.3563 34.0259 18.1999
3843 1 38.7737 32.4433 19.7825
3844 1 40.3563 34.0259 21.3651
3845 1 38.7737 32.4433 22.9477
3846 1 40.3563 34.0259 24.5303
3847 1 38.7737 32.4433 26.1129
3848 1 40.3563 34.0259 27.6955
3849 1 38.7737 32.4433 29.2781
3850 1 40.3563 34.0259 30.8607
3851 1 38.7737 32.4433 32.4433
3852 1 40.3563 34.0259 34.0259
3853 1 38.7737 32.4433 35.6085
3854 1 40.3563 34.0259 37.1911
3855 1 38.7737 32.4433 38.7737
3856 1 40.3563 34.0259 40.3563
3857 1 38.7737 32.4433 41.9389
3858 1 40.3563 34.0259 43.5215
3859 1 38.7737 32.4433 45.1041
3860 1 40.3563 34.0259 46.6867
3861 1 38.7737 32.4433 48.2693
3862 1 40.3563 34.0259 49.8519
3863 1 38.7737 35.6085 0.7913
3864 1 40.3563 37.1911 2.3739
3865 1 38.7737 35.6085 3.9565
3866 1 40.3563 37.1911 5.5391
3867 1 38.7737 35.6085 7.1217
3868 1 40.3563 37.1911 8.7043
3869 1 38.7737 35.6085 10.2869
3870 1 40.3563 37.1911 11.8695
3871 1 38.7737 35.6085 13.4521
3872 1 40.3563 37.1911 15.0347
3873 1 38.7737 35.6085 16.6173
3874 1 40.3563 37.1911 18.1999
3875 1 38.7737 35.6085 19.7825
3876 1 40.3563 37.1911 21.3651
3877 1 38.7737 35.6085 22.9477
3878 1 40.3563 37.1911 24.5303
3879 1 38.7737 35.6085 26.1129
3880 1 40.3563 37.1911 27.6955
3881 1 38.7737 35.6085 29.2781
3882 1 40.3563 37.1911 30.8607
3883 1 38.7737 35.6085 32.4433
3884 1 40.3563 37.1911 34.0259
3885 1 38.7737 35.6085 35.6085
3886 1 40.3563 37.1911 37.1911
3887 1 38.7737 35.6085 38.7737
3888 1 40.3563 37.1911 40.3563
3889 1 38.7737 35.6085 41.9389
3890 1 40.3563 37.1911 43.5215
3891 1 38.7737 35.6085 45.1041
3892 1 40.3563 37.1911 46.6867
3893 1 38.7737 35.6085 48.2693
3894 1 40.3563 37.1911 49.8519
3895 1 38.7737 38.7737 0.7913
3896 1 40.3563 40.3563 2.3739
3897 1 38.7737 38.7737 3.9565
3898 1 40.3563 40.3563 5.5391
3899 1 38.7737 38.7737 7.1217
3900 1 40.3563 40.3563 8.7043
3901 1 38.7737 38.7737 10.2869
3902 1 40.3563 40.3563 11.8695
3903 1 38.7737 38.7737 13.4521
3904 1 40.3563 40.3563 15.0347
3905 1 38.7737 38.7737 16.6173
3906 1 40.3563 40.3563 18.1999
3907 1 38.7737 38.7737 19.7825
3908 1 40.3563 40.3563 21.3651
3909 1 38.7737 38.7737 22.9477
3910 1 40.3563 40.3563 24.5303
3911 1 38.7737 38.7737 26.1129
3912 1 40.3563 40.3563 27.6955
3913 1 38.7737 38.7737 29.2781
3914 1 40.3563 40.3563 30.8607
3915 1 38.7737 38.7737 32.4433
3916 1 40.3563 40.3563 34.0259
3917 1 38.7737 38.7737 35.6085
3918 1 40.3563 40.3563 37.1911
3919 1 38.7737 38.7737 38.7737
3920 1 40.3563 40.3563 40.3563
3921 1 38.7737 38.7737 41.9389
3922 1 40.3563 40.3563 43.5215
3923 1 38.7737 38.7737 45.1041
3924 1 40.3563 40.3563 46.6867
3925 1 38.7737 38.7737 48.2693
3926 1 40.3563 40.3563 49.8519
3927 1 38.7737 41.9389 0.7913
3928 1 40.3563 43.5215 2.3739
3929 1 38.7737 41.9389 3.9565
3930 1 40.3563 43.5215 5.5391
3931 1 38.7737 41.9389 7.1217
3932 1 40.3563 43.5215 8.7043
3933 1 38.7737 41.9389 10.2869
3934 1 40.3563 43.5215 11.8695
3935 1 38.7737 41.9389 13.4521
3936 1 40.3563 43.5215 15.0347
3937 1 38.7737 41.9389 16.6173
3938 1 40.3563 43.5215 18.1999
3939 1 38.7737 41.9389 19.7825
3940 1 40.3563 43.5215 21.3651
3941 1 38.7737 41.9389 22.9477
3942 1 40.3563 43.5215 24.5303
3943 1 38.7737 41.9389 26.1129
3944 1 40.3563 43.5215 27.6955
3945 1 38.7737 41.9389 29.2781
3946 1 40.3563 43.5215 30.8607
3947 1 38.7737 41.9389 32.4433
3948 1 40.3563 43.5215 34.0259
3949 1 38.7737 41.9389 35.6085
3950 1 40.3563 43.5215 37.1911
3951 1 38.7737 41.9389 38.7737
3952 1 40.3563 43.5215 40.3563
3953 1 38.7737 41.9389 41.9389
3954 1 40.3563 43.5215 43.5215
3955 1 38.7737 41.9389 45.1041
3956 1 40.3563 43.5215 46.6867
3957 1 38.7737 41.9389 48.2693
3958 1 40.3563 43.5215 49.8519
3959 1 38.7737 45.1041 0.7913
3960 1 40.3563 46.6867 2.3739
3961 1 38.7737 45.1041 3.9565
3962 1 40.3563 46.6867 5.5391
3963 1 38.7737 45.1041 7.1217
3964 1 40.3563 46.6867 8.7043
3965 1 38.7737 45.1041 10.2869
3966 1 40.3563 46.6867 11.8695
3967 1 38.7737 45.1041 13.4521
3968 1 40.3563 46.6867 15.0347
3969 1 38.7737 45.1041 16.6173
3970 1 40.3563 46.6867 18.1999
3971 1 38.7737 45.1041 19.7825
3972 1 40.3563 46.6867 21.3651
3973 1 38.7737 45.1041 22.9477
3974 1 40.3563 46.6867 24.5303
3975 1 38.7737 45.1041 26.1129
3976 1 40.3563 46.6867 27.6955
3977 1 38.7737 45.1041 29.2781
3978 1 40.3563 46.6867 30.8607
3979 1 38.7737 45.1041 32.4433
3980 1 40.3563 46.6867 34.0259
3981 1 38.7737 45.1041 35.6085
3982 1 40.3563 46.6867 37.1911
3983 1 38.7737 45.1041 38.7737
3984 1 40.3563 46.6867 40.3563
3985 1 38.7737 45.1041 41.9389
3986 1 40.3563 46.6867 43.5215
3987 1 38.7737 45.1041 45.1041
3988 1 40.3563 46.6867 46.6867
3989 1 38.7737 45.1041 48.2693
3990 1 40.3563 46.6867 49.8519
3991 1 38.7737 48.2693 0.7913
3992 1 40.3563 49.8519 2.3739
3993 1 38.7737 48.2693 3.9565
3994 1 40.3563 49.8519 5.5391
3995 1 38.7737 48.2693 7.1217
3996 1 40.3563 49.8519 8.7043
3997 1 38.7737 48.2693 10.2869
3998 1 40.3563 49.8519 11.8695
3999 1 38.7737 48.2693 13.4521
4000 1 40.3563 49.8519 15.0347
4001 1 38.7737 48.2693 16.6173
4002 1 40.3563 49.8519 18.1999
4003 1 38.7737 48.2693 19.7825
4004 1 40.3563 49.8519 21.3651
4005 1 38.7737 48.2693 22.9477
4006 1 40.3563 49.8519 24.5303
4007 1 38.7737 48.2693 26.1129
4008 1 40.3563 49.8519 27.6955
4009 1 38.7737 48.2693 29.2781
4010 1 40.3563 49.8519 30.8607
4011 1 38.7737 48.2693 32.4433
4012 1 40.3563 49.8519 34.0259
4013 1 38.7737 48.2693 35.6085
4014 1 40.3563 49.8519 37.1911
4015 1 38.7737 48.2693 38.7737
4016 1 40.3563 49.8519 40.3563
4017 1 38.7737 48.2693 41.9389
4018 1 40.3563 49.8519 43.5215
4019 1 38.7737 48.2693 45.1041
4020 1 40.3563 49.8519 46.6867
4021 1 38.7737 48.2693 48.2693
4022 1 40.3563 49.8519 49.8519
4023 1 41.9389 0.7913 0.7913
4024 1 43.5215 2.3739 2.3739
4025 1 41.9389 0.7913 3.9565
4026 1 43.5215 2.3739 5.5391
4027 1 41.9389 0.7913 7.1217
4028 1 43.5215 2.3739 8.7043
4029 1 41.9389 0.7913 10.2869
4030 1 43.5215 2.3739 11.8695
4031 1 41.9389 0.7913 13.4521
4032 1 43.5215 2.3739 15.0347
4033 1 41.9389 0.7913 16.6173
4034 1 43.5215 2.3739 18.1999
4035 1 41.9389 0.7913 19.7825
4036 1 43.5215 2.3739 21.3651
4037 1 41.9389 0.7913 22.9477
4038 1 43.5215 2.3739 24.5303
4039 1 41.9389 0.7913 26.1129
4040 1 43.5215 2.3739 27.6955
4041 1 41.9389 0.7913 29.2781
4042 1 43.5215 2.3739 30.8607
4043 1 41.9389 0.7913 32.4433
4044 1 43.5215 2.3739 34.0259
4045 1 41.9389 0.7913 35.6085
4046 1 43.5215 2.3739 37.1911
4047 1 41.9389 0.7913 38.7737
4048 1 43.5215 2.3739 40.3563
4049 1 41.9389 0.7913 41.9389
4050 1 43.5215 2.3739 43.5215
4051 1 41.9389 0.7913 45.1041
4052 1 43.5215 2.3739 46.6867
4053 1 41.9389 0.7913 48.2693
4054 1 43.5215 2.3739 49.8519
4055 1 41.9389 3.9565 0.7913
4056 1 43.5215 5.5391 2.3739
4057 1 41.9389 3.9565 3.9565
4058 1 43.5215 5.5391 5.5391
4059 1 41.9389 3.9565 7.1217
4060 1 43.5215 5.5391 8.7043
4061 1 41.9389 3.9565 10.2869
4062 1 43.5215 5.5391 11.8695
4063 1 41.9389 3.9565 13.4521
4064 1 43.5215 5.5391 15.0347
4065 1 41.9389 3.9565 16.6173
4066 1 43.5215 5.5391 18.1999
4067 1 41.9389 3.9565 19.7825
4068 1 43.5215 5.5391 21.3651
4069 1 41.9389 3.9565 22.9477
4070 1 43.5215 5.5391 24.5303
4071 1 41.9389 3.9565 26.1129
4072 1 43.5215 5.5391 27.6955
4073 1 41.9389 3.9565 29.2781
4074 1 43.5215 5.5391 30.8607
4075 1 41.9389 3.9565 32.4433
4076 1 43.5215 5.5391 34.0259
4077 1 41.9389 3.9565 35.6085
4078 1 43.5215 5.5391 37.1911
4079 1 41.9389 3.9565 38.7737
4080 1 43.5215 5.5391 40.3563
4081 1 41.9389 3.9565 41.9389
4082 1 43.5215 5.5391 43.5215
4083 1 41.9389 3.9565 45.1041
4084 1 43.5215 5.5391 46.6867
4085 1 41.9389 3.9565 48.2693
4086 1 43.5215 5.5391 49.8519
4087 1 41.9389 7.1217 0.7913
4088 1 43.5215 8.7043 2.3739
4089 1 41.9389 7.1217 3.9565
4090 1 43.5215 8.7043 5.5391
4091 1 41.9389 7.1217 7.1217
4092 1 43.5215 8.7043 8.7043
4093 1 41.9389 7.1217 10.2869
4094 1 43.5215 8.7043 11.8695
4095 1 41.9389 7.1217 13.4521
4096 1 43.5215 8.7043 15.0347
4097 1 41.9389 7.1217 16.6173
4098 1 43.5215 8.7043 18.1999
4099 1 41.9389 7.1217 19.7825
4100 1 43.5215 8.7043 21.3651
4101 1 41.9389 7.1217 22.9477
4102 1 43.5215 8.7043 24.5303
4103 1 41.9389 7.1217 26.1129
4104 1 43.5215 8.7043 27.6955
4105 1 41.9389 7.1217 29.2781
4106 1 43.5215 8.7043 30.8607
4107 1 41.9389 7.1217 32.4433
4108 1 43.5215 8.7043 34.0259
4109 1 41.9389 7.1217 35.6085
4110 1 43.5215 8.7043 37.1911
4111 1 41.9389 7.1217 38.7737
4112 1 43.5215 8.7043 40.3563
4113 1 41.9389 7.1217 41.9389
4114 1 43.5215 8.7043 43.5215
4115 1 41.9389 7.1217 45.1041
4116 1 43.5215 8.7043 46.6867
4117 1 41.9389 7.1217 48.2693
4118 1 43.5215 8.7043 49.8519
4119 1 41.9389 10.2869 0.7913
4120 1 43.5215 11.8695 2.3739
4121 1 41.9389 10.2869 3.9565
4122 1 43.5215 11.8695 5.5391
4123 1 41.9389 10.2869 7.1217
4124 1 43.5215 11.8695 8.7043
4125 1 41.9389 10.2869 10.2869
4126 1 43.5215 11.8695 11.8695
4127 1 41.9389 10.2869 13.4521
4128 1 43.5215 11.8695 15.0347
4129 1 41.9389 10.2869 16.6173
4130 1 43.5215 11.8695 18.1999
4131 1 41.9389 10.2869 19.7825
4132 1 43.5215 11.8695 21.3651
4133 1 41.9389 10.2869 22.9477
4134 1 43.5215 11.8695 24.5303
4135 1 41.9389 10.2869 26.1129
4136 1 43.5215 11.8695 27.6955
4137 1 41.9389 10.2869 29.2781
4138 1 43.5215 11.8695 30.8607
4139 1 41.9389 10.2869 32.4433
4140 1 43.5215 11.8695 34.0259
4141 1 41.9389 10.2869 35.6085
4142 1 43.5215 11.8695 37.1911
4143 1 41.9389 10.2869 38.7737
4144 1 43.5215 11.8695 40.3563
4145 1 41.9389 10.2869 41.9389
4146 1 43.5215 11.8695 43.5215
4147 1 41.9389 10.2869 45.1041
4148 1 43.5215 11.8695 46.6867
4149 1 41.9389 10.2869 48.2693
4150 1 43.5215 11.8695 49.8519
4151 1 41.9389 13.4521 0.7913
4152 1 43.5215 15.0347 2.3739
4153 1 41.9389 13.4521 3.9565
4154 1 43.5215 15.0347 5.5391
4155 1 41.9389 13.4521 7.1217
4156 1 43.5215 15.0347 8.7043
4157 1 41.9389 13.4521 10.2869
4158 1 43.5215 15.0347 11.8695
4159 1 41.9389 13.4521 13.4521
4160 1 43.5215 15.0347 15.0347
4161 1 41.9389 13.4521 16.6173
4162 1 43.5215 15.0347 18.1999
4163 1 41.9389 13.4521 19.7825
4164 1 43.5215 15.0347 21.3651
4165 1 41.9389 13.4521 22.9477
4166 1 43.5215 15.0347 24.5303
4167 1 41.9389 13.4521 26.1129
4168 1 43.5215 15.0347 27.6955
4169 1 41.9389 13.4521 29.2781
4170 1 43.5215 15.0347 30.8607
4171 1 41.9389 13.4521 32.4433
4172 1 43.5215 15.0347 34.0259
4173 1 41.9389 13.4521 35.6085
4174 1 43.5215 15.0347 37.1911
4175 1 41.9389 13.4521 38.7737
4176 1 43.5215 15.0347 40.3563
4177 1 41.9389 13.4521 41.9389
4178 1 43.5215 15.0347 43.5215
4179 1 41.9389 13.4521 45.1041
4180 1 43.5215 15.0347 46.6867
4181 1 41.9389 13.4521 48.2693
4182 1 43.5215 15.0347 49.8519
4183 1 41.9389 16.6173 0.7913
4184 1 43.5215 18.1999 2.3739
4185 1 41.9389 16.6173 3.9565
4186 1 43.5215 18.1999 5.5391
4187 1 41.9389 16.6173 7.1217
4188 1 43.5215 18.1999 8.7043
4189 1 41.9389 16.6173 10.2869
4190 1 43.5215 18.1999 11.8695
4191 1 41.9389 16.6173 13.4521
4192 1 43.5215 18.1999 15.0347
4193 1 41.9389 16.6173 16.6173
4194 1 43.5215 18.1999 18.1999
4195 1 41.9389 16.6173 19.7825
4196 1 43.5215 18.1999 21.3651
4197 1 41.9389 16.6173 22.9477
4198 1 43.5215 18.1999 24.5303
4199 1 41.9389 16.6173 26.1129
4200 1 43.5215 18.1999 27.6955
4201 1 41.9389 16.6173 29.2781
4202 1 43.5215 18.1999 30.8607
4203 1 41.9389 16.6173 32.4433
4204 1 43.5215 18.1999 34.0259
4205 1 41.9389 16.6173 35.6085
4206 1 43.5215 18.1999 37.1911
4207 1 41.9389 16.6173 38.7737
4208 1 43.5215 18.1999 40.3563
4209 1 41.9389 16.6173 41.9389
4210 1 43.5215 18.1999 43.5215
4211 1 41.9389 16.6173 45.1041
4212 1 43.5215 18.1999 46.6867
4213 1 41.9389 16.6173 48.2693
4214 1 43.5215 18.1999 49.8519
4215 1 41.9389 19.7825 0.7913
4216 1 43.5215 21.3651 2.3739
4217 1 41.9389 19.7825 3.9565
4218 1 43.5215 21.3651 5.5391
4219 1 41.9389 19.7825 7.1217
4220 1 43.5215 21.3651 8.7043
4221 1 41.9389 19.7825 10.2869
4222 1 43.5215 21.3651 11.8695
4223 1 41.9389 19.7825 13.4521
4224 1 43.5215 21.3651 15.0347
4225 1 41.9389 19.7825 16.6173
4226 1 43.5215 21.3651 18.1999
4227 1 41.9389 19.7825 19.7825
4228 1 43.5215 21.3651 21.3651
4229 1 41.9389 19.7825 22.9477
4230 1 43.5215 21.3651 24.5303
4231 1 41.9389 19.7825 26.1129
4232 1 43.5215 21.3651 27.6955
4233 1 41.9389 19.7825 29.2781
4234 1 43.5215 21.3651 30.8607
4235 1 41.9389 19.7825 32.4433
4236 1 43.5215 21.3651 34.0259
4237 1 41.9389 19.7825 35.6085
4238 1 43.5215 21.3651 37.1911
4239 1 41.9389 19.7825 38.7737
4240 1 43.5215 21.3651 40.3563
4241 1 41.9389 19.7825 41.9389
4242 1 43.5215 21.3651 43.5215
4243 1 41.9389 19.7825 45.1041
4244 1 43.5215 21.3651 46.6867
4245 1 41.9389 19.7825 48.2693
4246 1 43.5215 21.3651 49.8519
4247 1 41.9389 22.9477 0.7913
4248 1 43.5215 24.5303 2.3739
4249 1 41.9389 22.9477 3.9565
4250 1 43.5215 24.5303 5.5391
4251 1 41.9389 22.9477 7.1217
4252 1 43.5215 24.5303 8.7043
4253 1 41.9389 22.9477 10.2869
4254 1 43.5215 24.5303 11.8695
4255 1 41.9389 22.9477 13.4521
4256 1 43.5215 24.5303 15.0347
4257 1 41.9389 22.9477 16.6173
4258 1 43.5215 24.5303 18.1999
4259 1 41.9389 22.9477 19.7825
4260 1 43.5215 24.5303 21.3651
4261 1 41.9389 22.9477 22.9477
4262 1 43.5215 24.5303 24.5303
4263 1 41.9389 22.9477 26.1129
4264 1 43.5215 24.5303 27.6955
4265 1 41.9389 22.9477 29.2781
4266 1 43.5215 24.5303 30.8607
4267 1 41.9389 22.9477 32.4433
4268 1 43.5215 24.5303 34.0259
4269 1 41.9389 22.9477 35.6085
4270 1 43.5215 24.5303 37.1911
4271 1 41.9389 22.9477 38.7737
4272 1 43.5215 24.5303 40.3563
4273 1 41.9389 22.9477 41.9389
4274 1 43.5215 24.5303 43.5215
4275 1 41.9389 22.9477 45.1041
4276 1 43.5215 24.5303 46.6867
4277 1 41.9389 22.9477 48.2693
4278 1 43.5215 24.5303 49.8519
4279 1 41.9389 26.1129 0.7913
4280 1 43.5215 27.6955 2.3739
4281 1 41.9389 26.1129 3.9565
4282 1 43.5215 27.6955 5.5391
4283 1 41.9389 26.1129 7.1217
4284 1 43.5215 27.6955 8.7043
4285 1 41.9389 26.1129 10.2869
4286 1 43.5215 27.6955 11.8695
4287 1 41.9389 26.1129 13.4521
4288 1 43.5215 27.6955 15.0347
4289 1 41.9389 26.1129 16.6173
4290 1 43.5215 27.6955 18.1999
4291 1 41.9389 26.1129 19.7825
4292 1 43.5215 27.6955 21.3651
4293 1 41.9389 26.1129 22.9477
4294 1 43.5215 27.6955 24.5303
4295 1 41.9389 26.1129 26.1129
4296 1 43.5215 27.6955 27.6955
4297 1 41.9389 26.1129 29.2781
4298 1 43.5215 27.6955 30.8607
4299 1 41.9389 26.1129 32.4433
4300 1 43.5215 27.6955 34.0259
4301 1 41.9389 26.1129 35.6085
4302 1 43.5215 27.6955 37.1911
4303 1 41.9389 26.1129 38.7737
4304 1 43.5215 27.6955 40.3563
4305 1 41.9389 26.1129 41.9389
4306 1 43.5215 27.6955 43.5215
4307 1 41.9389 26.1129 45.1041
4308 1 43.5215 27.6955 46.6867
4309 1 41.9389 26.1129 48.2693
4310 1 43.5215 27.6955 49.8519
4311 1 41.9389 29.2781 0.7913
4312 1 43.5215 30.8607 2.3739
4313 1 41.9389 29.2781 3.9565
4314 1 43.5215 30.8607 5.5391
4315 1 41.9389 29.2781 7.1217
4316 1 43.5215 30.8607 8.7043
4317 1 41.9389 29.2781 10.2869
4318 1 43.5215 30.8607 11.8695
4319 1 41.9389 29.2781 13.4521
4320 1 43.5215 30.8607 15.0347
4321 1 41.9389 29.2781 16.6173
4322 1 43.5215 30.8607 18.1999
4323 1 41.9389 29.2781 19.7825
4324 1 43.5215 30.8607 21.3651
4325 1 41.9389 29.2781 22.9477
4326 1 43.5215 30.8607 24.5303
4327 1 41.9389 29.2781 26.1129
4328 1 43.5215 30.8607 27.6955
4329 1 41.9389 29.2781 29.2781
4330 1 43.5215 30.8607 30.8607
4331 1 41.9389 29.2781 32.4433
4332 1 43.5215 30.8607 34.0259
4333 1 41.9389 29.2781 35.6085
4334 1 43.5215 30.8607 37.1911
4335 1 41.9389 29.2781 38.7737
4336 1 43.5215 30.8607 40.3563
4337 1 41.9389 29.2781 41.9389
4338 1 43.5215 30.8607 43.5215
4339 1 41.9389 29.2781 45.1041
4340 1 43.5215 30.8607 46.6867
4341 1 41.9389 29.2781 48.2693
4342 1 43.5215 30.8607 49.8519
4343 1 41.9389 32.4433 0.7913
4344 1 43.5215 34.0259 2.3739
4345 1 41.9389 32.4433 3.9565
4346 1 43.5215 34.0259 5.5391
4347 1 41.9389 32.4433 7.1217
4348 1 43.5215 34.0259 8.7043
4349 1 41.9389 32.4433 10.2869
4350 1 43.5215 34.0259 11.8695
4351 1 41.9389 32.4433 13.4521
4352 1 43.5215 34.0259 15.0347
4353 1 41.9389 32.4433 16.6173
4354 1 43.5215 34.0259 18.1999
4355 1 41.9389 32.4433 19.7825
4356 1 43.5215 34.0259 21.3651
4357 1 41.9389 32.4433 22.9477
4358 1 43.5215 34.0259 24.5303
4359 1 41.9389 32.4433 26.1129
4360 1 43.5215 34.0259 27.6955
4361 1 41.9389 32.4433 29.2781
4362 1 43.5215 34.0259 30.8607
4363 1 41.9389 32.4433 32.4433
4364 1 43.5215 34.0259 34.0259
4365 1 41.9389 32.4433 35.6085
4366 1 43.5215 34.0259 37.1911
4367 1 41.9389 32.4433 38.7737
4368 1 43.5215 34.0259 40.3563
4369 1 41.9389 32.4433 41.9389
4370 1 43.5215 34.0259 43.5215
4371 1 41.9389 32.4433 45.1041
4372 1 43.5215 34.0259 46.6867
4373 1 41.9389 32.4433 48.2693
4374 1 43.5215 34.0259 49.8519
4375 1 41.9389 35.6085 0.7913
4376 1 43.5215 37.1911 2.3739
4377 1 41.9389 35.6085 3.9565
4378 1 43.5215 37.1911 5.5391
4379 1 41.9389 35.6085 7.1217
4380 1 43.5215 37.1911 8.7043
4381 1 41.9389 35.6085 10.2869
4382 1 43.5215 37.1911 11.8695
4383 1 41.9389 35.6085 13.4521
4384 1 43.5215 37.1911 15.0347
4385 1 41.9389 35.6085 16.6173
4386 1 43.5215 37.1911 18.1999
4387 1 41.9389 35.6085 19.7825
4388 1 43.5215 37.1911 21.3651
4389 1 41.9389 35.6085 22.9477
4390 1 43.5215 37.1911 24.5303
4391 1 41.9389 35.6085 26.1129
4392 1 43.5215 37.1911 27.6955
4393 1 41.9389 35.6085 29.2781
4394 1 43.5215 37.1911 30.8607
4395 1 41.9389 35.6085 32.4433
4396 1 43.5215 37.1911 34.0259
4397 1 41.9389 35.6085 35.6085
4398 1 43.5215 37.1911 37.1911
4399 1 41.9389 35.6085 38.7737
4400 1 43.5215 37.1911 40.3563
4401 1 41.9389 35.6085 41.9389
4402 1 43.5215 37.1911 43.5215
4403 1 41.9389 35.6085 45.1041
4404 1 43.5215 37.1911 46.6867
4405 1 41.9389 35.6085 48.2693
4406 1 43.5215 37.1911 49.8519
4407 1 41.9389 38.7737 0.7913
4408 1 43.5215 40.3563 2.3739
4409 1 41.9389 38.7737 3.9565
4410 1 43.5215 40.3563 5.5391
4411 1 41.9389 38.7737 7.1217
4412 1 43.5215 40.3563 8.7043
4413 1 41.9389 38.7737 10.2869
4414 1 43.5215 40.3563 11.8695
4415 1 41.9389 38.7737 13.4521
4416 1 43.5215 40.3563 15.0347
4417 1 41.9389 38.7737 16.6173
4418 1 43.5215 40.3563 18.1999
4419 1 41.9389 38.7737 19.7825
4420 1 43.5215 40.3563 21.3651
4421 1 41.9389 38.7737 22.9477
4422 1 43.5215 40.3563 24.5303
4423 1 41.9389 38.7737 26.1129
4424 1 43.5215 40.3563 27.6955
4425 1 41.9389 38.7737 29.2781
4426 1 43.5215 40.3563 30.8607
4427 1 41.9389 38.7737 32.4433
4428 1 43.5215 40.3563 34.0259
4429 1 41.9389 38.7737 35.6085
4430 1 43.5215 40.3563 37.1911
4431 1 41.9389 38.7737 38.7737
4432 1 43.5215 40.3563 40.3563
4433 1 41.9389 38.7737 41.9389
4434 1 43.5215 40.3563 43.5215
4435 1 41.9389 38.7737 45.1041
4436 1 43.5215 40.3563 46.6867
4437 1 41.9389 38.7737 48.2693
4438 1 43.5215 40.3563 49.8519
4439 1 41.9389 41.9389 0.7913
4440 1 43.5215 43.5215 2.3739
4441 1 41.9389 41.9389 3.9565
4442 1 43.5215 43.5215 5.5391
4443 1 41.9389 41.9389 7.1217
4444 1 43.5215 43.5215 8.7043
4445 1 41.9389 41.9389 10.2869
4446 1 43.5215 43.5215 11.8695
4447 1 41.9389 41.9389 13.4521
4448 1 43.5215 43.5215 15.0347
4449 1 41.9389 41.9389 16.6173
4450 1 43.5215 43.5215 18.1999
4451 1 41.9389 41.9389 19.7825
4452 1 43.5215 43.5215 21.3651
4453 1 41.9389 41.9389 22.9477
4454 1 43.5215 43.5215 24.5303
4455 1 41.9389 41.9389 26.1129
4456 1 43.5215 43.5215 27.6955
4457 1 41.9389 41.9389 29.2781
4458 1 43.5215 43.5215 30.8607
4459 1 41.9389 41.9389 32.4433
4460 1 43.5215 43.5215 34.0259
4461 1 41.9389 41.9389 35.6085
4462 1 43.5215 43.5215 37.1911
4463 1 41.9389 41.9389 38.7737
4464 1 43.5215 43.5215 40.3563
4465 1 41.9389 41.9389 41.9389
4466 1 43.5215 43.5215 43.5215
4467 1 41.9389 41.9389 45.1041
4468 1 43.5215 43.5215 46.6867
4469 1 41.9389 41.9389 48.2693
4470 1 43.5215 43.5215 49.8519
4471 1 41.9389 45.1041 0.7913
4472 1 43.5215 46.6867 2.3739
4473 1 41.9389 45.1041 3.9565
4474 1 43.5215 46.6867 5.5391
4475 1 41.9389 45.1041 7.1217
4476 1 43.5215 46.6867 8.7043
4477 1 41.9389 45.1041 10.2869
4478 1 43.5215 46.6867 11.8695
4479 1 41.9389 45.1041 13.4521
4480 1 43.5215 46.6867 15.0347
4481 1 41.9389 45.1041 16.6173
4482 1 43.5215 46.6867 18.1999
4483 1 41.9389 45.1041 19.7825
4484 1 43.5215 46.6867 21.3651
4485 1 41.9389 45.1041 22.9477
4486 1 43.5215 46.6867 24.5303
4487 1 41.9389 45.1041 26.1129
4488 1 43.5215 46.6867 27.6955
4489 1 41.9389 45.1041 29.2781
4490 1 43.5215 46.6867 30.8607
4491 1 41.9389 45.1041 32.4433
4492 1 43.5215 46.6867 34.0259
4493 1 41.9389 45.1041 35.6085
4494 1 43.5215 46.6867 37.1911
4495 1 41.9389 45.1041 38.7737
4496 1 43.5215 46.6867 40.3563
4497 1 41.9389 45.1041 41.9389
4498 1 43.5215 46.6867 43.5215
4499 1 41.9389 45.1041 45.1041
4500 1 43.5215 46.6867 46.6867
4501 1 41.9389 45.1041 48.2693
4502 1 43.5215 46.6867 49.8519
4503 1 41.9389 48.2693 0.7913
4504 1 43.5215 49.8519 2.3739
4505 1 41.9389 48.2693 3.9565
4506 1 43.5215 49.8519 5.5391
4507 1 41.9389 48.2693 7.1217
4508 1 43.5215 49.8519 8.7043
4509 1 41.9389 48.2693 10.2869
4510 1 43.5215 49.8519 11.8695
4511 1 41.9389 48.2693 13.4521
4512 1 43.5215 49.8519 15.0347
4513 1 41.9389 48.2693 16.6173
4514 1 43.5215 49.8519 18.1999
4515 1 41.9389 48.2693 19.7825
4516 1 43.5215 49.8519 21.3651
4517 1 41.9389 48.2693 22.9477
4518 1 43.5215 49.8519 24.5303
4519 1 41.9389 48.2693 26.1129
4520 1 43.5215 49.8519 27.6955
4521 1 41.9389 48.2693 29.2781
4522 1 43.5215 49.8519 30.8607
4523 1 41.9389 48.2693 32.4433
4524 1 43.5215 49.8519 34.0259
4525 1 41.9389 48.2693 35.6085
4526 1 43.5215 49.8519 37.1911
4527 1 41.9389 48.2693 38.7737
4528 1 43.5215 49.8519 40.3563
4529 1 41.9389 48.2693 41.9389
4530 1 43.5215 49.8519 43.5215
4531 1 41.9389 48.2693 45.1041
4532 1 43.5215 49.8519 46.6867
4533 1 41.9389 48.2693 48.2693
4534 1 43.5215 49.8519 49.8519
4535 1 45.1041 0.7913 0.7913
4536 1 46.6867 2.3739 2.3739
4537 1 45.1041 0.7913 3.9565
4538 1 46.6867 2.3739 5.5391
4539 1 45.1041 0.7913 7.1217
4540 1 46.6867 2.3739 8.7043
4541 1 45.1041 0.7913 10.2869
4542 1 46.6867 2.3739 11.8695
4543 1 45.1041 0.7913 13.4521
4544 1 46.6867 2.3739 15.0347
4545 1 45.1041 0.7913 16.6173
4546 1 46.6867 2.3739 18.1999
4547 1 45.1041 0.7913 19.7825
4548 1 46.6867 2.3739 21.3651
4549 1 45.1041 0.7913 22.9477
4550 1 46.6867 2.3739 24.5303
4551 1 45.1041 0.7913 26.1129
4552 1 46.6867 2.3739 27.6955
4553 1 45.1041 0.7913 29.2781
4554 1 46.6867 2.3739 30.8607
4555 1 45.1041 0.7913 32.4433
4556 1 46.6867 2.3739 34.0259
4557 1 45.1041 0.7913 35.6085
4558 1 46.6867 2.3739 37.1911
4559 1 45.1041 0.7913 38.7737
4560 1 46.6867 2.3739 40.3563
4561 1 45.1041 0.7913 41.9389
4562 1 46.6867 2.3739 43.5215
4563 1 45.1041 0.7913 45.1041
4564 1 46.6867 2.3739 46.6867
4565 1 45.1041 0.7913 48.2693
4566 1 46.6867 2.3739 49.8519
4567 1 45.1041 3.9565 0.7913
4568 1 46.6867 5.5391 2.3739
4569 1 45.1041 3.9565 3.9565
4570 1 46.6867 5.5391 5.5391
4571 1 45.1041 3.9565 7.1217
4572 1 46.6867 5.5391 8.7043
4573 1 45.1041 3.9565 10.2869
4574 1 46.6867 5.5391 11.8695
4575 1 45.1041 3.9565 13.4521
4576 1 46.6867 5.5391 15.0347
4577 1 45.1041 3.9565 16.6173
4578 1 46.6867 5.5391 18.1999
4579 1 45.1041 3.9565 19.7825
4580 1 46.6867 5.5391 21.3651
4581 1 45.1041 3.9565 22.9477
4582 1 46.6867 5.5391 24.5303
4583 1 45.1041 3.9565 26.1129
4584 1 46.6867 5.5391 27.6955
4585 1 45.1041 3.9565 29.2781
4586 1 46.6867 5.5391 30.8607
4587 1 45.1041 3.9565 32.4433
4588 1 46.6867 5.5391 34.0259
4589 1 45.1041 3.9565 35.6085
4590 1 46.6867 5.5391 37.1911
4591 1 45.1041 3.9565 38.7737
4592 1 46.6867 5.5391 40.3563
4593 1 45.1041 3.9565 41.9389
4594 1 46.6867 5.5391 43.5215
4595 1 45.1041 3.9565 45.1041
4596 1 46.6867 5.5391 46.6867
4597 1 45.1041 3.9565 48.2693
4598 1 46.6867 5.5391 49.8519
4599 1 45.1041 7.1217 0.7913
4600 1 46.6867 8.7043 2.3739
4601 1 45.1041 7.1217 3.9565
4602 1 46.6867 8.7043 5.5391
4603 1 45.1041 7.1217 7.1217
4604 1 46.6867 8.7043 8.7043
4605 1 45.1041 7.1217 10.2869
4606 1 46.6867 8.7043 11.8695
4607 1 45.1041 7.1217 13.4521
4608 1 46.6867 8.7043 15.0347
4609 1 45.1041 7.1217 16.6173
4610 1 46.6867 8.7043 18.1999
4611 1 45.1041 7.1217 19.7825
4612 1 46.6867 8.7043 21.3651
4613 1 45.1041 7.1217 22.9477
4614 1 46.6867 8.7043 24.5303
4615 1 45.1041 7.1217 26.1129
4616 1 46.6867 8.7043 27.6955
4617 1 45.1041 7.1217 29.2781
4618 1 46.6867 8.7043 30.8607
4619 1 45.1041 7.1217 32.4433
4620 1 46.6867 8.7043 34.0259
4621 1 45.1041 7.1217 35.6085
4622 1 46.6867 8.7043 37.1911
4623 1 45.1041 7.1217 38.7737
4624 1 46.6867 8.7043 40.3563
4625 1 45.1041 7.1217 41.9389
4626 1 46.6867 8.7043 43.5215
4627 1 45.1041 7.1217 45.1041
4628 1 46.6867 8.7043 46.6867
4629 1 45.1041 7.1217 48.2693
4630 1 46.6867 8.7043 49.8519
4631 1 45.1041 10.2869 0.7913
4632 1 46.6867 11.8695 2.3739
4633 1 45.1041 10.2869 3.9565
4634 1 46.6867 11.8695 5.5391
4635 1 45.1041 10.2869 7.1217
4636 1 46.6867 11.8695 8.7043
4637 1 45.1041 10.2869 10.2869
4638 1 46.6867 11.8695 11.8695
4639 1 45.1041 10.2869 13.4521
4640 1 46.6867 11.8695 15.0347
4641 1 45.1041 10.2869 16.6173
4642 1 46.6867 11.8695 18.1999
4643 1 45.1041 10.2869 19.7825
4644 1 46.6867 11.8695 21.3651
4645 1 45.1041 10.2869 22.9477
4646 1 46.6867 11.8695 24.5303
4647 1 45.1041 10.2869 26.1129
4648 1 46.6867 11.8695 27.6955
4649 1 45.1041 10.2869 29.2781
4650 1 46.6867 11.8695 30.8607
4651 1 45.1041 10.2869 32.4433
4652 1 46.6867 11.8695 34.0259
4653 1 45.1041 10.2869 35.6085
4654 1 46.6867 11.8695 37.1911
4655 1 45.1041 10.2869 38.7737
4656 1 46.6867 11.8695 40.3563
4657 1 45.1041 10.2869 41.9389
4658 1 46.6867 11.8695 43.5215
4659 1 45.1041 10.2869 45.1041
4660 1 46.6867 11.8695 46.6867
4661 1 45.1041 10.2869 48.2693
4662 1 46.6867 11.8695 49.8519
4663 1 45.1041 13.4521 0.7913
4664 1 46.6867 15.0347 2.3739
4665 1 45.1041 13.4521 3.9565
4666 1 46.6867 15.0347 5.5391
4667 1 45.1041 13.4521 7.1217
4668 1 46.6867 15.0347 8.7043
4669 1 45.1041 13.4521 10.2869
4670 1 46.6867 15.0347 11.8695
4671 1 45.1041 13.4521 13.4521
4672 1 46.6867 15.0347 15.0347
4673 1 45.1041 13.4521 16.6173
4674 1 46.6867 15.0347 18.1999
4675 1 45.1041 13.4521 19.7825
4676 1 46.6867 15.0347 21.3651
4677 1 45.1041 13.4521 22.9477
4678 1 46.6867 15.0347 24.5303
4679 1 45.1041 13.4521 26.1129
4680 1 46.6867 15.0347 27.6955
4681 1 45.1041 13.4521 29.2781
4682 1 46.6867 15.0347 30.8607
4683 1 45.1041 13.4521 32.4433
4684 1 46.6867 15.0347 34.0259
4685 1 45.1041 13.4521 35.6085
4686 1 46.6867 15.0347 37.1911
4687 1 45.1041 13.4521 38.7737
4688 1 46.6867 15.0347 40.3563
4689 1 45.1041 13.4521 41.9389
4690 1 46.6867 15.0347 43.5215
4691 1 45.1041 13.4521 45.1041
4692 1 46.6867 15.0347 46.6867
4693 1 45.1041 13.4521 48.2693
4694 1 46.6867 15.0347 49.8519
4695 1 45.1041 16.6173 0.7913
4696 1 46.6867 18.1999 2.3739
4697 1 45.1041 16.6173 3.9565
4698 1 46.6867 18.1999 5.5391
4699 1 45.1041 16.6173 7.1217
4700 1 46.6867 18.1999 8.7043
4701 1 45.1041 16.6173 10.2869
4702 1 46.6867 18.1999 11.8695
4703 1 45.1041 16.6173 13.4521
4704 1 46.6867 18.1999 15.0347
4705 1 45.1041 16.6173 16.6173
4706 1 46.6867 18.1999 18.1999
4707 1 45.1041 16.6173 19.7825
4708 1 46.6867 18.1999 21.3651
4709 1 45.1041 16.6173 22.9477
4710 1 46.6867 18.1999 24.5303
4711 1 45.1041 16.6173 26.1129
4712 1 46.6867 18.1999 27.6955
4713 1 45.1041 16.6173 29.2781
4714 1 46.6867 18.1999 30.8607
4715 1 45.1041 16.6173 32.4433
4716 1 46.6867 18.1999 34.0259
4717 1 45.1041 16.6173 35.6085
4718 1 46.6867 18.1999 37.1911
4719 1 45.1041 16.6173 38.7737
4720 1 46.6867 18.1999 40.3563
4721 1 45.1041 16.6173 41.9389
4722 1 46.6867 18.1999 43.5215
4723 1 45.1041 16.6173 45.1041
4724 1 46.6867 18.1999 46.6867
4725 1 45.1041 16.6173 48.2693
4726 1 46.6867 18.1999 49.8519
4727 1 45.1041 19.7825 0.7913
4728 1 46.6867 21.3651 2.3739
4729 1 45.1041 19.7825 3.9565
4730 1 46.6867 21.3651 5.5391
4731 1 45.1041 19.7825 7.1217
4732 1 46.6867 21.3651 8.7043
4733 1 45.1041 19.7825 10.2869
4734 1 46.6867 21.3651 11.8695
4735 1 45.1041 19.7825 13.4521
4736 1 46.6867 21.3651 15.0347
4737 1 45.1041 19.7825 16.6173
4738 1 46.6867 21.3651 18.1999
4739 1 45.1041 19.7825 19.7825
4740 1 46.6867 21.3651 21.3651
4741 1 45.1041 19.7825 22.9477
4742 1 46.6867 21.3651 24.5303
4743 1 45.1041 19.7825 26.1129
4744 1 46.6867 21.3651 27.6955
4745 1 45.1041 19.7825 29.2781
4746 1 46.6867 21.3651 30.8607
4747 1 45.1041 19.7825 32.4433
4748 1 46.6867 21.3651 34.0259
4749 1 45.1041 19.7825 35.6085
4750 1 46.6867 21.3651 37.1911
4751 1 45.1041 19.7825 38.7737
4752 1 46.6867 21.3651 40.3563
4753 1 45.1041 19.7825 41.9389
4754 1 46.6867 21.3651 43.5215
4755 1 45.1041 19.7825 45.1041
4756 1 46.6867 21.3651 46.6867
4757 1 45.1041 19.7825 48.2693
4758 1 46.6867 21.3651 49.8519
4759 1 45.1041 22.9477 0.7913
4760 1 46.6867 24.5303 2.3739
4761 1 45.1041 22.9477 3.9565
4762 1 46.6867 24.5303 5.5391
4763 1 45.1041 22.9477 7.1217
4764 1 46.6867 24.5303 8.7043
4765 1 45.1041 22.9477 10.2869
4766 1 46.6867 24.5303 11.8695
4767 1 45.1041 22.9477 13.4521
4768 1 46.6867 24.5303 15.0347
4769 1 45.1041 22.9477 16.6173
4770 1 46.6867 24.5303 18.1999
4771 1 45.1041 22.9477 19.7825
4772 1 46.6867 24.5303 21.3651
4773 1 45.1041 22.9477 22.9477
4774 1 46.6867 24.5303 24.5303
4775 1 45.1041 22.9477 26.1129
4776 1 46.6867 24.5303 27.6955
4777 1 45.1041 22.9477 29.2781
4778 1 46.6867 24.5303 30.8607
4779 1 45.1041 22.9477 32.4433
4780 1 46.6867 24.5303 34.0259
4781 1 45.1041 22.9477 35.6085
4782 1 46.6867 24.5303 37.1911
4783 1 45.1041 22.9477 38.7737
4784 1 46.6867 24.5303 40.3563
4785 1 45.1041 22.9477 41.9389
4786 1 46.6867 24.5303 43.5215
4787 1 45.1041 22.9477 45.1041
4788 1 46.6867 24.5303 46.6867
4789 1 45.1041 22.9477 48.2693
4790 1 46.6867 24.5303 49.8519
4791 1 45.1041 26.1129 0.7913
4792 1 46.6867 27.6955 2.3739
4793 1 45.1041 26.1129 3.9565
4794 1 46.6867 27.6955 5.5391
4795 1 45.1041 26.1129 7.1217
4796 1 46.6867 27.6955 8.7043
4797 1 45.1041 26.1129 10.2869
4798 1 46.6867 27.6955 11.8695
4799 1 45.1041 26.1129 13.4521
4800 1 46.6867 27.6955 15.0347
4801 1 45.1041 26.1129 16.6173
4802 1 46.6867 27.6955 18.1999
4803 1 45.1041 26.1129 19.7825
4804 1 46.6867 27.6955 21.3651
4805 1 45.1041 26.1129 22.9477
4806 1 46.6867 27.6955 24.5303
4807 1 45.1041 26.1129 26.1129
4808 1 46.6867 27.6955 27.6955
4809 1 45.1041 26.1129 29.2781
4810 1 46.6867 27.6955 30.8607
4811 1 45.1041 26.1129 32.4433
4812 1 46.6867 27.6955 34.0259
4813 1 45.1041 26.1129 35.6085
4814 1 46.6867 27.6955 37.1911
4815 1 45.1041 26.1129 38.7737
4816 1 46.6867 27.6955 40.3563
4817 1 45.1041 26.1129 41.9389
4818 1 46.6867 27.6955 43.5215
4819 1 45.1041 26.1129 45.1041
4820 1 46.6867 27.6955 46.6867
4821 1 45.1041 26.1129 48.2693
4822 1 46.6867 27.6955 49.8519
4823 1 45.1041 29.2781 0.7913
4824 1 46.6867 30.8607 2.3739
4825 1 45.1041 29.2781 3.9565
4826 1 46.6867 30.8607 5.5391
4827 1 45.1041 29.2781 7.1217
4828 1 46.6867 30.8607 8.7043
4829 1 45.1041 29.2781 10.2869
4830 1 46.6867 30.8607 11.8695
4831 1 45.1041 29.2781 13.4521
4832 1 46.6867 30.8607 15.0347
4833 1 45.1041 29.2781 16.6173
4834 1 46.6867 30.8607 18.1999
4835 1 45.1041 29.2781 19.7825
4836 1 46.6867 30.8607 21.3651
4837 1 45.1041 29.2781 22.9477
4838 1 46.6867 30.8607 24.5303
4839 1 45.1041 29.2781 26.1129
4840 1 46.6867 30.8607 27.6955
4841 1 45.1041 29.2781 29.2781
4842 1 46.6867 30.8607 30.8607
4843 1 45.1041 29.2781 32.4433
4844 1 46.6867 30.8607 34.0259
4845 1 45.1041 29.2781 35.6085
4846 1 46.6867 30.8607 37.1911
4847 1 45.1041 29.2781 38.7737
4848 1 46.6867 30.8607 40.3563
4849 1 45.1041 29.2781 41.9389
4850 1 46.6867 30.8607 43.5215
4851 1 45.1041 29.2781 45.1041
4852 1 46.6867 30.8607 46.6867
4853 1 45.1041 29.2781 48.2693
4854 1 46.6867 30.8607 49.8519
4855 1 45.1041 32.4433 0.7913
4856 1 46.6867 34.0259 2.3739
4857 1 45.1041 32.4433 3.9565
4858 1 46.6867 34.0259 5.5391
4859 1 45.1041 32.4433 7.1217
4860 1 46.6867 34.0259 8.7043
4861 1 45.1041 32.4433 10.2869
4862 1 46.6867 34.0259 11.8695
4863 1 45.1041 32.4433 13.4521
4864 1 46.6867 34.0259 15.0347
4865 1 45.1041 32.4433 16.6173
4866 1 46.6867 34.0259 18.1999
4867 1 45.1041 32.4433 19.7825
4868 1 46.6867 34.0259 21.3651
4869 1 45.1041 32.4433 22.9477
4870 1 46.6867 34.0259 24.5303
4871 1 45.1041 32.4433 26.1129
4872 1 46.6867 34.0259 27.6955
4873 1 45.1041 32.4433 29.2781
4874 1 46.6867 34.0259 30.8607
4875 1 45.1041 32.4433 32.4433
4876 1 46.6867 34.0259 34.0259
4877 1 45.1041 32.4433 35.6085
4878 1 46.6867 34.0259 37.1911
4879 1 45.1041 32.4433 38.7737
4880 1 46.6867 34.0259 40.3563
4881 1 45.1041 32.4433 41.9389
4882 1 46.6867 34.0259 43.5215
4883 1 45.1041 32.4433 45.1041
4884 1 46.6867 34.0259 46.6867
4885 1 45.1041 32.4433 48.2693
4886 1 46.6867 34.0259 49.8519
4887 1 45.1041 35.6085 0.7913
4888 1 46.6867 37.1911 2.3739
4889 1 45.1041 35.6085 3.9565
4890 1 46.6867 37.1911 5.5391
4891 1 45.1041 35.6085 7.1217
4892 1 46.6867 37.1911 8.7043
4893 1 45.1041 35.6085 10.2869
4894 1 46.6867 37.1911 11.8695
4895 1 45.1041 35.6085 13.4521
4896 1 46.6867 37.1911 15.0347
4897 1 45.1041 35.6085 16.6173
4898 1 46.6867 37.1911 18.1999
4899 1 45.1041 35.6085 19.7825
4900 1 46.6867 37.1911 21.3651
4901 1 45.1041 35.6085 22.9477
4902 1 46.6867 37.1911 24.5303
4903 1 45.1041 35.6085 26.1129
4904 1 46.6867 37.1911 27.6955
4905 1 45.1041 35.6085 29.2781
4906 1 46.6867 37.1911 30.8607
4907 1 45.1041 35.6085 32.4433
4908 1 46.6867 37.1911 34.0259
4909 1 45.1041 35.6085 35.6085
4910 1 46.6867 37.1911 37.1911
4911 1 45.1041 35.6085 38.7737
4912 1 46.6867 37.1911 40.3563
4913 1 45.1041 35.6085 41.9389
4914 1 46.6867 37.1911 43.5215
4915 1 45.1041 35.6085 45.1041
4916 1 46.6867 37.1911 46.6867
4917 1 45.1041 35.6085 48.2693
4918 1 46.6867 37.1911 49.8519
4919 1 45.1041 38.7737 0.7913
4920 1 46.6867 40.3563 2.3739
4921 1 45.1041 38.7737 3.9565
4922 1 46.6867 40.3563 5.5391
4923 1 45.1041 38.7737 7.1217
4924 1 46.6867 40.3563 8.7043
4925 1 45.1041 38.7737 10.2869
4926 1 46.6867 40.3563 11.8695
4927 1 45.1041 38.7737 13.4521
4928 1 46.6867 40.3563 15.0347
4929 1 45.1041 38.7737 16.6173
4930 1 46.6867 40.3563 18.1999
4931 1 45.1041 38.7737 19.7825
4932 1 46.6867 40.3563 21.3651
4933 1 45.1041 38.7737 22.9477
4934 1 46.6867 40.3563 24.5303
4935 1 45.1041 38.7737 26.1129
4936 1 46.6867 40.3563 27.6955
4937 1 45.1041 38.7737 29.2781
4938 1 46.6867 40.3563 30.8607
4939 1 45.1041 38.7737 32.4433
4940 1 46.6867 40.3563 34.0259
4941 1 45.1041 38.7737 35.6085
4942 1 46.6867 40.3563 37.1911
4943 1 45.1041 38.7737 38.7737
4944 1 46.6867 40.3563 40.3563
4945 1 45.1041 38.7737 41.9389
4946 1 46.6867 40.3563 43.5215
4947 1 45.1041 38.7737 45.1041
4948 1 46.6867 40.3563 46.6867
4949 1 45.1041 38.7737 48.2693
4950 1 46.6867 40.3563 49.8519
4951 1 45.1041 41.9389 0.7913
4952 1 46.6867 43.5215 2.3739
4953 1 45.1041 41.9389 3.9565
4954 1 46.6867 43.5215 5.5391
4955 1 45.1041 41.9389 7.1217
4956 1 46.6867 43.5215 8.7043
4957 1 45.1041 41.9389 10.2869
4958 1 46.6867 43.5215 11.8695
4959 1 45.1041 41.9389 13.4521
4960 1 46.6867 43.5215 15.0347
4961 1 45.1041 41.9389 16.6173
4962 1 46.6867 43.5215 18.1999
4963 1 45.1041 41.9389 19.7825
4964 1 46.6867 43.5215 21.3651
4965 1 45.1041 41.9389 22.9477
4966 1 46.6867 43.5215 24.5303
4967 1 45.1041 41.9389 26.1129
4968 1 46.6867 43.5215 27.6955
4969 1 45.1041 41.9389 29.2781
4970 1 46.6867 43.5215 30.8607
4971 1 45.1041 41.9389 32.4433
4972 1 46.6867 43.5215 34.0259
4973 1 45.1041 41.9389 35.6085
4974 1 46.6867 43.5215 37.1911
4975 1 45.1041 41.9389 38.7737
4976 1 46.6867 43.5215 40.3563
4977 1 45.1041 41.9389 41.9389
4978 1 46.6867 43.5215 43.5215
4979 1 45.1041 41.9389 45.1041
4980 1 46.6867 43.5215 46.6867
4981 1 45.1041 41.9389 48.2693
4982 1 46.6867 43.5215 49.8519
4983 1 45.1041 45.1041 0.7913
4984 1 46.6867 46.6867 2.3739
4985 1 45.1041 45.1041 3.9565
4986 1 46.6867 46.6867 5.5391
4987 1 45.1041 45.1041 7.1217
4988 1 46.6867 46.6867 8.7043
4989 1 45.1041 45.1041 10.2869
4990 1 46.6867 46.6867 11.8695
4991 1 45.1041 45.1041 13.4521
4992 1 46.6867 46.6867 15.0347
4993 1 45.1041 45.1041 16.6173
4994 1 46.6867 46.6867 18.1999
4995 1 45.1041 45.1041 19.7825
4996 1 46.6867 46.6867 21.3651
4997 1 45.1041 45.1041 22.9477
4998 1 46.6867 46.6867 24.5303
4999 1 45.1041 45.1041 26.1129
5000 1 46.6867 46.6867 27.6955
5001 1 45.1041 45.1041 29.2781
5002 1 46.6867 46.6867 30.8607
5003 1 45.1041 45.1041 32.4433
5004 1 46.6867 46.6867 34.0259
5005 1 45.1041 45.1041 35.6085
5006 1 46.6867 46.6867 37.1911
5007 1 45.1041 45.1041 38.7737
5008 1 46.6867 46.6867 40.3563
5009 1 45.1041 45.1041 41.9389
5010 1 46.6867 46.6867 43.5215
5011 1 45.1041 45.1041 45.1041
5012 1 46.6867 46.6867 46.6867
5013 1 45.1041 45.1041 48.2693
5014 1 46.6867 46.6867 49.8519
5015 1 45.1041 48.2693 0.7913
5016 1 46.6867 49.8519 2.3739
5017 1 45.1041 48.2693 3.9565
5018 1 46.6867 49.8519 5.5391
5019 1 45.1041 48.2693 7.1217
5020 1 46.6867 49.8519 8.7043
5021 1 45.1041 48.2693 10.2869
5022 1 46.6867 49.8519 11.8695
5023 1 45.1041 48.2693 13.4521
5024 1 46.6867 49.8519 15.0347
5025 1 45.1041 48.2693 16.6173
5026 1 46.6867 49.8519 18.1999
5027 1 45.1041 48.2693 19.7825
5028 1 46.6867 49.8519 21.3651
5029 1 45.1041 48.2693 22.9477
5030 1 46.6867 49.8519 24.5303
5031 1 45.1041 48.2693 26.1129
5032 1 46.6867 49.8519 27.6955
5033 1 45.1041 48.2693 29.2781
5034 1 46.6867 49.8519 30.8607
5035 1 45.1041 48.2693 32.4433
5036 1 46.6867 49.8519 34.0259
5037 1 45.1041 48.2693 35.6085
5038 1 46.6867 49.8519 37.1911
5039 1 45.1041 48.2693 38.7737
5040 1 46.6867 49.8519 40.3563
5041 1 45.1041 48.2693 41.9389
5042 1 46.6867 49.8519 43.5215
5043 1 45.1041 48.2693 45.1041
5044 1 46.6867 49.8519 46.6867
5045 1 45.1041 48.2693 48.2693
5046 1 46.6867 49.8519 49.8519
5047 1 48.2693 0.7913 0.7913
5048 1 49.8519 2.3739 2.3739
5049 1 48.2693 0.7913 3.9565
5050 1 49.8519 2.3739 5.5391
5051 1 48.2693 0.7913 7.1217
5052 1 49.8519 2.3739 8.7043
5053 1 48.2693 0.7913 10.2869
5054 1 49.8519 2.3739 11.8695
5055 1 48.2693 0.7913 13.4521
5056 1 49.8519 2.3739 15.0347
5057 1 48.2693 0.7913 16.6173
5058 1 49.8519 2.3739 18.1999
5059 1 48.2693 0.7913 19.7825
5060 1 49.8519 2.3739 21.3651
5061 1 48.2693 0.7913 22.9477
5062 1 49.8519 2.3739 24.5303
5063 1 48.2693 0.7913 26.1129
5064 1 49.8519 2.3739 27.6955
5065 1 48.2693 0.7913 29.2781
5066 1 49.8519 2.3739 30.8607
5067 1 48.2693 0.7913 32.4433
5068 1 49.8519 2.3739 34.0259
5069 1 48.2693 0.7913 35.6085
5070 1 49.8519 2.3739 37.1911
5071 1 48.2693 0.7913 38.7737
5072 1 49.8519 2.3739 40.3563
5073 1 48.2693 0.7913 41.9389
5074 1 49.8519 2.3739 43.5215
5075 1 48.2693 0.7913 45.1041
5076 1 49.8519 2.3739 46.6867
5077 1 48.2693 0.7913 48.2693
5078 1 49.8519 2.3739 49.8519
5079 1 48.2693 3.9565 0.7913
5080 1 49.8519 5.5391 2.3739
5081 1 48.2693 3.9565 3.9565
5082 1 49.8519 5.5391 5.5391
5083 1 48.2693 3.9565 7.1217
5084 1 49.8519 5.5391 8.7043
5085 1 48.2693 3.9565 10.2869
5086 1 49.8519 5.5391 11.8695
5087 1 48.2693 3.9565 13.4521
5088 1 49.8519 5.5391 15.0347
5089 1 48.2693 3.9565 16.6173
5090 1 49.8519 5.5391 18.1999
5091 1 48.2693 3.9565 19.7825
5092 1 49.8519 5.5391 21.3651
5093 1 48.2693 3.9565 22.9477
5094 1 49.8519 5.5391 24.5303
5095 1 48.2693 3.9565 26.1129
5096 1 49.8519 5.5391 27.6955
5097 1 48.2693 3.9565 29.2781
5098 1 49.8519 5.5391 30.8607
5099 1 48.2693 3.9565 32.4433
5100 1 49.8519 5.5391 34.0259
5101 1 48.2693 3.9565 35.6085
5102 1 49.8519 5.5391 37.1911
5103 1 48.2693 3.9565 38.7737
5104 1 49.8519 5.5391 40.3563
5105 1 48.2693 3.9565 41.9389
5106 1 49.8519 5.5391 43.5215
5107 1 48.2693 3.9565 45.1041
5108 1 49.8519 5.5391 46.6867
5109 1 48.2693 3.9565 48.2693
5110 1 49.8519 5.5391 49.8519
5111 1 48.2693 7.1217 0.7913
5112 1 49.8519 8.7043 2.3739
5113 1 48.2693 7.1217 3.9565
5114 1 49.8519 8.7043 5.5391
5115 1 48.2693 7.1217 7.1217
5116 1 49.8519 8.7043 8.7043
5117 1 48.2693 7.1217 10.2869
5118 1 49.8519 8.7043 11.8695
5119 1 48.2693 7.1217 13.4521
5120 1 49.8519 8.7043 15.0347
5121 1 48.2693 7.1217 16.6173
5122 1 49.8519 8.7043 18.1999
5123 1 48.2693 7.1217 19.7825
5124 1 49.8519 8.7043 21.3651
5125 1 48.2693 7.1217 22.9477
5126 1 49.8519 8.7043 24.5303
5127 1 48.2693 7.1217 26.1129
5128 1 49.8519 8.7043 27.6955
5129 1 48.2693 7.1217 29.2781
5130 1 49.8519 8.7043 30.8607
5131 1 48.2693 7.1217 32.4433
5132 1 49.8519 8.7043 34.0259
5133 1 48.2693 7.1217 35.6085
5134 1 49.8519 8.7043 37.1911
5135 1 48.2693 7.1217 38.7737
5136 1 49.8519 8.7043 40.3563
5137 1 48.2693 7.1217 41.9389
5138 1 49.8519 8.7043 43.5215
5139 1 48.2693 7.1217 45.1041
5140 1 49.8519 8.7043 46.6867
5141 1 48.2693 7.1217 48.2693
5142 1 49.8519 8.7043 49.8519
5143 1 48.2693 10.2869 0.7913
5144 1 49.8519 11.8695 2.3739
5145 1 48.2693 10.2869 3.9565
5146 1 49.8519 11.8695 5.5391
5147 1 48.2693 10.2869 7.1217
5148 1 49.8519 11.8695 8.7043
5149 1 48.2693 10.2869 10.2869
5150 1 49.8519 11.8695 11.8695
5151 1 48.2693 10.2869 13.4521
5152 1 49.8519 11.8695 15.0347
5153 1 48.2693 10.2869 16.6173
5154 1 49.8519 11.8695 18.1999
5155 1 48.2693 10.2869 19.7825
5156 1 49.8519 11.8695 21.3651
5157 1 48.2693 10.2869 22.9477
5158 1 49.8519 11.8695 24.5303
5159 1 48.2693 10.2869 26.1129
5160 1 49.8519 11.8695 27.6955
5161 1 48.2693 10.2869 29.2781
5162 1 49.8519 11.8695 30.8607
5163 1 48.2693 10.2869 32.4433
5164 1 49.8519 11.8695 34.0259
5165 1 48.2693 10.2869 35.6085
5166 1 49.8519 11.8695 37.1911
5167 1 48.2693 10.2869 38.7737
5168 1 49.8519 11.8695 40.3563
5169 1 48.2693 10.2869 41.9389
5170 1 49.8519 11.8695 43.5215
5171 1 48.2693 10.2869 45.1041
5172 1 49.8519 11.8695 46.6867
5173 1 48.2693 10.2869 48.2693
5174 1 49.8519 11.8695 49.8519
5175 1 48.2693 13.4521 0.7913
5176 1 49.8519 15.0347 2.3739
5177 1 48.2693 13.4521 3.9565
5178 1 49.8519 15.0347 5.5391
5179 1 48.2693 13.4521 7.1217
5180 1 49.8519 15.0347 8.7043
5181 1 48.2693 13.4521 10.2869
5182 1 49.8519 15.0347 11.8695
5183 1 48.2693 13.4521 13.4521
5184 1 49.8519 15.0347 15.0347
5185 1 48.2693 13.4521 16.6173
5186 1 49.8519 15.0347 18.1999
5187 1 48.2693 13.4521 19.7825
5188 1 49.8519 15.0347 21.3651
5189 1 48.2693 13.4521 22.9477
5190 1 49.8519 15.0347 24.5303
5191 1 48.2693 13.4521 26.1129
5192 1 49.8519 15.0347 27.6955
5193 1 48.2693 13.4521 29.2781
5194 1 49.8519 15.0347 30.8607
5195 1 48.2693 13.4521 32.4433
5196 1 49.8519 15.0347 34.0259
5197 1 48.2693 13.4521 35.6085
5198 1 49.8519 15.0347 37.1911
5199 1 48.2693 13.4521 38.7737
5200 1 49.8519 15.0347 40.3563
5201 1 48.2693 13.4521 41.9389
5202 1 49.8519 15.0347 43.5215
5203 1 48.2693 13.4521 45.1041
5204 1 49.8519 15.0347 46.6867
5205 1 48.2693 13.4521 48.2693
5206 1 49.8519 15.0347 49.8519
5207 1 48.2693 16.6173 0.7913
5208 1 49.8519 18.1999 2.3739
5209 1 48.2693 16.6173 3.9565
5210 1 49.8519 18.1999 5.5391
5211 1 48.2693 16.6173 7.1217
5212 1 49.8519 18.1999 8.7043
5213 1 48.2693 16.6173 10.2869
5214 1 49.8519 18.1999 11.8695
5215 1 48.2693 16.6173 13.4521
5216 1 49.8519 18.1999 15.0347
5217 1 48.2693 16.6173 16.6173
5218 1 49.8519 18.1999 18.1999
5219 1 48.2693 16.6173 19.7825
5220 1 49.8519 18.1999 21.3651
5221 1 48.2693 16.6173 22.9477
5222 1 49.8519 18.1999 24.5303
5223 1 48.2693 16.6173 26.1129
5224 1 49.8519 18.1999 27.6955
5225 1 48.2693 16.6173 29.2781
5226 1 49.8519 18.1999 30.8607
5227 1 48.2693 16.6173 32.4433
5228 1 49.8519 18.1999 34.0259
5229 1 48.2693 16.6173 35.6085
5230 1 49.8519 18.1999 37.1911
5231 1 48.2693 16.6173 38.7737
5232 1 49.8519 18.1999 40.3563
5233 1 48.2693 16.6173 41.9389
5234 1 49.8519 18.1999 43.5215
5235 1 48.2693 16.6173 45.1041
5236 1 49.8519 18.1999 46.6867
5237 1 48.2693 16.6173 48.2693
5238 1 49.8519 18.1999 49.8519
5239 1 48.2693 19.7825 0.7913
5240 1 49.8519 21.3651 2.3739
5241 1 48.2693 19.7825 3.9565
5242 1 49.8519 21.3651 5.5391
5243 1 48.2693 19.7825 7.1217
5244 1 49.8519 21.3651 8.7043
5245 1 48.2693 19.7825 10.2869
5246 1 49.8519 21.3651 11.8695
5247 1 48.2693 19.7825 13.4521
5248 1 49.8519 21.3651 15.0347
5249 1 48.2693 19.7825 16.6173
5250 1 49.8519 21.3651 18.1999
5251 1 48.2693 19.7825 19.7825
5252 1 49.8519 21.3651 21.3651
5253 1 48.2693 19.7825 22.9477
5254 1 49.8519 21.3651 24.5303
5255 1 48.2693 19.7825 26.1129
5256 1 49.8519 21.3651 27.6955
5257 1 48.2693 19.7825 29.2781
5258 1 49.8519 21.3651 30.8607
5259 1 48.2693 19.7825 32.4433
5260 1 49.8519 21.3651 34.0259
5261 1 48.2693 19.7825 35.6085
5262 1 49.8519 21.3651 37.1911
5263 1 48.2693 19.7825 38.7737
5264 1 49.8519 21.3651 40.3563
5265 1 48.2693 19.7825 41.9389
5266 1 49.8519 21.3651 43.5215
5267 1 48.2693 19.7825 45.1041
5268 1 49.8519 21.3651 46.6867
5269 1 48.2693 19.7825 48.2693
5270 1 49.8519 21.3651 49.8519
5271 1 48.2693 22.9477 0.7913
5272 1 49.8519 24.5303 2.3739
5273 1 48.2693 22.9477 3.9565
5274 1 49.8519 24.5303 5.5391
5275 1 48.2693 22.9477 7.1217
5276 1 49.8519 24.5303 8.7043
5277 1 48.2693 22.9477 10.2869
5278 1 49.8519 24.5303 11.8695
5279 1 48.2693 22.9477 13.4521
5280 1 49.8519 24.5303 15.0347
5281 1 48.2693 22.9477 16.6173
5282 1 49.8519 24.5303 18.1999
5283 1 48.2693 22.9477 19.7825
5284 1 49.8519 24.5303 21.3651
5285 1 48.2693 22.9477 22.9477
5286 1 49.8519 24.5303 24.5303
5287 1 48.2693 22.9477 26.1129
5288 1 49.8519 24.5303 27.6955
5289 1 48.2693 22.9477 29.2781
5290 1 49.8519 24.5303 30.8607
5291 1 48.2693 22.9477 32.4433
5292 1 49.8519 24.5303 34.0259
5293 1 48.2693 22.9477 35.6085
5294 1 49.8519 24.5303 37.1911
5295 1 48.2693 22.9477 38.7737
5296 1 49.8519 24.5303 40.3563
5297 1 48.2693 22.9477 41.9389
5298 1 49.8519 24.5303 43.5215
5299 1 48.2693 22.9477 45.1041
5300 1 49.8519 24.5303 46.6867
5301 1 48.2693 22.9477 48.2693
5302 1 49.8519 24.5303 49.8519
5303 1 48.2693 26.1129 0.7913
5304 1 49.8519 27.6955 2.3739
5305 1 48.2693 26.1129 3.9565
5306 1 49.8519 27.6955 5.5391
5307 1 48.2693 26.1129 7.1217
5308 1 49.8519 27.6955 8.7043
5309 1 48.2693 26.1129 10.2869
5310 1 49.8519 27.6955 11.8695
5311 1 48.2693 26.1129 13.4521
5312 1 49.8519 27.6955 15.0347
5313 1 48.2693 26.1129 16.6173
5314 1 49.8519 27.6955 18.1999
5315 1 48.2693 26.1129 19.7825
5316 1 49.8519 27.6955 21.3651
5317 1 48.2693 26.1129 22.9477
5318 1 49.8519 27.6955 24.5303
5319 1 48.2693 26.1129 26.1129
5320 1 49.8519 27.6955 27.6955
5321 1 48.2693 26.1129 29.2781
5322 1 49.8519 27.6955 30.8607
5323 1 48.2693 26.1129 32.4433
5324 1 49.8519 27.6955 34.0259
5325 1 48.2693 26.1129 35.6085
5326 1 49.8519 27.6955 37.1911
5327 1 48.2693 26.1129 38.7737
5328 1 49.8519 27.6955 40.3563
5329 1 48.2693 26.1129 41.9389
5330 1 49.8519 27.6955 43.5215
5331 1 48.2693 26.1129 45.1041
5332 1 49.8519 27.6955 46.6867
5333 1 48.2693 26.1129 48.2693
5334 1 49.8519 27.6955 49.8519
5335 1 48.2693 29.2781 0.7913
5336 1 49.8519 30.8607 2.3739
5337 1 48.2693 29.2781 3.9565
5338 1 49.8519 30.8607 5.5391
5339 1 48.2693 29.2781 7.1217
5340 1 49.8519 30.8607 8.7043
5341 1 48.2693 29.2781 10.2869
5342 1 49.8519 30.8607 11.8695
5343 1 48.2693 29.2781 13.4521
5344 1 49.8519 30.8607 15.0347
5345 1 48.2693 29.2781 16.6173
5346 1 49.8519 30.8607 18.1999
5347 1 48.2693 29.2781 19.7825
5348 1 49.8519 30.8607 21.3651
5349 1 48.2693 29.2781 22.9477
5350 1 49.8519 30.8607 24.5303
5351 1 48.2693 29.2781 26.1129
5352 1 49.8519 30.8607 27.6955
5353 1 48.2693 29.2781 29.2781
5354 1 49.8519 30.8607 30.8607
5355 1 48.2693 29.2781 32.4433
5356 1 49.8519 30.8607 34.0259
5357 1 48.2693 29.2781 35.6085
5358 1 49.8519 30.8607 37.1911
5359 1 48.2693 29.2781 38.7737
5360 1 49.8519 30.8607 40.3563
5361 1 48.2693 29.2781 41.9389
5362 1 49.8519 30.8607 43.5215
5363 1 48.2693 29.2781 45.1041
5364 1 49.8519 30.8607 46.6867
5365 1 48.2693 29.2781 48.2693
5366 1 49.8519 30.8607 49.8519
5367 1 48.2693 32.4433 0.7913
5368 1 49.8519 34.0259 2.3739
5369 1 48.2693 32.4433 3.9565
5370 1 49.8519 34.0259 5.5391
5371 1 48.2693 32.4433 7.1217
5372 1 49.8519 34.0259 8.7043
5373 1 48.2693 32.4433 10.2869
5374 1 49.8519 34.0259 11.8695
5375 1 48.2693 32.4433 13.4521
5376 1 49.8519 34.0259 15.0347
5377 1 48.2693 32.4433 16.6173
5378 1 49.8519 34.0259 18.1999
5379 1 48.2693 32.4433 19.7825
5380 1 49.8519 34.0259 21.3651
5381 1 48.2693 32.4433 22.9477
5382 1 49.8519 34.0259 24.5303
5383 1 48.2693 32.4433 26.1129
5384 1 49.8519 34.0259 27.6955
5385 1 48.2693 32.4433 29.2781
5386 1 49.8519 34.0259 30.8607
5387 1 48.2693 32.4433 32.4433
5388 1 49.8519 34.0259 34.0259
5389 1 48.2693 32.4433 35.6085
5390 1 49.8519 34.0259 37.1911
5391 1 48.2693 32.4433 38.7737
5392 1 49.8519 34.0259 40.3563
5393 1 48.2693 32.4433 41.9389
5394 1 49.8519 34.0259 43.5215
5395 1 48.2693 32.4433 45.1041
5396 1 49.8519 34.0259 46.6867
5397 1 48.2693 32.4433 48.2693
5398 1 49.8519 34.0259 49.8519
5399 1 48.2693 35.6085 0.7913
5400 1 49.8519 37.1911 2.3739
5401 1 48.2693 35.6085 3.9565
5402 1 49.8519 37.1911 5.5391
5403 1 48.2693 35.6085 7.1217
5404 1 49.8519 37.1911 8.7043
5405 1 48.2693 35.6085 10.2869
5406 1 49.8519 37.1911 11.8695
5407 1 48.2693 35.6085 13.4521
5408 1 49.8519 37.1911 15.0347
5409 1 48.2693 35.6085 16.6173
5410 1 49.8519 37.1911 18.1999
5411 1 48.2693 35.6085 19.7825
5412 1 49.8519 37.1911 21.3651
5413 1 48.2693 35.6085 22.9477
5414 1 49.8519 37.1911 24.5303
5415 1 48.2693 35.6085 26.1129
5416 1 49.8519 37.1911 27.6955
5417 1 48.2693 35.6085 29.2781
5418 1 49.8519 37.1911 30.8607
5419 1 48.2693 35.6085 32.4433
5420 1 49.8519 37.1911 34.0259
5421 1 48.2693 35.6085 35.6085
5422 1 49.8519 37.1911 37.1911
5423 1 48.2693 35.6085 38.7737
5424 1 49.8519 37.1911 40.3563
5425 1 48.2693 35.6085 41.9389
5426 1 49.8519 37.1911 43.5215
5427 1 48.2693 35.6085 45.1041
5428 1 49.8519 37.1911 46.6867
5429 1 48.2693 35.6085 48.2693
5430 1 49.8519 37.1911 49.8519
5431 1 48.2693 38.7737 0.7913
5432 1 49.8519 40.3563 2.3739
5433 1 48.2693 38.7737 3.9565
5434 1 49.8519 40.3563 5.5391
5435 1 48.2693 38.7737 7.1217
5436 1 49.8519 40.3563 8.7043
5437 1 48.2693 38.7737 10.2869
5438 1 49.8519 40.3563 11.8695
5439 1 48.2693 38.7737 13.4521
5440 1 49.8519 40.3563 15.0347
5441 1 48.2693 38.7737 16.6173
5442 1 49.8519 40.3563 18.1999
5443 1 48.2693 38.7737 19.7825
5444 1 49.8519 40.3563 21.3651
5445 1 48.2693 38.7737 22.9477
5446 1 49.8519 40.3563 24.5303
5447 1 48.2693 38.7737 26.1129
5448 1 49.8519 40.3563 27.6955
5449 1 48.2693 38.7737 29.2781
5450 1 49.8519 40.3563 30.8607
5451 1 48.2693 38.7737 32.4433
5452 1 49.8519 40.3563 34.0259
5453 1 48.2693 38.7737 35.6085
5454 1 49.8519 40.3563 37.1911
5455 1 48.2693 38.7737 38.7737
5456 1 49.8519 40.3563 40.3563
5457 1 48.2693 38.7737 41.9389
5458 1 49.8519 40.3563 43.5215
5459 1 48.2693 38.7737 45.1041
5460 1 49.8519 40.3563 46.6867
5461 1 48.2693 38.7737 48.2693
5462 1 49.8519 40.3563 49.8519
5463 1 48.2693 41.9389 0.7913
5464 1 49.8519 43.5215 2.3739
5465 1 48.2693 41.9389 3.9565
5466 1 49.8519 43.5215 5.5391
5467 1 48.2693 41.9389 7.1217
5468 1 49.8519 43.5215 8.7043
5469 1 48.2693 41.9389 10.2869
5470 1 49.8519 43.5215 11.8695
5471 1 48.2693 41.9389 13.4521
5472 1 49.8519 43.5215 15.0347
5473 1 48.2693 41.9389 16.6173
5474 1 49.8519 43.5215 18.1999
5475 1 48.2693 41.9389 19.7825
5476 1 49.8519 43.5215 21.3651
5477 1 48.2693 41.9389 22.9477
5478 1 49.8519 43.5215 24.5303
5479 1 48.2693 41.9389 26.1129
5480 1 49.8519 43.5215 27.6955
5481 1 48.2693 41.9389 29.2781
5482 1 49.8519 43.5215 30.8607
5483 1 48.2693 41.9389 32.4433
5484 1 49.8519 43.5215 34.0259
5485 1 48.2693 41.9389 35.6085
5486 1 49.8519 43.5215 37.1911
5487 1 48.2693 41.9389 38.7737
5488 1 49.8519 43.5215 40.3563
5489 1 48.2693 41.9389 41.9389
5490 1 49.8519 43.5215 43.5215
5491 1 48.2693 41.9389 45.1041
5492 1 49.8519 43.5215 46.6867
5493 1 48.2693 41.9389 48.2693
5494 1 49.8519 43.5215 49.8519
5495 1 48.2693 45.1041 0.7913
5496 1 49.8519 46.6867 2.3739
5497 1 48.2693 45.1041 3.9565
5498 1 49.8519 46.6867 5.5391
5499 1 48.2693 45.1041 7.1217
5500 1 49.8519 46.6867 8.7043
5501 1 48.2693 45.1041 10.2869
5502 1 49.8519 46.6867 11.8695
5503 1 48.2693 45.1041 13.4521
5504 1 49.8519 46.6867 15.0347
5505 1 48.2693 45.1041 16.6173
5506 1 49.8519 46.6867 18.1999
5507 1 48.2693 45.1041 19.7825
5508 1 49.8519 46.6867 21.3651
5509 1 48.2693 45.1041 22.9477
5510 1 49.8519 46.6867 24.5303
5511 1 48.2693 45.1041 26.1129
5512 1 49.8519 46.6867 27.6955
5513 1 48.2693 45.1041 29.2781
5514 1 49.8519 46.6867 30.8607
5515 1 48.2693 45.1041 32.4433
5516 1 49.8519 46.6867 34.0259
5517 1 48.2693 45.1041 35.6085
5518 1 49.8519 46.6867 37.1911
5519 1 48.2693 45.1041 38.7737
5520 1 49.8519 46.6867 40.3563
5521 1 48.2693 45.1041 41.9389
5522 1 49.8519 46.6867 43.5215
5523 1 48.2693 45.1041 45.1041
5524 1 49.8519 46.6867 46.6867
5525 1 48.2693 45.1041 48.2693
5526 1 49.8519 46.6867 49.8519
5527 1 48.2693 48.2693 0.7913
5528 1 49.8519 49.8519 2.3739
5529 1 48.2693 48.2693 3.9565
5530 1 49.8519 49.8519 5.5391
5531 1 48.2693 48.2693 7.1217
5532 1 49.8519 49.8519 8.7043
5533 1 48.2693 48.2693 10.2869
5534 1 49.8519 49.8519 11.8695
5535 1 48.2693 48.2693 13.4521
5536 1 49.8519 49.8519 15.0347
5537 1 48.2693 48.2693 16.6173
5538 1 49.8519 49.8519 18.1999
5539 1 48.2693 48.2693 19.7825
5540 1 49.8519 49.8519 21.3651
5541 1 48.2693 48.2693 22.9477
5542 1 49.8519 49.8519 24.5303
5543 1 48.2693 48.2693 26.1129
5544 1 49.8519 49.8519 27.6955
5545 1 48.2693 48.2693 29.2781
5546 1 49.8519 49.8519 30.8607
5547 1 48.2693 48.2693 32.4433
5548 1 49.8519 49.8519 34.0259
5549 1 48.2693 48.2693 35.6085
5550 1 49.8519 49.8519 37.1911
5551 1 48.2693 48.2693 38.7737
5552 1 49.8519 49.8519 40.3563
5553 1 48.2693 48.2693 41.9389
5554 1 49.8519 49.8519 43.5215
5555 1 48.2693 48.2693 45.1041
5556 1 49.8519 49.8519 46.6867
5557 1 48.2693 48.2693 48.2693
5558 1 49.8519 49.8519 49.8519
5559 1 16.6173 0.7913 0.7913
5560 1 18.1999 2.3739 2.3739
5561 1 16.6173 0.7913 3.9565
5562 1 18.1999 2.3739 5.5391
5563 1 16.6173 0.7913 7.1217
5564 1 18.1999 2.3739 8.7043
5565 1 16.6173 0.7913 10.2869
5566 1 18.1999 2.3739 11.8695
5567 1 16.6173 0.7913 13.4521
5568 1 18.1999 2.3739 15.0347
5569 1 16.6173 3.9565 0.7913
5570 1 18.1999 5.5391 2.3739
5571 1 16.6173 3.9565 3.9565
5572 1 18.1999 5.5391 5.5391
5573 1 16.6173 3.9565 7.1217
5574 1 18.1999 5.5391 8.7043
5575 1 16.6173 3.9565 10.2869
5576 1 18.1999 5.5391 11.8695
5577 1 16.6173 3.9565 13.4521
5578 1 18.1999 5.5391 15.0347
5579 1 16.6173 7.1217 0.7913
5580 1 18.1999 8.7043 2.3739
5581 1 16.6173 7.1217 3.9565
5582 1 18.1999 8.7043 5.5391
5583 1 16.6173 7.1217 7.1217
5584 1 18.1999 8.7043 8.7043
5585 1 16.6173 7.1217 10.2869
5586 1 18.1999 8.7043 11.8695
5587 1 16.6173 7.1217 13.4521
5588 1 18.1999 8.7043 15.0347
5589 1 16.6173 10.2869 0.7913
5590 1 18.1999 11.8695 2.3739
5591 1 16.6173 10.2869 3.9565
5592 1 18.1999 11.8695 5.5391
5593 1 16.6173 10.2869 7.1217
5594 1 18.1999 11.8695 8.7043
5595 1 16.6173 10.2869 10.2869
5596 1 18.1999 11.8695 11.8695
5597 1 16.6173 10.2869 13.4521
5598 1 18.1999 11.8695 15.0347
5599 1 16.6173 13.4521 0.7913
5600 1 18.1999 15.0347 2.3739
5601 1 16.6173 13.4521 3.9565
5602 1 18.1999 15.0347 5.5391
5603 1 16.6173 13.4521 7.1217
5604 1 18.1999 15.0347 8.7043
5605 1 16.6173 13.4521 10.2869
5606 1 18.1999 15.0347 11.8695
5607 1 16.6173 13.4521 13.4521
5608 1 18.1999 15.0347 15.0347
5609 1 16.6173 16.6173 0.7913
5610 1 18.1999 18.1999 2.3739
5611 1 16.6173 16.6173 3.9565
5612 1 18.1999 18.1999 5.5391
5613 1 16.6173 16.6173 7.1217
5614 1 18.1999 18.1999 8.7043
5615 1 16.6173 16.6173 10.2869
5616 1 18.1999 18.1999 11.8695
5617 1 16.6173 16.6173 13.4521
5618 1 18.1999 18.1999 15.0347
5619 1 16.6173 19.7825 0.7913
5620 1 18.1999 21.3651 2.3739
5621 1 16.6173 19.7825 3.9565
5622 1 18.1999 21.3651 5.5391
5623 1 16.6173 19.7825 7.1217
5624 1 18.1999 21.3651 8.7043
5625 1 16.6173 19.7825 10.2869
5626 1 18.1999 21.3651 11.8695
5627 1 16.6173 19.7825 13.4521
5628 1 18.1999 21.3651 15.0347
5629 1 16.6173 22.9477 0.7913
5630 1 18.1999 24.5303 2.3739
5631 1 16.6173 22.9477 3.9565
5632 1 18.1999 24.5303 5.5391
5633 1 16.6173 22.9477 7.1217
5634 1 18.1999 24.5303 8.7043
5635 1 16.6173 22.9477 10.2869
5636 1 18.1999 24.5303 11.8695
5637 1 16.6173 22.9477 13.4521
5638 1 18.1999 24.5303 15.0347
5639 1 16.6173 26.1129 0.7913
5640 1 18.1999 27.6955 2.3739
5641 1 16.6173 26.1129 3.9565
5642 1 18.1999 27.6955 5.5391
5643 1 16.6173 26.1129 7.1217
5644 1 18.1999 27.6955 8.7043
5645 1 16.6173 26.1129 10.2869
5646 1 18.1999 27.6955 11.8695
5647 1 16.6173 26.1129 13.4521
5648 1 18.1999 27.6955 15.0347
5649 1 16.6173 29.2781 0.7913
5650 1 18.1999 30.8607 2.3739
5651 1 16.6173 29.2781 3.9565
5652 1 18.1999 30.8607 5.5391
5653 1 16.6173 29.2781 7.1217
5654 1 18.1999 30.8607 8.7043
5655 1 16.6173 29.2781 10.2869
5656 1 18.1999 30.8607 11.8695
5657 1 16.6173 29.2781 13.4521
5658 1 18.1999 30.8607 15.0347
5659 1 16.6173 32.4433 0.7913
5660 1 18.1999 34.0259 2.3739
5661 1 16.6173 32.4433 3.9565
5662 1 18.1999 34.0259 5.5391
5663 1 16.6173 32.4433 7.1217
5664 1 18.1999 34.0259 8.7043
5665 1 16.6173 32.4433 10.2869
5666 1 18.1999 34.0259 11.8695
5667 1 16.6173 32.4433 13.4521
5668 1 18.1999 34.0259 15.0347
5669 1 16.6173 35.6085 0.7913
5670 1 18.1999 37.1911 2.3739
5671 1 16.6173 35.6085 3.9565
5672 1 18.1999 37.1911 5.5391
5673 1 16.6173 35.6085 7.1217
5674 1 18.1999 37.1911 8.7043
5675 1 16.6173 35.6085 10.2869
5676 1 18.1999 37.1911 11.8695
5677 1 16.6173 35.6085 13.4521
5678 1 18.1999 37.1911 15.0347
5679 1 16.6173 38.7737 0.7913
5680 1 18.1999 40.3563 2.3739
5681 1 16.6173 38.7737 3.9565
5682 1 18.1999 40.3563 5.5391
5683 1 16.6173 38.7737 7.1217
5684 1 18.1999 40.3563 8.7043
5685 1 16.6173 38.7737 10.2869
5686 1 18.1999 40.3563 11.8695
5687 1 16.6173 38.7737 13.4521
5688 1 18.1999 40.3563 15.0347
5689 1 16.6173 41.9389 0.7913
5690 1 18.1999 43.5215 2.3739
5691 1 16.6173 41.9389 3.9565
5692 1 18.1999 43.5215 5.5391
5693 1 16.6173 41.9389 7.1217
5694 1 18.1999 43.5215 8.7043
5695 1 16.6173 41.9389 10.2869
5696 1 18.1999 43.5215 11.8695
5697 1 16.6173 41.9389 13.4521
5698 1 18.1999 43.5215 15.0347
5699 1 16.6173 45.1041 0.7913
5700 1 18.1999 46.6867 2.3739
5701 1 16.6173 45.1041 3.9565
5702 1 18.1999 46.6867 5.5391
5703 1 16.6173 45.1041 7.1217
5704 1 18.1999 46.6867 8.7043
5705 1 16.6173 45.1041 10.2869
5706 1 18.1999 46.6867 11.8695
5707 1 16.6173 45.1041 13.4521
5708 1 18.1999 46.6867 15.0347
5709 1 16.6173 48.2693 0.7913
5710 1 18.1999 49.8519 2.3739
5711 1 16.6173 48.2693 3.9565
5712 1 18.1999 49.8519 5.5391
5713 1 16.6173 48.2693 7.1217
5714 1 18.1999 49.8519 8.7043
5715 1 16.6173 48.2693 10.2869
5716 1 18.1999 49.8519 11.8695
5717 1 16.6173 48.2693 13.4521
5718 1 18.1999 49.8519 15.0347
5719 1 19.7825 0.7913 0.7913
5720 1 21.3651 2.3739 2.3739
5721 1 19.7825 0.7913 3.9565
5722 1 21.3651 2.3739 5.5391
5723 1 19.7825 0.7913 7.1217
5724 1 21.3651 2.3739 8.7043
5725 1 19.7825 0.7913 10.2869
5726 1 21.3651 2.3739 11.8695
5727 1 19.7825 0.7913 13.4521
5728 1 21.3651 2.3739 15.0347
5729 1 19.7825 3.9565 0.7913
5730 1 21.3651 5.5391 2.3739
5731 1 19.7825 3.9565 3.9565
5732 1 21.3651 5.5391 5.5391
5733 1 19.7825 3.9565 7.1217
5734 1 21.3651 5.5391 8.7043
5735 1 19.7825 3.9565 10.2869
5736 1 21.3651 5.5391 11.8695
5737 1 19.7825 3.9565 13.4521
5738 1 21.3651 5.5391 15.0347
5739 1 19.7825 7.1217 0.7913
5740 1 21.3651 8.7043 2.3739
5741 1 19.7825 7.1217 3.9565
5742 1 21.3651 8.7043 5.5391
5743 1 19.7825 7.1217 7.1217
5744 1 21.3651 8.7043 8.7043
5745 1 19.7825 7.1217 10.2869
5746 1 21.3651 8.7043 11.8695
5747 1 19.7825 7.1217 13.4521
5748 1 21.3651 8.7043 15.0347
5749 1 19.7825 10.2869 0.7913
5750 1 21.3651 11.8695 2.3739
5751 1 19.7825 10.2869 3.9565
5752 1 21.3651 11.8695 5.5391
5753 1 19.7825 10.2869 7.1217
5754 1 21.3651 11.8695 8.7043
5755 1 19.7825 10.2869 10.2869
5756 1 21.3651 11.8695 11.8695
5757 1 19.7825 10.2869 13.4521
5758 1 21.3651 11.8695 15.0347
5759 1 19.7825 13.4521 0.7913
5760 1 21.3651 15.0347 2.3739
5761 1 19.7825 13.4521 3.9565
5762 1 21.3651 15.0347 5.5391
5763 1 19.7825 13.4521 7.1217
5764 1 21.3651 15.0347 8.7043
5765 1 19.7825 13.4521 10.2869
5766 1 21.3651 15.0347 11.8695
5767 1 19.7825 13.4521 13.4521
5768 1 21.3651 15.0347 15.0347
5769 1 19.7825 16.6173 0.7913
5770 1 21.3651 18.1999 2.3739
5771 1 19.7825 16.6173 3.9565
5772 1 21.3651 18.1999 5.5391
5773 1 19.7825 16.6173 7.1217
5774 1 21.3651 18.1999 8.7043
5775 1 19.7825 16.6173 10.2869
5776 1 21.3651 18.1999 11.8695
5777 1 19.7825 16.6173 13.4521
5778 1 21.3651 18.1999 15.0347
5779 1 19.7825 19.7825 0.7913
5780 1 21.3651 21.3651 2.3739
5781 1 19.7825 19.7825 3.9565
5782 1 21.3651 21.3651 5.5391
5783 1 19.7825 19.7825 7.1217
5784 1 21.3651 21.3651 8.7043
5785 1 19.7825 19.7825 10.2869
5786 1 21.3651 21.3651 11.8695
5787 1 19.7825 19.7825 13.4521
5788 1 21.3651 21.3651 15.0347
5789 1 19.7825 22.9477 0.7913
5790 1 21.3651 24.5303 2.3739
5791 1 19.7825 22.9477 3.9565
5792 1 21.3651 24.5303 5.5391
5793 1 19.7825 22.9477 7.1217
5794 1 21.3651 24.5303 8.7043
5795 1 19.7825 22.9477 10.2869
5796 1 21.3651 24.5303 11.8695
5797 1 19.7825 22.9477 13.4521
5798 1 21.3651 24.5303 15.0347
5799 1 19.7825 26.1129 0.7913
5800 1 21.3651 27.6955 2.3739
5801 1 19.7825 26.1129 3.9565
5802 1 21.3651 27.6955 5.5391
5803 1 19.7825 26.1129 7.1217
5804 1 21.3651 27.6955 8.7043
5805 1 19.7825 26.1129 10.2869
5806 1 21.3651 27.6955 11.8695
5807 1 19.7825 26.1129 13.4521
5808 1 21.3651 27.6955 15.0347
5809 1 19.7825 29.2781 0.7913
5810 1 21.3651 30.8607 2.3739
5811 1 19.7825 29.2781 3.9565
5812 1 21.3651 30.8607 5.5391
5813 1 19.7825 29.2781 7.1217
5814 1 21.3651 30.8607 8.7043
5815 1 19.7825 29.2781 10.2869
5816 1 21.3651 30.8607 11.8695
5817 1 19.7825 29.2781 13.4521
5818 1 21.3651 30.8607 15.0347
5819 1 19.7825 32.4433 0.7913
5820 1 21.3651 34.0259 2.3739
5821 1 19.7825 32.4433 3.9565
5822 1 21.3651 34.0259 5.5391
5823 1 19.7825 32.4433 7.1217
5824 1 21.3651 34.0259 8.7043
5825 1 19.7825 32.4433 10.2869
5826 1 21.3651 34.0259 11.8695
5827 1 19.7825 32.4433 13.4521
5828 1 21.3651 34.0259 15.0347
5829 1 19.7825 35.6085 0.7913
5830 1 21.3651 37.1911 2.3739
5831 1 19.7825 35.6085 3.9565
5832 1 21.3651 37.1911 5.5391
5833 1 19.7825 35.6085 7.1217
5834 1 21.3651 37.1911 8.7043
5835 1 19.7825 35.6085 10.2869
5836 1 21.3651 37.1911 11.8695
5837 1 19.7825 35.6085 13.4521
5838 1 21.3651 37.1911 15.0347
5839 1 19.7825 38.7737 0.7913
5840 1 21.3651 40.3563 2.3739
5841 1 19.7825 38.7737 3.9565
5842 1 21.3651 40.3563 5.5391
5843 1 19.7825 38.7737 7.1217
5844 1 21.3651 40.3563 8.7043
5845 1 19.7825 38.7737 10.2869
5846 1 21.3651 40.3563 11.8695
5847 1 19.7825 38.7737 13.4521
5848 1 21.3651 40.3563 15.0347
5849 1 19.7825 41.9389 0.7913
5850 1 21.3651 43.5215 2.3739
5851 1 19.7825 41.9389 3.9565
5852 1 21.3651 43.5215 5.5391
5853 1 19.7825 41.9389 7.1217
5854 1 21.3651 43.5215 8.7043
5855 1 19.7825 41.9389 10.2869
5856 1 21.3651 43.5215 11.8695
5857 1 19.7825 41.9389 13.4521
5858 1 21.3651 43.5215 15.0347
5859 1 19.7825 45.1041 0.7913
5860 1 21.3651 46.6867 2.3739
5861 1 19.7825 45.1041 3.9565
5862 1 21.3651 46.6867 5.5391
5863 1 19.7825 45.1041 7.1217
5864 1 21.3651 46.6867 8.7043
5865 1 19.7825 45.1041 10.2869
5866 1 21.3651 46.6867 11.8695
5867 1 19.7825 45.1041 13.4521
5868 1 21.3651 46.6867 15.0347
5869 1 19.7825 48.2693 0.7913
5870 1 21.3651 49.8519 2.3739
5871 1 19.7825 48.2693 3.9565
5872 1 21.3651 49.8519 5.5391
5873 1 19.7825 48.2693 7.1217
5874 1 21.3651 49.8519 8.7043
5875 1 19.7825 48.2693 10.2869
5876 1 21.3651 49.8519 11.8695
5877 1 19.7825 48.2693 13.4521
5878 1 21.3651 49.8519 15.0347
5879 1 22.9477 0.7913 0.7913
5880 1 24.5303 2.3739 2.3739
5881 1 22.9477 0.7913 3.9565
5882 1 24.5303 2.3739 5.5391
5883 1 22.9477 0.7913 7.1217
5884 1 24.5303 2.3739 8.7043
5885 1 22.9477 0.7913 10.2869
5886 1 24.5303 2.3739 11.8695
5887 1 22.9477 0.7913 13.4521
5888 1 24.5303 2.3739 15.0347
5889 1 22.9477 3.9565 0.7913
5890 1 24.5303 5.5391 2.3739
5891 1 22.9477 3.9565 3.9565
5892 1 24.5303 5.5391 5.5391
5893 1 22.9477 3.9565 7.1217
5894 1 24.5303 5.5391 8.7043
5895 1 22.9477 3.9565 10.2869
5896 1 24.5303 5.5391 11.8695
5897 1 22.9477 3.9565 13.4521
5898 1 24.5303 5.5391 15.0347
5899 1 22.9477 7.1217 0.7913
5900 1 24.5303 8.7043 2.3739
5901 1 22.9477 7.1217 3.9565
5902 1 24.5303 8.7043 5.5391
5903 1 22.9477 7.1217 7.1217
5904 1 24.5303 8.7043 8.7043
5905 1 22.9477 7.1217 10.2869
5906 1 24.5303 8.7043 11.8695
5907 1 22.9477 7.1217 13.4521
5908 1 24.5303 8.7043 15.0347
5909 1 22.9477 10.2869 0.7913
5910 1 24.5303 11.8695 2.3739
5911 1 22.9477 10.2869 3.9565
5912 1 24.5303 11.8695 5.5391
5913 1 22.9477 10.2869 7.1217
5914 1 24.5303 11.8695 8.7043
5915 1 22.9477 10.2869 10.2869
5916 1 24.5303 11.8695 11.8695
5917 1 22.9477 10.2869 13.4521
5918 1 24.5303 11.8695 15.0347
5919 1 22.9477 13.4521 0.7913
5920 1 24.5303 15.0347 2.3739
5921 1 22.9477 13.4521 3.9565
5922 1 24.5303 15.0347 5.5391
5923 1 22.9477 13.4521 7.1217
5924 1 24.5303 15.0347 8.7043
5925 1 22.9477 13.4521 10.2869
5926 1 24.5303 15.0347 11.8695
5927 1 22.9477 13.4521 13.4521
5928 1 24.5303 15.0347 15.0347
5929 1 22.9477 16.6173 0.7913
5930 1 24.5303 18.1999 2.3739
5931 1 22.9477 16.6173 3.9565
5932 1 24.5303 18.1999 5.5391
5933 1 22.9477 16.6173 7.1217
5934 1 24.5303 18.1999 8.7043
5935 1 22.9477 16.6173 10.2869
5936 1 24.5303 18.1999 11.8695
5937 1 22.9477 16.6173 13.4521
5938 1 24.5303 18.1999 15.0347
5939 1 22.9477 19.7825 0.7913
5940 1 24.5303 21.3651 2.3739
5941 1 22.9477 19.7825 3.9565
5942 1 24.5303 21.3651 5.5391
5943 1 22.9477 19.7825 7.1217
5944 1 24.5303 21.3651 8.7043
5945 1 22.9477 19.7825 10.2869
5946 1 24.5303 21.3651 11.8695
5947 1 22.9477 19.7825 13.4521
5948 1 24.5303 21.3651 15.0347
5949 1 22.9477 22.9477 0.7913
5950 1 24.5303 24.5303 2.3739
5951 1 22.9477 22.9477 3.9565
5952 1 24.5303 24.5303 5.5391
5953 1 22.9477 22.9477 7.1217
5954 1 24.5303 24.5303 8.7043
5955 1 22.9477 22.9477 10.2869
5956 1 24.5303 24.5303 11.8695
5957 1 22.9477 22.9477 13.4521
5958 1 24.5303 24.5303 15.0347
5959 1 22.9477 26.1129 0.7913
5960 1 24.5303 27.6955 2.3739
5961 1 22.9477 26.1129 3.9565
5962 1 24.5303 27.6955 5.5391
5963 1 22.9477 26.1129 7.1217
5964 1 24.5303 27.6955 8.7043
5965 1 22.9477 26.1129 10.2869
5966 1 24.5303 27.6955 11.8695
5967 1 22.9477 26.1129 13.4521
5968 1 24.5303 27.6955 15.0347
5969 1 22.9477 29.2781 0.7913
5970 1 24.5303 30.8607 2.3739
5971 1 22.9477 29.2781 3.9565
5972 1 24.5303 30.8607 5.5391
5973 1 22.9477 29.2781 7.1217
5974 1 24.5303 30.8607 8.7043
5975 1 22.9477 29.2781 10.2869
5976 1 24.5303 30.8607 11.8695
5977 1 22.9477 29.2781 13.4521
5978 1 24.5303 30.8607 15.0347
5979 1 22.9477 32.4433 0.7913
5980 1 24.5303 34.0259 2.3739
5981 1 22.9477 32.4433 3.9565
5982 1 24.5303 34.0259 5.5391
5983 1 22.9477 32.4433 7.1217
5984 1 24.5303 34.0259 8.7043
5985 1 22.9477 32.4433 10.2869
5986 1 24.5303 34.0259 11.8695
5987 1 22.9477 32.4433 13.4521
5988 1 24.5303 34.0259 15.0347
5989 1 22.9477 35.6085 0.7913
5990 1 24.5303 37.1911 2.3739
5991 1 22.9477 35.6085 3.9565
5992 1 24.5303 37.1911 5.5391
5993 1 22.9477 35.6085 7.1217
5994 1 24.5303 37.1911 8.7043
5995 1 22.9477 35.6085 10.2869
5996 1 24.5303 37.1911 11.8695
5997 1 22.9477 35.6085 13.4521
5998 1 24.5303 37.1911 15.0347
5999 1 22.9477 38.7737 0.7913
6000 1 24.5303 40.3563 2.3739
6001 1 22.9477 38.7737 3.9565
6002 1 24.5303 40.3563 5.5391
6003 1 22.9477 38.7737 7.1217
6004 1 24.5303 40.3563 8.7043
6005 1 22.9477 38.7737 10.2869
6006 1 24.5303 40.3563 11.8695
6007 1 22.9477 38.7737 13.4521
6008 1 24.5303 40.3563 15.0347
6009 1 22.9477 41.9389 0.7913
6010 1 24.5303 43.5215 2.3739
6011 1 22.9477 41.9389 3.9565
6012 1 24.5303 43.5215 5.5391
6013 1 22.9477 41.9389 7.1217
6014 1 24.5303 43.5215 8.7043
6015 1 22.9477 41.9389 10.2869
6016 1 24.5303 43.5215 11.8695
6017 1 22.9477 41.9389 13.4521
6018 1 24.5303 43.5215 15.0347
6019 1 22.9477 45.1041 0.7913
6020 1 24.5303 46.6867 2.3739
6021 1 22.9477 45.1041 3.9565
6022 1 24.5303 46.6867 5.5391
6023 1 22.9477 45.1041 7.1217
6024 1 24.5303 46.6867 8.7043
6025 1 22.9477 45.1041 10.2869
6026 1 24.5303 46.6867 11.8695
6027 1 22.9477 45.1041 13.4521
6028 1 24.5303 46.6867 15.0347
6029 1 22.9477 48.2693 0.7913
6030 1 24.5303 49.8519 2.3739
6031 1 22.9477 48.2693 3.9565
6032 1 24.5303 49.8519 5.5391
6033 1 22.9477 48.2693 7.1217
6034 1 24.5303 49.8519 8.7043
6035 1 22.9477 48.2693 10.2869
6036 1 24.5303 49.8519 11.8695
6037 1 22.9477 48.2693 13.4521
6038 1 24.5303 49.8519 15.0347
6039 1 26.1129 0.7913 0.7913
6040 1 27.6955 2.3739 2.3739
6041 1 26.1129 0.7913 3.9565
6042 1 27.6955 2.3739 5.5391
6043 1 26.1129 0.7913 7.1217
6044 1 27.6955 2.3739 8.7043
6045 1 26.1129 0.7913 10.2869
6046 1 27.6955 2.3739 11.8695
6047 1 26.1129 0.7913 13.4521
6048 1 27.6955 2.3739 15.0347
6049 1 26.1129 3.9565 0.7913
6050 1 27.6955 5.5391 2.3739
6051 1 26.1129 3.9565 3.9565
6052 1 27.6955 5.5391 5.5391
6053 1 26.1129 3.9565 7.1217
6054 1 27.6955 5.5391 8.7043
6055 1 26.1129 3.9565 10.2869
6056 1 27.6955 5.5391 11.8695
6057 1 26.1129 3.9565 13.4521
6058 1 27.6955 5.5391 15.0347
6059 1 26.1129 7.1217 0.7913
6060 1 27.6955 8.7043 2.3739
6061 1 26.1129 7.1217 3.9565
6062 1 27.6955 8.7043 5.5391
6063 1 26.1129 7.1217 7.1217
6064 1 27.6955 8.7043 8.7043
6065 1 26.1129 7.1217 10.2869
6066 1 27.6955 8.7043 11.8695
6067 1 26.1129 7.1217 13.4521
6068 1 27.6955 8.7043 15.0347
6069 1 26.1129 10.2869 0.7913
6070 1 27.6955 11.8695 2.3739
6071 1 26.1129 10.2869 3.9565
6072 1 27.6955 11.8695 5.5391
6073 1 26.1129 10.2869 7.1217
6074 1 27.6955 11.8695 8.7043
6075 1 26.1129 10.2869 10.2869
6076 1 27.6955 11.8695 11.8695
6077 1 26.1129 10.2869 13.4521
6078 1 27.6955 11.8695 15.0347
6079 1 26.1129 13.4521 0.7913
6080 1 27.6955 15.0347 2.3739
6081 1 26.1129 13.4521 3.9565
6082 1 27.6955 15.0347 5.5391
6083 1 26.1129 13.4521 7.1217
6084 1 27.6955 15.0347 8.7043
6085 1 26.1129 13.4521 10.2869
6086 1 27.6955 15.0347 11.8695
6087 1 26.1129 13.4521 13.4521
6088 1 27.6955 15.0347 15.0347
6089 1 26.1129 16.6173 0.7913
6090 1 27.6955 18.1999 2.3739
6091 1 26.1129 16.6173 3.9565
6092 1 27.6955 18.1999 5.5391
6093 1 26.1129 16.6173 7.1217
6094 1 27.6955 18.1999 8.7043
6095 1 26.1129 16.6173 10.2869
6096 1 27.6955 18.1999 11.8695
6097 1 26.1129 16.6173 13.4521
6098 1 27.6955 18.1999 15.0347
6099 1 26.1129 19.7825 0.7913
6100 1 27.6955 21.3651 2.3739
6101 1 26.1129 19.7825 3.9565
6102 1 27.6955 21.3651 5.5391
6103 1 26.1129 19.7825 7.1217
6104 1 27.6955 21.3651 8.7043
6105 1 26.1129 19.7825 10.2869
6106 1 27.6955 21.3651 11.8695
6107 1 26.1129 19.7825 13.4521
6108 1 27.6955 21.3651 15.0347
6109 1 26.1129 22.9477 0.7913
6110 1 27.6955 24.5303 2.3739
6111 1 26.1129 22.9477 3.9565
6112 1 27.6955 24.5303 5.5391
6113 1 26.1129 22.9477 7.1217
6114 1 27.6955 24.5303 8.7043
6115 1 26.1129 22.9477 10.2869
6116 1 27.6955 24.5303 11.8695
6117 1 26.1129 22.9477 13.4521
6118 1 27.6955 24.5303 15.0347
6119 1 26.1129 26.1129 0.7913
6120 1 27.6955 27.6955 2.3739
6121 1 26.1129 26.1129 3.9565
6122 1 27.6955 27.6955 5.5391
6123 1 26.1129 26.1129 7.1217
6124 1 27.6955 27.6955 8.7043
6125 1 26.1129 26.1129 10.2869
6126 1 27.6955 27.6955 11.8695
6127 1 26.1129 26.1129 13.4521
6128 1 27.6955 27.6955 15.0347
6129 1 26.1129 29.2781 0.7913
6130 1 27.6955 30.8607 2.3739
6131 1 26.1129 29.2781 3.9565
6132 1 27.6955 30.8607 5.5391
6133 1 26.1129 29.2781 7.1217
6134 1 27.6955 30.8607 8.7043
6135 1 26.1129 29.2781 10.2869
6136 1 27.6955 30.8607 11.8695
6137 1 26.1129 29.2781 13.4521
6138 1 27.6955 30.8607 15.0347
6139 1 26.1129 32.4433 0.7913
6140 1 27.6955 34.0259 2.3739
6141 1 26.1129 32.4433 3.9565
6142 1 27.6955 34.0259 5.5391
6143 1 26.1129 32.4433 7.1217
6144 1 27.6955 34.0259 8.7043
6145 1 26.1129 32.4433 10.2869
6146 1 27.6955 34.0259 11.8695
6147 1 26.1129 32.4433 13.4521
6148 1 27.6955 34.0259 15.0347
6149 1 26.1129 35.6085 0.7913
6150 1 27.6955 37.1911 2.3739
6151 1 26.1129 35.6085 3.9565
6152 1 27.6955 37.1911 5.5391
6153 1 26.1129 35.6085 7.1217
6154 1 27.6955 37.1911 8.7043
6155 1 26.1129 35.6085 10.2869
6156 1 27.6955 37.1911 11.8695
6157 1 26.1129 35.6085 13.4521
6158 1 27.6955 37.1911 15.0347
6159 1 26.1129 38.7737 0.7913
6160 1 27.6955 40.3563 2.3739
6161 1 26.1129 38.7737 3.9565
6162 1 27.6955 40.3563 5.5391
6163 1 26.1129 38.7737 7.1217
6164 1 27.6955 40.3563 8.7043
6165 1 26.1129 38.7737 10.2869
6166 1 27.6955 40.3563 11.8695
6167 1 26.1129 38.7737 13.4521
6168 1 27.6955 40.3563 15.0347
6169 1 26.1129 41.9389 0.7913
6170 1 27.6955 43.5215 2.3739
6171 1 26.1129 41.9389 3.9565
6172 1 27.6955 43.5215 5.5391
6173 1 26.1129 41.9389 7.1217
6174 1 27.6955 43.5215 8.7043
6175 1 26.1129 41.9389 10.2869
6176 1 27.6955 43.5215 11.8695
6177 1 26.1129 41.9389 13.4521
6178 1 27.6955 43.5215 15.0347
6179 1 26.1129 45.1041 0.7913
6180 1 27.6955 46.6867 2.3739
6181 1 26.1129 45.1041 3.9565
6182 1 27.6955 46.6867 5.5391
6183 1 26.1129 45.1041 7.1217
6184 1 27.6955 46.6867 8.7043
6185 1 26.1129 45.1041 10.2869
6186 1 27.6955 46.6867 11.8695
6187 1 26.1129 45.1041 13.4521
6188 1 27.6955 46.6867 15.0347
6189 1 26.1129 48.2693 0.7913
6190 1 27.6955 49.8519 2.3739
6191 1 26.1129 48.2693 3.9565
6192 1 27.6955 49.8519 5.5391
6193 1 26.1129 48.2693 7.1217
6194 1 27.6955 49.8519 8.7043
6195 1 26.1129 48.2693 10.2869
6196 1 27.6955 49.8519 11.8695
6197 1 26.1129 48.2693 13.4521
6198 1 27.6955 49.8519 15.0347
6199 1 29.2781 0.7913 0.7913
6200 1 30.8607 2.3739 2.3739
6201 1 29.2781 0.7913 3.9565
6202 1 30.8607 2.3739 5.5391
6203 1 29.2781 0.7913 7.1217
6204 1 30.8607 2.3739 8.7043
6205 1 29.2781 0.7913 10.2869
6206 1 30.8607 2.3739 11.8695
6207 1 29.2781 0.7913 13.4521
6208 1 30.8607 2.3739 15.0347
6209 1 29.2781 3.9565 0.7913
6210 1 30.8607 5.5391 2.3739
6211 1 29.2781 3.9565 3.9565
6212 1 30.8607 5.5391 5.5391
6213 1 29.2781 3.9565 7.1217
6214 1 30.8607 5.5391 8.7043
6215 1 29.2781 3.9565 10.2869
6216 1 30.8607 5.5391 11.8695
6217 1 29.2781 3.9565 13.4521
6218 1 30.8607 5.5391 15.0347
6219 1 29.2781 7.1217 0.7913
6220 1 30.8607 8.7043 2.3739
6221 1 29.2781 7.1217 3.9565
6222 1 30.8607 8.7043 5.5391
6223 1 29.2781 7.1217 7.1217
6224 1 30.8607 8.7043 8.7043
6225 1 29.2781 7.1217 10.2869
6226 1 30.8607 8.7043 11.8695
6227 1 29.2781 7.1217 13.4521
6228 1 30.8607 8.7043 15.0347
6229 1 29.2781 10.2869 0.7913
6230 1 30.8607 11.8695 2.3739
6231 1 29.2781 10.2869 3.9565
6232 1 30.8607 11.8695 5.5391
6233 1 29.2781 10.2869 7.1217
6234 1 30.8607 11.8695 8.7043
6235 1 29.2781 10.2869 10.2869
6236 1 30.8607 11.8695 11.8695
6237 1 29.2781 10.2869 13.4521
6238 1 30.8607 11.8695 15.0347
6239 1 29.2781 13.4521 0.7913
6240 1 30.8607 15.0347 2.3739
6241 1 29.2781 13.4521 3.9565
6242 1 30.8607 15.0347 5.5391
6243 1 29.2781 13.4521 7.1217
6244 1 30.8607 15.0347 8.7043
6245 1 29.2781 13.4521 10.2869
6246 1 30.8607 15.0347 11.8695
6247 1 29.2781 13.4521 13.4521
6248 1 30.8607 15.0347 15.0347
6249 1 29.2781 16.6173 0.7913
6250 1 30.8607 18.1999 2.3739
6251 1 29.2781 16.6173 3.9565
6252 1 30.8607 18.1999 5.5391
6253 1 29.2781 16.6173 7.1217
6254 1 30.8607 18.1999 8.7043
6255 1 29.2781 16.6173 10.2869
6256 1 30.8607 18.1999 11.8695
6257 1 29.2781 16.6173 13.4521
6258 1 30.8607 18.1999 15.0347
6259 1 29.2781 19.7825 0.7913
6260 1 30.8607 21.3651 2.3739
6261 1 29.2781 19.7825 3.9565
6262 1 30.8607 21.3651 5.5391
6263 1 29.2781 19.7825 7.1217
6264 1 30.8607 21.3651 8.7043
6265 1 29.2781 19.7825 10.2869
6266 1 30.8607 21.3651 11.8695
6267 1 29.2781 19.7825 13.4521
6268 1 30.8607 21.3651 15.0347
6269 1 29.2781 22.9477 0.7913
6270 1 30.8607 24.5303 2.3739
6271 1 29.2781 22.9477 3.9565
6272 1 30.8607 24.5303 5.5391
6273 1 29.2781 22.9477 7.1217
6274 1 30.8607 24.5303 8.7043
6275 1 29.2781 22.9477 10.2869
6276 1 30.8607 24.5303 11.8695
6277 1 29.2781 22.9477 13.4521
6278 1 30.8607 24.5303 15.0347
6279 1 29.2781 26.1129 0.7913
6280 1 30.8607 27.6955 2.3739
6281 1 29.2781 26.1129 3.9565
6282 1 30.8607 27.6955 5.5391
6283 1 29.2781 26.1129 7.1217
6284 1 30.8607 27.6955 8.7043
6285 1 29.2781 26.1129 10.2869
6286 1 30.8607 27.6955 11.8695
6287 1 29.2781 26.1129 13.4521
6288 1 30.8607 27.6955 15.0347
6289 1 29.2781 29.2781 0.7913
6290 1 30.8607 30.8607 2.3739
6291 1 29.2781 29.2781 3.9565
6292 1 30.8607 30.8607 5.5391
6293 1 29.2781 29.2781 7.1217
6294 1 30.8607 30.8607 8.7043
6295 1 29.2781 29.2781 10.2869
6296 1 30.8607 30.8607 11.8695
6297 1 29.2781 29.2781 13.4521
6298 1 30.8607 30.8607 15.0347
6299 1 29.2781 32.4433 0.7913
6300 1 30.8607 34.0259 2.3739
6301 1 29.2781 32.4433 3.9565
6302 1 30.8607 34.0259 5.5391
6303 1 29.2781 32.4433 7.1217
6304 1 30.8607 34.0259 8.7043
6305 1 29.2781 32.4433 10.2869
6306 1 30.8607 34.0259 11.8695
6307 1 29.2781 32.4433 13.4521
6308 1 30.8607 34.0259 15.0347
6309 1 29.2781 35.6085 0.7913
6310 1 30.8607 37.1911 2.3739
6311 1 29.2781 35.6085 3.9565
6312 1 30.8607 37.1911 5.5391
6313 1 29.2781 35.6085 7.1217
6314 1 30.8607 37.1911 8.7043
6315 1 29.2781 35.6085 10.2869
6316 1 30.8607 37.1911 11.8695
6317 1 29.2781 35.6085 13.4521
6318 1 30.8607 37.1911 15.0347
6319 1 29.2781 38.7737 0.7913
6320 1 30.8607 40.3563 2.3739
6321 1 29.2781 38.7737 3.9565
6322 1 30.8607 40.3563 5.5391
6323 1 29.2781 38.7737 7.1217
6324 1 30.8607 40.3563 8.7043
6325 1 29.2781 38.7737 10.2869
6326 1 30.8607 40.3563 11.8695
6327 1 29.2781 38.7737 13.4521
6328 1 30.8607 40.3563 15.0347
6329 1 29.2781 41.9389 0.7913
6330 1 30.8607 43.5215 2.3739
6331 1 29.2781 41.9389 3.9565
6332 1 30.8607 43.5215 5.5391
6333 1 29.2781 41.9389 7.1217
6334 1 30.8607 43.5215 8.7043
6335 1 29.2781 41.9389 10.2869
6336 1 30.8607 43.5215 11.8695
6337 1 29.2781 41.9389 13.4521
6338 1 30.8607 43.5215 15.0347
6339 1 29.2781 45.1041 0.7913
6340 1 30.8607 46.6867 2.3739
6341 1 29.2781 45.1041 3.9565
6342 1 30.8607 46.6867 5.5391
6343 1 29.2781 45.1041 7.1217
6344 1 30.8607 46.6867 8.7043
6345 1 29.2781 45.1041 10.2869
6346 1 30.8607 46.6867 11.8695
6347 1 29.2781 45.1041 13.4521
6348 1 30.8607 46.6867 15.0347
6349 1 29.2781 48.2693 0.7913
6350 1 30.8607 49.8519 2.3739
6351 1 29.2781 48.2693 3.9565
6352 1 30.8607 49.8519 5.5391
6353 1 29.2781 48.2693 7.1217
6354 1 30.8607 49.8519 8.7043
6355 1 29.2781 48.2693 10.2869
6356 1 30.8607 49.8519 11.8695
6357 1 29.2781 48.2693 13.4521
6358 1 30.8607 49.8519 15.0347
6359 1 32.4433 0.7913 0.7913
6360 1 34.0259 2.3739 2.3739
6361 1 32.4433 0.7913 3.9565
6362 1 34.0259 2.3739 5.5391
6363 1 32.4433 0.7913 7.1217
6364 1 34.0259 2.3739 8.7043
6365 1 32.4433 0.7913 10.2869
6366 1 34.0259 2.3739 11.8695
6367 1 32.4433 0.7913 13.4521
6368 1 34.0259 2.3739 15.0347
6369 1 32.4433 3.9565 0.7913
6370 1 34.0259 5.5391 2.3739
6371 1 32.4433 3.9565 3.9565
6372 1 34.0259 5.5391 5.5391
6373 1 32.4433 3.9565 7.1217
6374 1 34.0259 5.5391 8.7043
6375 1 32.4433 3.9565 10.2869
6376 1 34.0259 5.5391 11.8695
6377 1 32.4433 3.9565 13.4521
6378 1 34.0259 5.5391 15.0347
6379 1 32.4433 7.1217 0.7913
6380 1 34.0259 8.7043 2.3739
6381 1 32.4433 7.1217 3.9565
6382 1 34.0259 8.7043 5.5391
6383 1 32.4433 7.1217 7.1217
6384 1 34.0259 8.7043 8.7043
6385 1 32.4433 7.1217 10.2869
6386 1 34.0259 8.7043 11.8695
6387 1 32.4433 7.1217 13.4521
6388 1 34.0259 8.7043 15.0347
6389 1 32.4433 10.2869 0.7913
6390 1 34.0259 11.8695 2.3739
6391 1 32.4433 10.2869 3.9565
6392 1 34.0259 11.8695 5.5391
6393 1 32.4433 10.2869 7.1217
6394 1 34.0259 11.8695 8.7043
6395 1 32.4433 10.2869 10.2869
6396 1 34.0259 11.8695 11.8695
6397 1 32.4433 10.2869 13.4521
6398 1 34.0259 11.8695 15.0347
6399 1 32.4433 13.4521 0.7913
6400 1 34.0259 15.0347 2.3739
6401 1 32.4433 13.4521 3.9565
6402 1 34.0259 15.0347 5.5391
6403 1 32.4433 13.4521 7.1217
6404 1 34.0259 15.0347 8.7043
6405 1 32.4433 13.4521 10.2869
6406 1 34.0259 15.0347 11.8695
6407 1 32.4433 13.4521 13.4521
6408 1 34.0259 15.0347 15.0347
6409 1 32.4433 16.6173 0.7913
6410 1 34.0259 18.1999 2.3739
6411 1 32.4433 16.6173 3.9565
6412 1 34.0259 18.1999 5.5391
6413 1 32.4433 16.6173 7.1217
6414 1 34.0259 18.1999 8.7043
6415 1 32.4433 16.6173 10.2869
6416 1 34.0259 18.1999 11.8695
6417 1 32.4433 16.6173 13.4521
6418 1 34.0259 18.1999 15.0347
6419 1 32.4433 19.7825 0.7913
6420 1 34.0259 21.3651 2.3739
6421 1 32.4433 19.7825 3.9565
6422 1 34.0259 21.3651 5.5391
6423 1 32.4433 19.7825 7.1217
6424 1 34.0259 21.3651 8.7043
6425 1 32.4433 19.7825 10.2869
6426 1 34.0259 21.3651 11.8695
6427 1 32.4433 19.7825 13.4521
6428 1 34.0259 21.3651 15.0347
6429 1 32.4433 22.9477 0.7913
6430 1 34.0259 24.5303 2.3739
6431 1 32.4433 22.9477 3.9565
6432 1 34.0259 24.5303 5.5391
6433 1 32.4433 22.9477 7.1217
6434 1 34.0259 24.5303 8.7043
6435 1 32.4433 22.9477 10.2869
6436 1 34.0259 24.5303 11.8695
6437 1 32.4433 22.9477 13.4521
6438 1 34.0259 24.5303 15.0347
6439 1 32.4433 26.1129 0.7913
6440 1 34.0259 27.6955 2.3739
6441 1 32.4433 26.1129 3.9565
6442 1 34.0259 27.6955 5.5391
6443 1 32.4433 26.1129 7.1217
6444 1 34.0259 27.6955 8.7043
6445 1 32.4433 26.1129 10.2869
6446 1 34.0259 27.6955 11.8695
6447 1 32.4433 26.1129 13.4521
6448 1 34.0259 27.6955 15.0347
6449 1 32.4433 29.2781 0.7913
6450 1 34.0259 30.8607 2.3739
6451 1 32.4433 29.2781 3.9565
6452 1 34.0259 30.8607 5.5391
6453 1 32.4433 29.2781 7.1217
6454 1 34.0259 30.8607 8.7043
6455 1 32.4433 29.2781 10.2869
6456 1 34.0259 30.8607 11.8695
6457 1 32.4433 29.2781 13.4521
6458 1 34.0259 30.8607 15.0347
6459 1 32.4433 32.4433 0.7913
6460 1 34.0259 34.0259 2.3739
6461 1 32.4433 32.4433 3.9565
6462 1 34.0259 34.0259 5.5391
6463 1 32.4433 32.4433 7.1217
6464 1 34.0259 34.0259 8.7043
6465 1 32.4433 32.4433 10.2869
6466 1 34.0259 34.0259 11.8695
6467 1 32.4433 32.4433 13.4521
6468 1 34.0259 34.0259 15.0347
6469 1 32.4433 35.6085 0.7913
6470 1 34.0259 37.1911 2.3739
6471 1 32.4433 35.6085 3.9565
6472 1 34.0259 37.1911 5.5391
6473 1 32.4433 35.6085 7.1217
6474 1 34.0259 37.1911 8.7043
6475 1 32.4433 35.6085 10.2869
6476 1 34.0259 37.1911 11.8695
6477 1 32.4433 35.6085 13.4521
6478 1 34.0259 37.1911 15.0347
6479 1 32.4433 38.7737 0.7913
6480 1 34.0259 40.3563 2.3739
6481 1 32.4433 38.7737 3.9565
6482 1 34.0259 40.3563 5.5391
6483 1 32.4433 38.7737 7.1217
6484 1 34.0259 40.3563 8.7043
6485 1 32.4433 38.7737 10.2869
6486 1 34.0259 40.3563 11.8695
6487 1 32.4433 38.7737 13.4521
6488 1 34.0259 40.3563 15.0347
6489 1 32.4433 41.9389 0.7913
6490 1 34.0259 43.5215 2.3739
6491 1 32.4433 41.9389 3.9565
6492 1 34.0259 43.5215 5.5391
6493 1 32.4433 41.9389 7.1217
6494 1 34.0259 43.5215 8.7043
6495 1 32.4433 41.9389 10.2869
6496 1 34.0259 43.5215 11.8695
6497 1 32.4433 41.9389 13.4521
6498 1 34.0259 43.5215 15.0347
6499 1 32.4433 45.1041 0.7913
6500 1 34.0259 46.6867 2.3739
6501 1 32.4433 45.1041 3.9565
6502 1 34.0259 46.6867 5.5391
6503 1 32.4433 45.1041 7.1217
6504 1 34.0259 46.6867 8.7043
6505 1 32.4433 45.1041 10.2869
6506 1 34.0259 46.6867 11.8695
6507 1 32.4433 45.1041 13.4521
6508 1 34.0259 46.6867 15.0347
6509 1 32.4433 48.2693 0.7913
6510 1 34.0259 49.8519 2.3739
6511 1 32.4433 48.2693 3.9565
6512 1 34.0259 49.8519 5.5391
6513 1 32.4433 48.2693 7.1217
6514 1 34.0259 49.8519 8.7043
6515 1 32.4433 48.2693 10.2869
6516 1 34.0259 49.8519 11.8695
6517 1 32.4433 48.2693 13.4521
6518 1 34.0259 49.8519 15.0347
6519 1 16.6173 0.7913 35.6085
6520 1 18.1999 2.3739 37.1911
6521 1 16.6173 0.7913 38.7737
6522 1 18.1999 2.3739 40.3563
6523 1 16.6173 0.7913 41.9389
6524 1 18.1999 2.3739 43.5215
6525 1 16.6173 0.7913 45.1041
6526 1 18.1999 2.3739 46.6867
6527 1 16.6173 0.7913 48.2693
6528 1 18.1999 2.3739 49.8519
6529 1 16.6173 3.9565 35.6085
6530 1 18.1999 5.5391 37.1911
6531 1 16.6173 3.9565 38.7737
6532 1 18.1999 5.5391 40.3563
6533 1 16.6173 3.9565 41.9389
6534 1 18.1999 5.5391 43.5215
6535 1 16.6173 3.9565 45.1041
6536 1 18.1999 5.5391 46.6867
6537 1 16.6173 3.9565 48.2693
6538 1 18.1999 5.5391 49.8519
6539 1 16.6173 7.1217 35.6085
6540 1 18.1999 8.7043 37.1911
6541 1 16.6173 7.1217 38.7737
6542 1 18.1999 8.7043 40.3563
6543 1 16.6173 7.1217 41.9389
6544 1 18.1999 8.7043 43.5215
6545 1 16.6173 7.1217 45.1041
6546 1 18.1999 8.7043 46.6867
6547 1 16.6173 7.1217 48.2693
6548 1 18.1999 8.7043 49.8519
6549 1 16.6173 10.2869 35.6085
6550 1 18.1999 11.8695 37.1911
6551 1 16.6173 10.2869 38.7737
6552 1 18.1999 11.8695 40.3563
6553 1 16.6173 10.2869 41.9389
6554 1 18.1999 11.8695 43.5215
6555 1 16.6173 10.2869 45.1041
6556 1 18.1999 11.8695 46.6867
6557 1 16.6173 10.2869 48.2693
6558 1 18.1999 11.8695 49.8519
6559 1 16.6173 13.4521 35.6085
6560 1 18.1999 15.0347 37.1911
6561 1 16.6173 13.4521 38.7737
6562 1 18.1999 15.0347 40.3563
6563 1 16.6173 13.4521 41.9389
6564 1 18.1999 15.0347 43.5215
6565 1 16.6173 13.4521 45.1041
6566 1 18.1999 15.0347 46.6867
6567 1 16.6173 13.4521 48.2693
6568 1 18.1999 15.0347 49.8519
6569 1 16.6173 16.6173 35.6085
6570 1 18.1999 18.1999 37.1911
6571 1 16.6173 16.6173 38.7737
6572 1 18.1999 18.1999 40.3563
6573 1 16.6173 16.6173 41.9389
6574 1 18.1999 18.1999 43.5215
6575 1 16.6173 16.6173 45.1041
6576 1 18.1999 18.1999 46.6867
6577 1 16.6173 16.6173 48.2693
6578 1 18.1999 18.1999 49.8519
6579 1 16.6173 19.7825 35.6085
6580 1 18.1999 21.3651 37.1911
6581 1 16.6173 19.7825 38.7737
6582 1 18.1999 21.3651 40.3563
6583 1 16.6173 19.7825 41.9389
6584 1 18.1999 21.3651 43.5215
6585 1 16.6173 19.7825 45.1041
6586 1 18.1999 21.3651 46.6867
6587 1 16.6173 19.7825 48.2693
6588 1 18.1999 21.3651 49.8519
6589 1 16.6173 22.9477 35.6085
6590 1 18.1999 24.5303 37.1911
6591 1 16.6173 22.9477 38.7737
6592 1 18.1999 24.5303 40.3563
6593 1 16.6173 22.9477 41.9389
6594 1 18.1999 24.5303 43.5215
6595 1 16.6173 22.9477 45.1041
6596 1 18.1999 24.5303 46.6867
6597 1 16.6173 22.9477 48.2693
6598 1 18.1999 24.5303 49.8519
6599 1 16.6173 26.1129 35.6085
6600 1 18.1999 27.6955 37.1911
6601 1 16.6173 26.1129 38.7737
6602 1 18.1999 27.6955 40.3563
6603 1 16.6173 26.1129 41.9389
6604 1 18.1999 27.6955 43.5215
6605 1 16.6173 26.1129 45.1041
6606 1 18.1999 27.6955 46.6867
6607 1 16.6173 26.1129 48.2693
6608 1 18.1999 27.6955 49.8519
6609 1 16.6173 29.2781 35.6085
6610 1 18.1999 30.8607 37.1911
6611 1 16.6173 29.2781 38.7737
6612 1 18.1999 30.8607 40.3563
6613 1 16.6173 29.2781 41.9389
6614 1 18.1999 30.8607 43.5215
6615 1 16.6173 29.2781 45.1041
6616 1 18.1999 30.8607 46.6867
6617 1 16.6173 29.2781 48.2693
6618 1 18.1999 30.8607 49.8519
6619 1 16.6173 32.4433 35.6085
6620 1 18.1999 34.0259 37.1911
6621 1 16.6173 32.4433 38.7737
6622 1 18.1999 34.0259 40.3563
6623 1 16.6173 32.4433 41.9389
6624 1 18.1999 34.0259 43.5215
6625 1 16.6173 32.4433 45.1041
6626 1 18.1999 34.0259 46.6867
6627 1 16.6173 32.4433 48.2693
6628 1 18.1999 34.0259 49.8519
6629 1 16.6173 35.6085 35.6085
6630 1 18.1999 37.1911 37.1911
6631 1 16.6173 35.6085 38.7737
6632 1 18.1999 37.1911 40.3563
6633 1 16.6173 35.6085 41.9389
6634 1 18.1999 37.1911 43.5215
6635 1 16.6173 35.6085 45.1041
6636 1 18.1999 37.1911 46.6867
6637 1 16.6173 35.6085 48.2693
6638 1 18.1999 37.1911 49.8519
6639 1 16.6173 38.7737 35.6085
6640 1 18.1999 40.3563 37.1911
6641 1 16.6173 38.7737 38.7737
6642 1 18.1999 40.3563 40.3563
6643 1 16.6173 38.7737 41.9389
6644 1 18.1999 40.3563 43.5215
6645 1 16.6173 38.7737 45.1041
6646 1 18.1999 40.3563 46.6867
6647 1 16.6173 38.7737 48.2693
6648 1 18.1999 40.3563 49.8519
6649 1 16.6173 41.9389 35.6085
6650 1 18.1999 43.5215 37.1911
6651 1 16.6173 41.9389 38.7737
6652 1 18.1999 43.5215 40.3563
6653 1 16.6173 41.9389 41.9389
6654 1 18.1999 43.5215 43.5215
6655 1 16.6173 41.9389 45.1041
6656 1 18.1999 43.5215 46.6867
6657 1 16.6173 41.9389 48.2693
6658 1 18.1999 43.5215 49.8519
6659 1 16.6173 45.1041 35.6085
6660 1 18.1999 46.6867 37.1911
6661 1 16.6173 45.1041 38.7737
6662 1 18.1999 46.6867 40.3563
6663 1 16.6173 45.1041 41.9389
6664 1 18.1999 46.6867 43.5215
6665 1 16.6173 45.1041 45.1041
6666 1 18.1999 46.6867 46.6867
6667 1 16.6173 45.1041 48.2693
6668 1 18.1999 46.6867 49.8519
6669 1 16.6173 48.2693 35.6085
6670 1 18.1999 49.8519 37.1911
6671 1 16.6173 48.2693 38.7737
6672 1 18.1999 49.8519 40.3563
6673 1 16.6173 48.2693 41.9389
6674 1 18.1999 49.8519 43.5215
6675 1 16.6173 48.2693 45.1041
6676 1 18.1999 49.8519 46.6867
6677 1 16.6173 48.2693 48.2693
6678 1 18.1999 49.8519 49.8519
6679 1 19.7825 0.7913 35.6085
6680 1 21.3651 2.3739 37.1911
6681 1 19.7825 0.7913 38.7737
6682 1 21.3651 2.3739 40.3563
6683 1 19.7825 0.7913 41.9389
6684 1 21.3651 2.3739 43.5215
6685 1 19.7825 0.7913 45.1041
6686 1 21.3651 2.3739 46.6867
6687 1 19.7825 0.7913 48.2693
6688 1 21.3651 2.3739 49.8519
6689 1 19.7825 3.9565 35.6085
6690 1 21.3651 5.5391 37.1911
6691 1 19.7825 3.9565 38.7737
6692 1 21.3651 5.5391 40.3563
6693 1 19.7825 3.9565 41.9389
6694 1 21.3651 5.5391 43.5215
6695 1 19.7825 3.9565 45.1041
6696 1 21.3651 5.5391 46.6867
6697 1 19.7825 3.9565 48.2693
6698 1 21.3651 5.5391 49.8519
6699 1 19.7825 7.1217 35.6085
6700 1 21.3651 8.7043 37.1911
6701 1 19.7825 7.1217 38.7737
6702 1 21.3651 8.7043 40.3563
6703 1 19.7825 7.1217 41.9389
6704 1 21.3651 8.7043 43.5215
6705 1 19.7825 7.1217 45.1041
6706 1 21.3651 8.7043 46.6867
6707 1 19.7825 7.1217 48.2693
6708 1 21.3651 8.7043 49.8519
6709 1 19.7825 10.2869 35.6085
6710 1 21.3651 11.8695 37.1911
6711 1 19.7825 10.2869 38.7737
6712 1 21.3651 11.8695 40.3563
6713 1 19.7825 10.2869 41.9389
6714 1 21.3651 11.8695 43.5215
6715 1 19.7825 10.2869 45.1041
6716 1 21.3651 11.8695 46.6867
6717 1 19.7825 10.2869 48.2693
6718 1 21.3651 11.8695 49.8519
6719 1 19.7825 13.4521 35.6085
6720 1 21.3651 15.0347 37.1911
6721 1 19.7825 13.4521 38.7737
6722 1 21.3651 15.0347 40.3563
6723 1 19.7825 13.4521 41.9389
6724 1 21.3651 15.0347 43.5215
6725 1 19.7825 13.4521 45.1041
6726 1 21.3651 15.0347 46.6867
6727 1 19.7825 13.4521 48.2693
6728 1 21.3651 15.0347 49.8519
6729 1 19.7825 16.6173 35.6085
6730 1 21.3651 18.1999 37.1911
6731 1 19.7825 16.6173 38.7737
6732 1 21.3651 18.1999 40.3563
6733 1 19.7825 16.6173 41.9389
6734 1 21.3651 18.1999 43.5215
6735 1 19.7825 16.6173 45.1041
6736 1 21.3651 18.1999 46.6867
6737 1 19.7825 16.6173 48.2693
6738 1 21.3651 18.1999 49.8519
6739 1 19.7825 19.7825 35.6085
6740 1 21.3651 21.3651 37.1911
6741 1 19.7825 19.7825 38.7737
6742 1 21.3651 21.3651 40.3563
6743 1 19.7825 19.7825 41.9389
6744 1 21.3651 21.3651 43.5215
6745 1 19.7825 19.7825 45.1041
6746 1 21.3651 21.3651 46.6867
6747 1 19.7825 19.7825 48.2693
6748 1 21.3651 21.3651 49.8519
6749 1 19.7825 22.9477 35.6085
6750 1 21.3651 24.5303 37.1911
6751 1 19.7825 22.9477 38.7737
6752 1 21.3651 24.5303 40.3563
6753 1 19.7825 22.9477 41.9389
6754 1 21.3651 24.5303 43.5215
6755 1 19.7825 22.9477 45.1041
6756 1 21.3651 24.5303 46.6867
6757 1 19.7825 22.9477 48.2693
6758 1 21.3651 24.5303 49.8519
6759 1 19.7825 26.1129 35.6085
6760 1 21.3651 27.6955 37.1911
6761 1 19.7825 26.1129 38.7737
6762 1 21.3651 27.6955 40.3563
6763 1 19.7825 26.1129 41.9389
6764 1 21.3651 27.6955 43.5215
6765 1 19.7825 26.1129 45.1041
6766 1 21.3651 27.6955 46.6867
6767 1 19.7825 26.1129 48.2693
6768 1 21.3651 27.6955 49.8519
6769 1 19.7825 29.2781 35.6085
6770 1 21.3651 30.8607 37.1911
6771 1 19.7825 29.2781 38.7737
6772 1 21.3651 30.8607 40.3563
6773 1 19.7825 29.2781 41.9389
6774 1 21.3651 30.8607 43.5215
6775 1 19.7825 29.2781 45.1041
6776 1 21.3651 30.8607 46.6867
6777 1 19.7825 29.2781 48.2693
6778 1 21.3651 30.8607 49.8519
6779 1 19.7825 32.4433 35.6085
6780 1 21.3651 34.0259 37.1911
6781 1 19.7825 32.4433 38.7737
6782 1 21.3651 34.0259 40.3563
6783 1 19.7825 32.4433 41.9389
6784 1 21.3651 34.0259 43.5215
6785 1 19.7825 32.4433 45.1041
6786 1 21.3651 34.0259 46.6867
6787 1 19.7825 32.4433 48.2693
6788 1 21.3651 34.0259 49.8519
6789 1 19.7825 35.6085 35.6085
6790 1 21.3651 37.1911 37.1911
6791 1 19.7825 35.6085 38.7737
6792 1 21.3651 37.1911 40.3563
6793 1 19.7825 35.6085 41.9389
6794 1 21.3651 37.1911 43.5215
6795 1 19.7825 35.6085 45.1041
6796 1 21.3651 37.1911 46.6867
6797 1 19.7825 35.6085 48.2693
6798 1 21.3651 37.1911 49.8519
6799 1 19.7825 38.7737 35.6085
6800 1 21.3651 40.3563 37.1911
6801 1 19.7825 38.7737 38.7737
6802 1 21.3651 40.3563 40.3563
6803 1 19.7825 38.7737 41.9389
6804 1 21.3651 40.3563 43.5215
6805 1 19.7825 38.7737 45.1041
6806 1 21.3651 40.3563 46.6867
6807 1 19.7825 38.7737 48.2693
6808 1 21.3651 40.3563 49.8519
6809 1 19.7825 41.9389 35.6085
6810 1 21.3651 43.5215 37.1911
6811 1 19.7825 41.9389 38.7737
6812 1 21.3651 43.5215 40.3563
6813 1 19.7825 41.9389 41.9389
6814 1 21.3651 43.5215 43.5215
6815 1 19.7825 41.9389 45.1041
6816 1 21.3651 43.5215 46.6867
6817 1 19.7825 41.9389 48.2693
6818 1 21.3651 43.5215 49.8519
6819 1 19.7825 45.1041 35.6085
6820 1 21.3651 46.6867 37.1911
6821 1 19.7825 45.1041 38.7737
6822 1 21.3651 46.6867 40.3563
6823 1 19.7825 45.1041 41.9389
6824 1 21.3651 46.6867 43.5215
6825 1 19.7825 45.1041 45.1041
6826 1 21.3651 46.6867 46.6867
6827 1 19.7825 45.1041 48.2693
6828 1 21.3651 46.6867 49.8519
6829 1 19.7825 48.2693 35.6085
6830 1 21.3651 49.8519 37.1911
6831 1 19.7825 48.2693 38.7737
6832 1 21.3651 49.8519 40.3563
6833 1 19.7825 48.2693 41.9389
6834 1 21.3651 49.8519 43.5215
6835 1 19.7825 48.2693 45.1041
6836 1 21.3651 49.8519 46.6867
6837 1 19.7825 48.2693 48.2693
6838 1 21.3651 49.8519 49.8519
6839 1 22.9477 0.7913 35.6085
6840 1 24.5303 2.3739 37.1911
6841 1 22.9477 0.7913 38.7737
6842 1 24.5303 2.3739 40.3563
6843 1 22.9477 0.7913 41.9389
6844 1 24.5303 2.3739 43.5215
6845 1 22.9477 0.7913 45.1041
6846 1 24.5303 2.3739 46.6867
6847 1 22.9477 0.7913 48.2693
6848 1 24.5303 2.3739 49.8519
6849 1 22.9477 3.9565 35.6085
6850 1 24.5303 5.5391 37.1911
6851 1 22.9477 3.9565 38.7737
6852 1 24.5303 5.5391 40.3563
6853 1 22.9477 3.9565 41.9389
6854 1 24.5303 5.5391 43.5215
6855 1 22.9477 3.9565 45.1041
6856 1 24.5303 5.5391 46.6867
6857 1 22.9477 3.9565 48.2693
6858 1 24.5303 5.5391 49.8519
6859 1 22.9477 7.1217 35.6085
6860 1 24.5303 8.7043 37.1911
6861 1 22.9477 7.1217 38.7737
6862 1 24.5303 8.7043 40.3563
6863 1 22.9477 7.1217 41.9389
6864 1 24.5303 8.7043 43.5215
6865 1 22.9477 7.1217 45.1041
6866 1 24.5303 8.7043 46.6867
6867 1 22.9477 7.1217 48.2693
6868 1 24.5303 8.7043 49.8519
6869 1 22.9477 10.2869 35.6085
6870 1 24.5303 11.8695 37.1911
6871 1 22.9477 10.2869 38.7737
6872 1 24.5303 11.8695 40.3563
6873 1 22.9477 10.2869 41.9389
6874 1 24.5303 11.8695 43.5215
6875 1 22.9477 10.2869 45.1041
6876 1 24.5303 11.8695 46.6867
6877 1 22.9477 10.2869 48.2693
6878 1 24.5303 11.8695 49.8519
6879 1 22.9477 13.4521 35.6085
6880 1 24.5303 15.0347 37.1911
6881 1 22.9477 13.4521 38.7737
6882 1 24.5303 15.0347 40.3563
6883 1 22.9477 13.4521 41.9389
6884 1 24.5303 15.0347 43.5215
6885 1 22.9477 13.4521 45.1041
6886 1 24.5303 15.0347 46.6867
6887 1 22.9477 13.4521 48.2693
6888 1 24.5303 15.0347 49.8519
6889 1 22.9477 16.6173 35.6085
6890 1 24.5303 18.1999 37.1911
6891 1 22.9477 16.6173 38.7737
6892 1 24.5303 18.1999 40.3563
6893 1 22.9477 16.6173 41.9389
6894 1 24.5303 18.1999 43.5215
6895 1 22.9477 16.6173 45.1041
6896 1 24.5303 18.1999 46.6867
6897 1 22.9477 16.6173 48.2693
6898 1 24.5303 18.1999 49.8519
6899 1 22.9477 19.7825 35.6085
6900 1 24.5303 21.3651 37.1911
6901 1 22.9477 19.7825 38.7737
6902 1 24.5303 21.3651 40.3563
6903 1 22.9477 19.7825 41.9389
6904 1 24.5303 21.3651 43.5215
6905 1 22.9477 19.7825 45.1041
6906 1 24.5303 21.3651 46.6867
6907 1 22.9477 19.7825 48.2693
6908 1 24.5303 21.3651 49.8519
6909 1 22.9477 22.9477 35.6085
6910 1 24.5303 24.5303 37.1911
6911 1 22.9477 22.9477 38.7737
6912 1 24.5303 24.5303 40.3563
6913 1 22.9477 22.9477 41.9389
6914 1 24.5303 24.5303 43.5215
6915 1 22.9477 22.9477 45.1041
6916 1 24.5303 24.5303 46.6867
6917 1 22.9477 22.9477 48.2693
6918 1 24.5303 24.5303 49.8519
6919 1 22.9477 26.1129 35.6085
6920 1 24.5303 27.6955 37.1911
6921 1 22.9477 26.1129 38.7737
6922 1 24.5303 27.6955 40.3563
6923 1 22.9477 26.1129 41.9389
6924 1 24.5303 27.6955 43.5215
6925 1 22.9477 26.1129 45.1041
6926 1 24.5303 27.6955 46.6867
6927 1 22.9477 26.1129 48.2693
6928 1 24.5303 27.6955 49.8519
6929 1 22.9477 29.2781 35.6085
6930 1 24.5303 30.8607 37.1911
6931 1 22.9477 29.2781 38.7737
6932 1 24.5303 30.8607 40.3563
6933 1 22.9477 29.2781 41.9389
6934 1 24.5303 30.8607 43.5215
6935 1 22.9477 29.2781 45.1041
6936 1 24.5303 30.8607 46.6867
6937 1 22.9477 29.2781 48.2693
6938 1 24.5303 30.8607 49.8519
6939 1 22.9477 32.4433 35.6085
6940 1 24.5303 34.0259 37.1911
6941 1 22.9477 32.4433 38.7737
6942 1 24.5303 34.0259 40.3563
6943 1 22.9477 32.4433 41.9389
6944 1 24.5303 34.0259 43.5215
6945 1 22.9477 32.4433 45.1041
6946 1 24.5303 34.0259 46.6867
6947 1 22.9477 32.4433 48.2693
6948 1 24.5303 34.0259 49.8519
6949 1 22.9477 35.6085 35.6085
6950 1 24.5303 37.1911 37.1911
6951 1 22.9477 35.6085 38.7737
6952 1 24.5303 37.1911 40.3563
6953 1 22.9477 35.6085 41.9389
6954 1 24.5303 37.1911 43.5215
6955 1 22.9477 35.6085 45.1041
6956 1 24.5303 37.1911 46.6867
6957 1 22.9477 35.6085 48.2693
6958 1 24.5303 37.1911 49.8519
6959 1 22.9477 38.7737 35.6085
6960 1 24.5303 40.3563 37.1911
6961 1 22.9477 38.7737 38.7737
6962 1 24.5303 40.3563 40.3563
6963 1 22.9477 38.7737 41.9389
6964 1 24.5303 40.3563 43.5215
6965 1 22.9477 38.7737 45.1041
6966 1 24.5303 40.3563 46.6867
6967 1 22.9477 38.7737 48.2693
6968 1 24.5303 40.3563 49.8519
6969 1 22.9477 41.9389 35.6085
6970 1 24.5303 43.5215 37.1911
6971 1 22.9477 41.9389 38.7737
6972 1 24.5303 43.5215 40.3563
6973 1 22.9477 41.9389 41.9389
6974 1 24.5303 43.5215 43.5215
6975 1 22.9477 41.9389 45.1041
6976 1 24.5303 43.5215 46.6867
6977 1 22.9477 41.9389 48.2693
6978 1 24.5303 43.5215 49.8519
6979 1 22.9477 45.1041 35.6085
6980 1 24.5303 46.6867 37.1911
6981 1 22.9477 45.1041 38.7737
6982 1 24.5303 46.6867 40.3563
6983 1 22.9477 45.1041 41.9389
6984 1 24.5303 46.6867 43.5215
6985 1 22.9477 45.1041 45.1041
6986 1 24.5303 46.6867 46.6867
6987 1 22.9477 45.1041 48.2693
6988 1 24.5303 46.6867 49.8519
6989 1 22.9477 48.2693 35.6085
6990 1 24.5303 49.8519 37.1911
6991 1 22.9477 48.2693 38.7737
6992 1 24.5303 49.8519 40.3563
6993 1 22.9477 48.2693 41.9389
6994 1 24.5303 49.8519 43.5215
6995 1 22.9477 48.2693 45.1041
6996 1 24.5303 49.8519 46.6867
6997 1 22.9477 48.2693 48.2693
6998 1 24.5303 49.8519 49.8519
6999 1 26.1129 0.7913 35.6085
7000 1 27.6955 2.3739 37.1911
7001 1 26.1129 0.7913 38.7737
7002 1 27.6955 2.3739 40.3563
7003 1 26.1129 0.7913 41.9389
7004 1 27.6955 2.3739 43.5215
7005 1 26.1129 0.7913 45.1041
7006 1 27.6955 2.3739 46.6867
7007 1 26.1129 0.7913 48.2693
7008 1 27.6955 2.3739 49.8519
7009 1 26.1129 3.9565 35.6085
7010 1 27.6955 5.5391 37.1911
7011 1 26.1129 3.9565 38.7737
7012 1 27.6955 5.5391 40.3563
7013 1 26.1129 3.9565 41.9389
7014 1 27.6955 5.5391 43.5215
7015 1 26.1129 3.9565 45.1041
7016 1 27.6955 5.5391 46.6867
7017 1 26.1129 3.9565 48.2693
7018 1 27.6955 5.5391 49.8519
7019 1 26.1129 7.1217 35.6085
7020 1 27.6955 8.7043 37.1911
7021 1 26.1129 7.1217 38.7737
7022 1 27.6955 8.7043 40.3563
7023 1 26.1129 7.1217 41.9389
7024 1 27.6955 8.7043 43.5215
7025 1 26.1129 7.1217 45.1041
7026 1 27.6955 8.7043 46.6867
7027 1 26.1129 7.1217 48.2693
7028 1 27.6955 8.7043 49.8519
7029 1 26.1129 10.2869 35.6085
7030 1 27.6955 11.8695 37.1911
7031 1 26.1129 10.2869 38.7737
7032 1 27.6955 11.8695 40.3563
7033 1 26.1129 10.2869 41.9389
7034 1 27.6955 11.8695 43.5215
7035 1 26.1129 10.2869 45.1041
7036 1 27.6955 11.8695 46.6867
7037 1 26.1129 10.2869 48.2693
7038 1 27.6955 11.8695 49.8519
7039 1 26.1129 13.4521 35.6085
7040 1 27.6955 15.0347 37.1911
7041 1 26.1129 13.4521 38.7737
7042 1 27.6955 15.0347 40.3563
7043 1 26.1129 13.4521 41.9389
7044 1 27.6955 15.0347 43.5215
7045 1 26.1129 13.4521 45.1041
7046 1 27.6955 15.0347 46.6867
7047 1 26.1129 13.4521 48.2693
7048 1 27.6955 15.0347 49.8519
7049 1 26.1129 16.6173 35.6085
7050 1 27.6955 18.1999 37.1911
7051 1 26.1129 16.6173 38.7737
7052 1 27.6955 18.1999 40.3563
7053 1 26.1129 16.6173 41.9389
7054 1 27.6955 18.1999 43.5215
7055 1 26.1129 16.6173 45.1041
7056 1 27.6955 18.1999 46.6867
7057 1 26.1129 16.6173 48.2693
7058 1 27.6955 18.1999 49.8519
7059 1 26.1129 19.7825 35.6085
7060 1 27.6955 21.3651 37.1911
7061 1 26.1129 19.7825 38.7737
7062 1 27.6955 21.3651 40.3563
7063 1 26.1129 19.7825 41.9389
7064 1 27.6955 21.3651 43.5215
7065 1 26.1129 19.7825 45.1041
7066 1 27.6955 21.3651 46.6867
7067 1 26.1129 19.7825 48.2693
7068 1 27.6955 21.3651 49.8519
7069 1 26.1129 22.9477 35.6085
7070 1 27.6955 24.5303 37.1911
7071 1 26.1129 22.9477 38.7737
7072 1 27.6955 24.5303 40.3563
7073 1 26.1129 22.9477 41.9389
7074 1 27.6955 24.5303 43.5215
7075 1 26.1129 22.9477 45.1041
7076 1 27.6955 24.5303 46.6867
7077 1 26.1129 22.9477 48.2693
7078 1 27.6955 24.5303 49.8519
7079 1 26.1129 26.1129 35.6085
7080 1 27.6955 27.6955 37.1911
7081 1 26.1129 26.1129 38.7737
7082 1 27.6955 27.6955 40.3563
7083 1 26.1129 26.1129 41.9389
7084 1 27.6955 27.6955 43.5215
7085 1 26.1129 26.1129 45.1041
7086 1 27.6955 27.6955 46.6867
7087 1 26.1129 26.1129 48.2693
7088 1 27.6955 27.6955 49.8519
7089 1 26.1129 29.2781 35.6085
7090 1 27.6955 30.8607 37.1911
7091 1 26.1129 29.2781 38.7737
7092 1 27.6955 30.8607 40.3563
7093 1 26.1129 29.2781 41.9389
7094 1 27.6955 30.8607 43.5215
7095 1 26.1129 29.2781 45.1041
7096 1 27.6955 30.8607 46.6867
7097 1 26.1129 29.2781 48.2693
7098 1 27.6955 30.8607 49.8519
7099 1 26.1129 32.4433 35.6085
7100 1 27.6955 34.0259 37.1911
7101 1 26.1129 32.4433 38.7737
7102 1 27.6955 34.0259 40.3563
7103 1 26.1129 32.4433 41.9389
7104 1 27.6955 34.0259 43.5215
7105 1 26.1129 32.4433 45.1041
7106 1 27.6955 34.0259 46.6867
7107 1 26.1129 32.4433 48.2693
7108 1 27.6955 34.0259 49.8519
7109 1 26.1129 35.6085 35.6085
7110 1 27.6955 37.1911 37.1911
7111 1 26.1129 35.6085 38.7737
7112 1 27.6955 37.1911 40.3563
7113 1 26.1129 35.6085 41.9389
7114 1 27.6955 37.1911 43.5215
7115 1 26.1129 35.6085 45.1041
7116 1 27.6955 37.1911 46.6867
7117 1 26.1129 35.6085 48.2693
7118 1 27.6955 37.1911 49.8519
7119 1 26.1129 38.7737 35.6085
7120 1 27.6955 40.3563 37.1911
7121 1 26.1129 38.7737 38.7737
7122 1 27.6955 40.3563 40.3563
7123 1 26.1129 38.7737 41.9389
7124 1 27.6955 40.3563 43.5215
7125 1 26.1129 38.7737 45.1041
7126 1 27.6955 40.3563 46.6867
7127 1 26.1129 38.7737 48.2693
7128 1 27.6955 40.3563 49.8519
7129 1 26.1129 41.9389 35.6085
7130 1 27.6955 43.5215 37.1911
7131 1 26.1129 41.9389 38.7737
7132 1 27.6955 43.5215 40.3563
7133 1 26.1129 41.9389 41.9389
7134 1 27.6955 43.5215 43.5215
7135 1 26.1129 41.9389 45.1041
7136 1 27.6955 43.5215 46.6867
7137 1 26.1129 41.9389 48.2693
7138 1 27.6955 43.5215 49.8519
7139 1 26.1129 45.1041 35.6085
7140 1 27.6955 46.6867 37.1911
7141 1 26.1129 45.1041 38.7737
7142 1 27.6955 46.6867 40.3563
7143 1 26.1129 45.1041 41.9389
7144 1 27.6955 46.6867 43.5215
7145 1 26.1129 45.1041 45.1041
7146 1 27.6955 46.6867 46.6867
7147 1 26.1129 45.1041 48.2693
7148 1 27.6955 46.6867 49.8519
7149 1 26.1129 48.2693 35.6085
7150 1 27.6955 49.8519 37.1911
7151 1 26.1129 48.2693 38.7737
7152 1 27.6955 49.8519 40.3563
7153 1 26.1129 48.2693 41.9389
7154 1 27.6955 49.8519 43.5215
7155 1 26.1129 48.2693 45.1041
7156 1 27.6955 49.8519 46.6867
7157 1 26.1129 48.2693 48.2693
7158 1 27.6955 49.8519 49.8519
7159 1 29.2781 0.7913 35.6085
7160 1 30.8607 2.3739 37.1911
7161 1 29.2781 0.7913 38.7737
7162 1 30.8607 2.3739 40.3563
7163 1 29.2781 0.7913 41.9389
7164 1 30.8607 2.3739 43.5215
7165 1 29.2781 0.7913 45.1041
7166 1 30.8607 2.3739 46.6867
7167 1 29.2781 0.7913 48.2693
7168 1 30.8607 2.3739 49.8519
7169 1 29.2781 3.9565 35.6085
7170 1 30.8607 5.5391 37.1911
7171 1 29.2781 3.9565 38.7737
7172 1 30.8607 5.5391 40.3563
7173 1 29.2781 3.9565 41.9389
7174 1 30.8607 5.5391 43.5215
7175 1 29.2781 3.9565 45.1041
7176 1 30.8607 5.5391 46.6867
7177 1 29.2781 3.9565 48.2693
7178 1 30.8607 5.5391 49.8519
7179 1 29.2781 7.1217 35.6085
7180 1 30.8607 8.7043 37.1911
7181 1 29.2781 7.1217 38.7737
7182 1 30.8607 8.7043 40.3563
7183 1 29.2781 7.1217 41.9389
7184 1 30.8607 8.7043 43.5215
7185 1 29.2781 7.1217 45.1041
7186 1 30.8607 8.7043 46.6867
7187 1 29.2781 7.1217 48.2693
7188 1 30.8607 8.7043 49.8519
7189 1 29.2781 10.2869 35.6085
7190 1 30.8607 11.8695 37.1911
7191 1 29.2781 10.2869 38.7737
7192 1 30.8607 11.8695 40.3563
7193 1 29.2781 10.2869 41.9389
7194 1 30.8607 11.8695 43.5215
7195 1 29.2781 10.2869 45.1041
7196 1 30.8607 11.8695 46.6867
7197 1 29.2781 10.2869 48.2693
7198 1 30.8607 11.8695 49.8519
7199 1 29.2781 13.4521 35.6085
7200 1 30.8607 15.0347 37.1911
7201 1 29.2781 13.4521 38.7737
7202 1 30.8607 15.0347 40.3563
7203 1 29.2781 13.4521 41.9389
7204 1 30.8607 15.0347 43.5215
7205 1 29.2781 13.4521 45.1041
7206 1 30.8607 15.0347 46.6867
7207 1 29.2781 13.4521 48.2693
7208 1 30.8607 15.0347 49.8519
7209 1 29.2781 16.6173 35.6085
7210 1 30.8607 18.1999 37.1911
7211 1 29.2781 16.6173 38.7737
7212 1 30.8607 18.1999 40.3563
7213 1 29.2781 16.6173 41.9389
7214 1 30.8607 18.1999 43.5215
7215 1 29.2781 16.6173 45.1041
7216 1 30.8607 18.1999 46.6867
7217 1 29.2781 16.6173 48.2693
7218 1 30.8607 18.1999 49.8519
7219 1 29.2781 19.7825 35.6085
7220 1 30.8607 21.3651 37.1911
7221 1 29.2781 19.7825 38.7737
7222 1 30.8607 21.3651 40.3563
7223 1 29.2781 19.7825 41.9389
7224 1 30.8607 21.3651 43.5215
7225 1 29.2781 19.7825 45.1041
7226 1 30.8607 21.3651 46.6867
7227 1 29.2781 19.7825 48.2693
7228 1 30.8607 21.3651 49.8519
7229 1 29.2781 22.9477 35.6085
7230 1 30.8607 24.5303 37.1911
7231 1 29.2781 22.9477 38.7737
7232 1 30.8607 24.5303 40.3563
7233 1 29.2781 22.9477 41.9389
7234 1 30.8607 24.5303 43.5215
7235 1 29.2781 22.9477 45.1041
7236 1 30.8607 24.5303 46.6867
7237 1 29.2781 22.9477 48.2693
7238 1 30.8607 24.5303 49.8519
7239 1 29.2781 26.1129 35.6085
7240 1 30.8607 27.6955 37.1911
7241 1 29.2781 26.1129 38.7737
7242 1 30.8607 27.6955 40.3563
7243 1 29.2781 26.1129 41.9389
7244 1 30.8607 27.6955 43.5215
7245 1 29.2781 26.1129 45.1041
7246 1 30.8607 27.6955 46.6867
7247 1 29.2781 26.1129 48.2693
7248 1 30.8607 27.6955 49.8519
7249 1 29.2781 29.2781 35.6085
7250 1 30.8607 30.8607 37.1911
7251 1 29.2781 29.2781 38.7737
7252 1 30.8607 30.8607 40.3563
7253 1 29.2781 29.2781 41.9389
7254 1 30.8607 30.8607 43.5215
7255 1 29.2781 29.2781 45.1041
7256 1 30.8607 30.8607 46.6867
7257 1 29.2781 29.2781 48.2693
7258 1 30.8607 30.8607 49.8519
7259 1 29.2781 32.4433 35.6085
7260 1 30.8607 34.0259 37.1911
7261 1 29.2781 32.4433 38.7737
7262 1 30.8607 34.0259 40.3563
7263 1 29.2781 32.4433 41.9389
7264 1 30.8607 34.0259 43.5215
7265 1 29.2781 32.4433 45.1041
7266 1 30.8607 34.0259 46.6867
7267 1 29.2781 32.4433 48.2693
7268 1 30.8607 34.0259 49.8519
7269 1 29.2781 35.6085 35.6085
7270 1 30.8607 37.1911 37.1911
7271 1 29.2781 35.6085 38.7737
7272 1 30.8607 37.1911 40.3563
7273 1 29.2781 35.6085 41.9389
7274 1 30.8607 37.1911 43.5215
7275 1 29.2781 35.6085 45.1041
7276 1 30.8607 37.1911 46.6867
7277 1 29.2781 35.6085 48.2693
7278 1 30.8607 37.1911 49.8519
7279 1 29.2781 38.7737 35.6085
7280 1 30.8607 40.3563 37.1911
7281 1 29.2781 38.7737 38.7737
7282 1 30.8607 40.3563 40.3563
7283 1 29.2781 38.7737 41.9389
7284 1 30.8607 40.3563 43.5215
7285 1 29.2781 38.7737 45.1041
7286 1 30.8607 40.3563 46.6867
7287 1 29.2781 38.7737 48.2693
7288 1 30.8607 40.3563 49.8519
7289 1 29.2781 41.9389 35.6085
7290 1 30.8607 43.5215 37.1911
7291 1 29.2781 41.9389 38.7737
7292 1 30.8607 43.5215 40.3563
7293 1 29.2781 41.9389 41.9389
7294 1 30.8607 43.5215 43.5215
7295 1 29.2781 41.9389 45.1041
7296 1 30.8607 43.5215 46.6867
7297 1 29.2781 41.9389 48.2693
7298 1 30.8607 43.5215 49.8519
7299 1 29.2781 45.1041 35.6085
7300 1 30.8607 46.6867 37.1911
7301 1 29.2781 45.1041 38.7737
7302 1 30.8607 46.6867 40.3563
7303 1 29.2781 45.1041 41.9389
7304 1 30.8607 46.6867 43.5215
7305 1 29.2781 45.1041 45.1041
7306 1 30.8607 46.6867 46.6867
7307 1 29.2781 45.1041 48.2693
7308 1 30.8607 46.6867 49.8519
7309 1 29.2781 48.2693 35.6085
7310 1 30.8607 49.8519 37.1911
7311 1 29.2781 48.2693 38.7737
7312 1 30.8607 49.8519 40.3563
7313 1 29.2781 48.2693 41.9389
7314 1 30.8607 49.8519 43.5215
7315 1 29.2781 48.2693 45.1041
7316 1 30.8607 49.8519 46.6867
7317 1 29.2781 48.2693 48.2693
7318 1 30.8607 49.8519 49.8519
7319 1 32.4433 0.7913 35.6085
7320 1 34.0259 2.3739 37.1911
7321 1 32.4433 0.7913 38.7737
7322 1 34.0259 2.3739 40.3563
7323 1 32.4433 0.7913 41.9389
7324 1 34.0259 2.3739 43.5215
7325 1 32.4433 0.7913 45.1041
7326 1 34.0259 2.3739 46.6867
7327 1 32.4433 0.7913 48.2693
7328 1 34.0259 2.3739 49.8519
7329 1 32.4433 3.9565 35.6085
7330 1 34.0259 5.5391 37.1911
7331 1 32.4433 3.9565 38.7737
7332 1 34.0259 5.5391 40.3563
7333 1 32.4433 3.9565 41.9389
7334 1 34.0259 5.5391 43.5215
7335 1 32.4433 3.9565 45.1041
7336 1 34.0259 5.5391 46.6867
7337 1 32.4433 3.9565 48.2693
7338 1 34.0259 5.5391 49.8519
7339 1 32.4433 7.1217 35.6085
7340 1 34.0259 8.7043 37.1911
7341 1 32.4433 7.1217 38.7737
7342 1 34.0259 8.7043 40.3563
7343 1 32.4433 7.1217 41.9389
7344 1 34.0259 8.7043 43.5215
7345 1 32.4433 7.1217 45.1041
7346 1 34.0259 8.7043 46.6867
7347 1 32.4433 7.1217 48.2693
7348 1 34.0259 8.7043 49.8519
7349 1 32.4433 10.2869 35.6085
7350 1 34.0259 11.8695 37.1911
7351 1 32.4433 10.2869 38.7737
7352 1 34.0259 11.8695 40.3563
7353 1 32.4433 10.2869 41.9389
7354 1 34.0259 11.8695 43.5215
7355 1 32.4433 10.2869 45.1041
7356 1 34.0259 11.8695 46.6867
7357 1 32.4433 10.2869 48.2693
7358 1 34.0259 11.8695 49.8519
7359 1 32.4433 13.4521 35.6085
7360 1 34.0259 15.0347 37.1911
7361 1 32.4433 13.4521 38.7737
7362 1 34.0259 15.0347 40.3563
7363 1 32.4433 13.4521 41.9389
7364 1 34.0259 15.0347 43.5215
7365 1 32.4433 13.4521 45.1041
7366 1 34.0259 15.0347 46.6867
7367 1 32.4433 13.4521 48.2693
7368 1 34.0259 15.0347 49.8519
7369 1 32.4433 16.6173 35.6085
7370 1 34.0259 18.1999 37.1911
7371 1 32.4433 16.6173 38.7737
7372 1 34.0259 18.1999 40.3563
7373 1 32.4433 16.6173 41.9389
7374 1 34.0259 18.1999 43.5215
7375 1 32.4433 16.6173 45.1041
7376 1 34.0259 18.1999 46.6867
7377 1 32.4433 16.6173 48.2693
7378 1 34.0259 18.1999 49.8519
7379 1 32.4433 19.7825 35.6085
7380 1 34.0259 21.3651 37.1911
7381 1 32.4433 19.7825 38.7737
7382 1 34.0259 21.3651 40.3563
7383 1 32.4433 19.7825 41.9389
7384 1 34.0259 21.3651 43.5215
7385 1 32.4433 19.7825 45.1041
7386 1 34.0259 21.3651 46.6867
7387 1 32.4433 19.7825 48.2693
7388 1 34.0259 21.3651 49.8519
7389 1 32.4433 22.9477 35.6085
7390 1 34.0259 24.5303 37.1911
7391 1 32.4433 22.9477 38.7737
7392 1 34.0259 24.5303 40.3563
7393 1 32.4433 22.9477 41.9389
7394 1 34.0259 24.5303 43.5215
7395 1 32.4433 22.9477 45.1041
7396 1 34.0259 24.5303 46.6867
7397 1 32.4433 22.9477 48.2693
7398 1 34.0259 24.5303 49.8519
7399 1 32.4433 26.1129 35.6085
7400 1 34.0259 27.6955 37.1911
7401 1 32.4433 26.1129 38.7737
7402 1 34.0259 27.6955 40.3563
7403 1 32.4433 26.1129 41.9389
7404 1 34.0259 27.6955 43.5215
7405 1 32.4433 26.1129 45.1041
7406 1 34.0259 27.6955 46.6867
7407 1 32.4433 26.1129 48.2693
7408 1 34.0259 27.6955 49.8519
7409 1 32.4433 29.2781 35.6085
7410 1 34.0259 30.8607 37.1911
7411 1 32.4433 29.2781 38.7737
7412 1 34.0259 30.8607 40.3563
7413 1 32.4433 29.2781 41.9389
7414 1 34.0259 30.8607 43.5215
7415 1 32.4433 29.2781 45.1041
7416 1 34.0259 30.8607 46.6867
7417 1 32.4433 29.2781 48.2693
7418 1 34.0259 30.8607 49.8519
7419 1 32.4433 32.4433 35.6085
7420 1 34.0259 34.0259 37.1911
7421 1 32.4433 32.4433 38.7737
7422 1 34.0259 34.0259 40.3563
7423 1 32.4433 32.4433 41.9389
7424 1 34.0259 34.0259 43.5215
7425 1 32.4433 32.4433 45.1041
7426 1 34.0259 34.0259 46.6867
7427 1 32.4433 32.4433 48.2693
7428 1 34.0259 34.0259 49.8519
7429 1 32.4433 35.6085 35.6085
7430 1 34.0259 37.1911 37.1911
7431 1 32.4433 35.6085 38.7737
7432 1 34.0259 37.1911 40.3563
7433 1 32.4433 35.6085 41.9389
7434 1 34.0259 37.1911 43.5215
7435 1 32.4433 35.6085 45.1041
7436 1 34.0259 37.1911 46.6867
7437 1 32.4433 35.6085 48.2693
7438 1 34.0259 37.1911 49.8519
7439 1 32.4433 38.7737 35.6085
7440 1 34.0259 40.3563 37.1911
7441 1 32.4433 38.7737 38.7737
7442 1 34.0259 40.3563 40.3563
7443 1 32.4433 38.7737 41.9389
7444 1 34.0259 40.3563 43.5215
7445 1 32.4433 38.7737 45.1041
7446 1 34.0259 40.3563 46.6867
7447 1 32.4433 38.7737 48.2693
7448 1 34.0259 40.3563 49.8519
7449 1 32.4433 41.9389 35.6085
7450 1 34.0259 43.5215 37.1911
7451 1 32.4433 41.9389 38.7737
7452 1 34.0259 43.5215 40.3563
7453 1 32.4433 41.9389 41.9389
7454 1 34.0259 43.5215 43.5215
7455 1 32.4433 41.9389 45.1041
7456 1 34.0259 43.5215 46.6867
7457 1 32.4433 41.9389 48.2693
7458 1 34.0259 43.5215 49.8519
7459 1 32.4433 45.1041 35.6085
7460 1 34.0259 46.6867 37.1911
7461 1 32.4433 45.1041 38.7737
7462 1 34.0259 46.6867 40.3563
7463 1 32.4433 45.1041 41.9389
7464 1 34.0259 46.6867 43.5215
7465 1 32.4433 45.1041 45.1041
7466 1 34.0259 46.6867 46.6867
7467 1 32.4433 45.1041 48.2693
7468 1 34.0259 46.6867 49.8519
7469 1 32.4433 48.2693 35.6085
7470 1 34.0259 49.8519 37.1911
7471 1 32.4433 48.2693 38.7737
7472 1 34.0259 49.8519 40.3563
7473 1 32.4433 48.2693 41.9389
7474 1 34.0259 49.8519 43.5215
7475 1 32.4433 48.2693 45.1041
7476 1 34.0259 49.8519 46.6867
7477 1 32.4433 48.2693 48.2693
7478 1 34.0259 49.8519 49.8519
7479 1 16.6173 0.7913 16.6173
7480 1 18.1999 2.3739 18.1999
7481 1 16.6173 0.7913 19.7825
7482 1 18.1999 2.3739 21.3651
7483 1 16.6173 0.7913 22.9477
7484 1 18.1999 2.3739 24.5303
7485 1 16.6173 0.7913 26.1129
7486 1 18.1999 2.3739 27.6955
7487 1 16.6173 0.7913 29.2781
7488 1 18.1999 2.3739 30.8607
7489 1 16.6173 0.7913 32.4433
7490 1 18.1999 2.3739 34.0259
7491 1 16.6173 3.9565 16.6173
7492 1 18.1999 5.5391 18.1999
7493 1 16.6173 3.9565 19.7825
7494 1 18.1999 5.5391 21.3651
7495 1 16.6173 3.9565 22.9477
7496 1 18.1999 5.5391 24.5303
7497 1 16.6173 3.9565 26.1129
7498 1 18.1999 5.5391 27.6955
7499 1 16.6173 3.9565 29.2781
7500 1 18.1999 5.5391 30.8607
7501 1 16.6173 3.9565 32.4433
7502 1 18.1999 5.5391 34.0259
7503 1 16.6173 7.1217 16.6173
7504 1 18.1999 8.7043 18.1999
7505 1 16.6173 7.1217 19.7825
7506 1 18.1999 8.7043 21.3651
7507 1 16.6173 7.1217 22.9477
7508 1 18.1999 8.7043 24.5303
7509 1 16.6173 7.1217 26.1129
7510 1 18.1999 8.7043 27.6955
7511 1 16.6173 7.1217 29.2781
7512 1 18.1999 8.7043 30.8607
7513 1 16.6173 7.1217 32.4433
7514 1 18.1999 8.7043 34.0259
7515 1 16.6173 10.2869 16.6173
7516 1 18.1999 11.8695 18.1999
7517 1 16.6173 10.2869 19.7825
7518 1 18.1999 11.8695 21.3651
7519 1 16.6173 10.2869 22.9477
7520 1 18.1999 11.8695 24.5303
7521 1 16.6173 10.2869 26.1129
7522 1 18.1999 11.8695 27.6955
7523 1 16.6173 10.2869 29.2781
7524 1 18.1999 11.8695 30.8607
7525 1 16.6173 10.2869 32.4433
7526 1 18.1999 11.8695 34.0259
7527 1 16.6173 13.4521 16.6173
7528 1 18.1999 15.0347 18.1999
7529 1 16.6173 13.4521 19.7825
7530 1 18.1999 15.0347 21.3651
7531 1 16.6173 13.4521 22.9477
7532 1 18.1999 15.0347 24.5303
7533 1 16.6173 13.4521 26.1129
7534 1 18.1999 15.0347 27.6955
7535 1 16.6173 13.4521 29.2781
7536 1 18.1999 15.0347 30.8607
7537 1 16.6173 13.4521 32.4433
7538 1 18.1999 15.0347 34.0259
7539 1 19.7825 0.7913 16.6173
7540 1 21.3651 2.3739 18.1999
7541 1 19.7825 0.7913 19.7825
7542 1 21.3651 2.3739 21.3651
7543 1 19.7825 0.7913 22.9477
7544 1 21.3651 2.3739 24.5303
7545 1 19.7825 0.7913 26.1129
7546 1 21.3651 2.3739 27.6955
7547 1 19.7825 0.7913 29.2781
7548 1 21.3651 2.3739 30.8607
7549 1 19.7825 0.7913 32.4433
7550 1 21.3651 2.3739 34.0259
7551 1 19.7825 3.9565 16.6173
7552 1 21.3651 5.5391 18.1999
7553 1 19.7825 3.9565 19.7825
7554 1 21.3651 5.5391 21.3651
7555 1 19.7825 3.9565 22.9477
7556 1 21.3651 5.5391 24.5303
7557 1 19.7825 3.9565 26.1129
7558 1 21.3651 5.5391 27.6955
7559 1 19.7825 3.9565 29.2781
7560 1 21.3651 5.5391 30.8607
7561 1 19.7825 3.9565 32.4433
7562 1 21.3651 5.5391 34.0259
7563 1 19.7825 7.1217 16.6173
7564 1 21.3651 8.7043 18.1999
7565 1 19.7825 7.1217 19.7825
7566 1 21.3651 8.7043 21.3651
7567 1 19.7825 7.1217 22.9477
7568 1 21.3651 8.7043 24.5303
7569 1 19.7825 7.1217 26.1129
7570 1 21.3651 8.7043 27.6955
7571 1 19.7825 7.1217 29.2781
7572 1 21.3651 8.7043 30.8607
7573 1 19.7825 7.1217 32.4433
7574 1 21.3651 8.7043 34.0259
7575 1 19.7825 10.2869 16.6173
7576 1 21.3651 11.8695 18.1999
7577 1 19.7825 10.2869 19.7825
7578 1 21.3651 11.8695 21.3651
7579 1 19.7825 10.2869 22.9477
7580 1 21.3651 11.8695 24.5303
7581 1 19.7825 10.2869 26.1129
7582 1 21.3651 11.8695 27.6955
7583 1 19.7825 10.2869 29.2781
7584 1 21.3651 11.8695 30.8607
7585 1 19.7825 10.2869 32.4433
7586 1 21.3651 11.8695 34.0259
7587 1 19.7825 13.4521 16.6173
7588 1 21.3651 15.0347 18.1999
7589 1 19.7825 13.4521 19.7825
7590 1 21.3651 15.0347 21.3651
7591 1 19.7825 13.4521 22.9477
7592 1 21.3651 15.0347 24.5303
7593 1 19.7825 13.4521 26.1129
7594 1 21.3651 15.0347 27.6955
7595 1 19.7825 13.4521 29.2781
7596 1 21.3651 15.0347 30.8607
7597 1 19.7825 13.4521 32.4433
7598 1 21.3651 15.0347 34.0259
7599 1 22.9477 0.7913 16.6173
7600 1 24.5303 2.3739 18.1999
7601 1 22.9477 0.7913 19.7825
7602 1 24.5303 2.3739 21.3651
7603 1 22.9477 0.7913 22.9477
7604 1 24.5303 2.3739 24.5303
7605 1 22.9477 0.7913 26.1129
7606 1 24.5303 2.3739 27.6955
7607 1 22.9477 0.7913 29.2781
7608 1 24.5303 2.3739 30.8607
7609 1 22.9477 0.7913 32.4433
7610 1 24.5303 2.3739 34.0259
7611 1 22.9477 3.9565 16.6173
7612 1 24.5303 5.5391 18.1999
7613 1 22.9477 3.9565 19.7825
7614 1 24.5303 5.5391 21.3651
7615 1 22.9477 3.9565 22.9477
7616 1 24.5303 5.5391 24.5303
7617 1 22.9477 3.9565 26.1129
7618 1 24.5303 5.5391 27.6955
7619 1 22.9477 3.9565 29.2781
7620 1 24.5303 5.5391 30.8607
7621 1 22.9477 3.9565 32.4433
7622 1 24.5303 5.5391 34.0259
7623 1 22.9477 7.1217 16.6173
7624 1 24.5303 8.7043 18.1999
7625 1 22.9477 7.1217 19.7825
7626 1 24.5303 8.7043 21.3651
7627 1 22.9477 7.1217 22.9477
7628 1 24.5303 8.7043 24.5303
7629 1 22.9477 7.1217 26.1129
7630 1 24.5303 8.7043 27.6955
7631 1 22.9477 7.1217 29.2781
7632 1 24.5303 8.7043 30.8607
7633 1 22.9477 7.1217 32.4433
7634 1 24.5303 8.7043 34.0259
7635 1 22.9477 10.2869 16.6173
7636 1 24.5303 11.8695 18.1999
7637 1 22.9477 10.2869 19.7825
7638 1 24.5303 11.8695 21.3651
7639 1 22.9477 10.2869 22.9477
7640 1 24.5303 11.8695 24.5303
7641 1 22.9477 10.2869 26.1129
7642 1 24.5303 11.8695 27.6955
7643 1 22.9477 10.2869 29.2781
7644 1 24.5303 11.8695 30.8607
7645 1 22.9477 10.2869 32.4433
7646 1 24.5303 11.8695 34.0259
7647 1 22.9477 13.4521 16.6173
7648 1 24.5303 15.0347 18.1999
7649 1 22.9477 13.4521 19.7825
7650 1 24.5303 15.0347 21.3651
7651 1 22.9477 13.4521 22.9477
7652 1 24.5303 15.0347 24.5303
7653 1 22.9477 13.4521 26.1129
7654 1 24.5303 15.0347 27.6955
7655 1 22.9477 13.4521 29.2781
7656 1 24.5303 15.0347 30.8607
7657 1 22.9477 13.4521 32.4433
7658 1 24.5303 15.0347 34.0259
7659 1 26.1129 0.7913 16.6173
7660 1 27.6955 2.3739 18.1999
7661 1 26.1129 0.7913 19.7825
7662 1 27.6955 2.3739 21.3651
7663 1 26.1129 0.7913 22.9477
7664 1 27.6955 2.3739 24.5303
7665 1 26.1129 0.7913 26.1129
7666 1 27.6955 2.3739 27.6955
7667 1 26.1129 0.7913 29.2781
7668 1 27.6955 2.3739 30.8607
7669 1 26.1129 0.7913 32.4433
7670 1 27.6955 2.3739 34.0259
7671 1 26.1129 3.9565 16.6173
7672 1 27.6955 5.5391 18.1999
7673 1 26.1129 3.9565 19.7825
7674 1 27.6955 5.5391 21.3651
7675 1 26.1129 3.9565 22.9477
7676 1 27.6955 5.5391 24.5303
7677 1 26.1129 3.9565 26.1129
7678 1 27.6955 5.5391 27.6955
7679 1 26.1129 3.9565 29.2781
7680 1 27.6955 5.5391 30.8607
7681 1 26.1129 3.9565 32.4433
7682 1 27.6955 5.5391 34.0259
7683 1 26.1129 7.1217 16.6173
7684 1 27.6955 8.7043 18.1999
7685 1 26.1129 7.1217 19.7825
7686 1 27.6955 8.7043 21.3651
7687 1 26.1129 7.1217 22.9477
7688 1 27.6955 8.7043 24.5303
7689 1 26.1129 7.1217 26.1129
7690 1 27.6955 8.7043 27.6955
7691 1 26.1129 7.1217 29.2781
7692 1 27.6955 8.7043 30.8607
7693 1 26.1129 7.1217 32.4433
7694 1 27.6955 8.7043 34.0259
7695 1 26.1129 10.2869 16.6173
7696 1 27.6955 11.8695 18.1999
7697 1 26.1129 10.2869 19.7825
7698 1 27.6955 11.8695 21.3651
7699 1 26.1129 10.2869 22.9477
7700 1 27.6955 11.8695 24.5303
7701 1 26.1129 10.2869 26.1129
7702 1 27.6955 11.8695 27.6955
7703 1 26.1129 10.2869 29.2781
7704 1 27.6955 11.8695 30.8607
7705 1 26.1129 10.2869 32.4433
7706 1 27.6955 11.8695 34.0259
7707 1 26.1129 13.4521 16.6173
7708 1 27.6955 15.0347 18.1999
7709 1 26.1129 13.4521 19.7825
7710 1 27.6955 15.0347 21.3651
7711 1 26.1129 13.4521 22.9477
7712 1 27.6955 15.0347 24.5303
7713 1 26.1129 13.4521 26.1129
7714 1 27.6955 15.0347 27.6955
7715 1 26.1129 13.4521 29.2781
7716 1 27.6955 15.0347 30.8607
7717 1 26.1129 13.4521 32.4433
7718 1 27.6955 15.0347 34.0259
7719 1 29.2781 0.7913 16.6173
7720 1 30.8607 2.3739 18.1999
7721 1 29.2781 0.7913 19.7825
7722 1 30.8607 2.3739 21.3651
7723 1 29.2781 0.7913 22.9477
7724 1 30.8607 2.3739 24.5303
7725 1 29.2781 0.7913 26.1129
7726 1 30.8607 2.3739 27.6955
7727 1 29.2781 0.7913 29.2781
7728 1 30.8607 2.3739 30.8607
7729 1 29.2781 0.7913 32.4433
7730 1 30.8607 2.3739 34.0259
7731 1 29.2781 3.9565 16.6173
7732 1 30.8607 5.5391 18.1999
7733 1 29.2781 3.9565 19.7825
7734 1 30.8607 5.5391 21.3651
7735 1 29.2781 3.9565 22.9477
7736 1 30.8607 5.5391 24.5303
7737 1 29.2781 3.9565 26.1129
7738 1 30.8607 5.5391 27.6955
7739 1 29.2781 3.9565 29.2781
7740 1 30.8607 5.5391 30.8607
7741 1 29.2781 3.9565 32.4433
7742 1 30.8607 5.5391 34.0259
7743 1 29.2781 7.1217 16.6173
7744 1 30.8607 8.7043 18.1999
7745 1 29.2781 7.1217 19.7825
7746 1 30.8607 8.7043 21.3651
7747 1 29.2781 7.1217 22.9477
7748 1 30.8607 8.7043 24.5303
7749 1 29.2781 7.1217 26.1129
7750 1 30.8607 8.7043 27.6955
7751 1 29.2781 7.1217 29.2781
7752 1 30.8607 8.7043 30.8607
7753 1 29.2781 7.1217 32.4433
7754 1 30.8607 8.7043 34.0259
7755 1 29.2781 10.2869 16.6173
7756 1 30.8607 11.8695 18.1999
7757 1 29.2781 10.2869 19.7825
7758 1 30.8607 11.8695 21.3651
7759 1 29.2781 10.2869 22.9477
7760 1 30.8607 11.8695 24.5303
7761 1 29.2781 10.2869 26.1129
7762 1 30.8607 11.8695 27.6955
7763 1 29.2781 10.2869 29.2781
7764 1 30.8607 11.8695 30.8607
7765 1 29.2781 10.2869 32.4433
7766 1 30.8607 11.8695 34.0259
7767 1 29.2781 13.4521 16.6173
7768 1 30.8607 15.0347 18.1999
7769 1 29.2781 13.4521 19.7825
7770 1 30.8607 15.0347 21.3651
7771 1 29.2781 13.4521 22.9477
7772 1 30.8607 15.0347 24.5303
7773 1 29.2781 13.4521 26.1129
7774 1 30.8607 15.0347 27.6955
7775 1 29.2781 13.4521 29.2781
7776 1 30.8607 15.0347 30.8607
7777 1 29.2781 13.4521 32.4433
7778 1 30.8607 15.0347 34.0259
7779 1 32.4433 0.7913 16.6173
7780 1 34.0259 2.3739 18.1999
7781 1 32.4433 0.7913 19.7825
7782 1 34.0259 2.3739 21.3651
7783 1 32.4433 0.7913 22.9477
7784 1 34.0259 2.3739 24.5303
7785 1 32.4433 0.7913 26.1129
7786 1 34.0259 2.3739 27.6955
7787 1 32.4433 0.7913 29.2781
7788 1 34.0259 2.3739 30.8607
7789 1 32.4433 0.7913 32.4433
7790 1 34.0259 2.3739 34.0259
7791 1 32.4433 3.9565 16.6173
7792 1 34.0259 5.5391 18.1999
7793 1 32.4433 3.9565 19.7825
7794 1 34.0259 5.5391 21.3651
7795 1 32.4433 3.9565 22.9477
7796 1 34.0259 5.5391 24.5303
7797 1 32.4433 3.9565 26.1129
7798 1 34.0259 5.5391 27.6955
7799 1 32.4433 3.9565 29.2781
7800 1 34.0259 5.5391 30.8607
7801 1 32.4433 3.9565 32.4433
7802 1 34.0259 5.5391 34.0259
7803 1 32.4433 7.1217 16.6173
7804 1 34.0259 8.7043 18.1999
7805 1 32.4433 7.1217 19.7825
7806 1 34.0259 8.7043 21.3651
7807 1 32.4433 7.1217 22.9477
7808 1 34.0259 8.7043 24.5303
7809 1 32.4433 7.1217 26.1129
7810 1 34.0259 8.7043 27.6955
7811 1 32.4433 7.1217 29.2781
7812 1 34.0259 8.7043 30.8607
7813 1 32.4433 7.1217 32.4433
7814 1 34.0259 8.7043 34.0259
7815 1 32.4433 10.2869 16.6173
7816 1 34.0259 11.8695 18.1999
7817 1 32.4433 10.2869 19.7825
7818 1 34.0259 11.8695 21.3651
7819 1 32.4433 10.2869 22.9477
7820 1 34.0259 11.8695 24.5303
7821 1 32.4433 10.2869 26.1129
7822 1 34.0259 11.8695 27.6955
7823 1 32.4433 10.2869 29.2781
7824 1 34.0259 11.8695 30.8607
7825 1 32.4433 10.2869 32.4433
7826 1 34.0259 11.8695 34.0259
7827 1 32.4433 13.4521 16.6173
7828 1 34.0259 15.0347 18.1999
7829 1 32.4433 13.4521 19.7825
7830 1 34.0259 15.0347 21.3651
7831 1 32.4433 13.4521 22.9477
7832 1 34.0259 15.0347 24.5303
7833 1 32.4433 13.4521 26.1129
7834 1 34.0259 15.0347 27.6955
7835 1 32.4433 13.4521 29.2781
7836 1 34.0259 15.0347 30.8607
7837 1 32.4433 13.4521 32.4433
7838 1 34.0259 15.0347 34.0259
7839 1 16.6173 35.6085 16.6173
7840 1 18.1999 37.1911 18.1999
7841 1 16.6173 35.6085 19.7825
7842 1 18.1999 37.1911 21.3651
7843 1 16.6173 35.6085 22.9477
7844 1 18.1999 37.1911 24.5303
7845 1 16.6173 35.6085 26.1129
7846 1 18.1999 37.1911 27.6955
7847 1 16.6173 35.6085 29.2781
7848 1 18.1999 37.1911 30.8607
7849 1 16.6173 35.6085 32.4433
7850 1 18.1999 37.1911 34.0259
7851 1 16.6173 38.7737 16.6173
7852 1 18.1999 40.3563 18.1999
7853 1 16.6173 38.7737 19.7825
7854 1 18.1999 40.3563 21.3651
7855 1 16.6173 38.7737 22.9477
7856 1 18.1999 40.3563 24.5303
7857 1 16.6173 38.7737 26.1129
7858 1 18.1999 40.3563 27.6955
7859 1 16.6173 38.7737 29.2781
7860 1 18.1999 40.3563 30.8607
7861 1 16.6173 38.7737 32.4433
7862 1 18.1999 40.3563 34.0259
7863 1 16.6173 41.9389 16.6173
7864 1 18.1999 43.5215 18.1999
7865 1 16.6173 41.9389 19.7825
7866 1 18.1999 43.5215 21.3651
7867 1 16.6173 41.9389 22.9477
7868 1 18.1999 43.5215 24.5303
7869 1 16.6173 41.9389 26.1129
7870 1 18.1999 43.5215 27.6955
7871 1 16.6173 41.9389 29.2781
7872 1 18.1999 43.5215 30.8607
7873 1 16.6173 41.9389 32.4433
7874 1 18.1999 43.5215 34.0259
7875 1 16.6173 45.1041 16.6173
7876 1 18.1999 46.6867 18.1999
7877 1 16.6173 45.1041 19.7825
7878 1 18.1999 46.6867 21.3651
7879 1 16.6173 45.1041 22.9477
7880 1 18.1999 46.6867 24.5303
7881 1 16.6173 45.1041 26.1129
7882 1 18.1999 46.6867 27.6955
7883 1 16.6173 45.1041 29.2781
7884 1 18.1999 46.6867 30.8607
7885 1 16.6173 45.1041 32.4433
7886 1 18.1999 46.6867 34.0259
7887 1 16.6173 48.2693 16.6173
7888 1 18.1999 49.8519 18.1999
7889 1 16.6173 48.2693 19.7825
7890 1 18.1999 49.8519 21.3651
7891 1 16.6173 48.2693 22.9477
7892 1 18.1999 49.8519 24.5303
7893 1 16.6173 48.2693 26.1129
7894 1 18.1999 49.8519 27.6955
7895 1 16.6173 48.2693 29.2781
7896 1 18.1999 49.8519 30.8607
7897 1 16.6173 48.2693 32.4433
7898 1 18.1999 49.8519 34.0259
7899 1 19.7825 35.6085 16.6173
7900 1 21.3651 37.1911 18.1999
7901 1 19.7825 35.6085 19.7825
7902 1 21.3651 37.1911 21.3651
7903 1 19.7825 35.6085 22.9477
7904 1 21.3651 37.1911 24.5303
7905 1 19.7825 35.6085 26.1129
7906 1 21.3651 37.1911 27.6955
7907 1 19.7825 35.6085 29.2781
7908 1 21.3651 37.1911 30.8607
7909 1 19.7825 35.6085 32.4433
7910 1 21.3651 37.1911 34.0259
7911 1 19.7825 38.7737 16.6173
7912 1 21.3651 40.3563 18.1999
7913 1 19.7825 38.7737 19.7825
7914 1 21.3651 40.3563 21.3651
7915 1 19.7825 38.7737 22.9477
7916 1 21.3651 40.3563 24.5303
7917 1 19.7825 38.7737 26.1129
7918 1 21.3651 40.3563 27.6955
7919 1 19.7825 38.7737 29.2781
7920 1 21.3651 40.3563 30.8607
7921 1 19.7825 38.7737 32.4433
7922 1 21.3651 40.3563 34.0259
7923 1 19.7825 41.9389 16.6173
7924 1 21.3651 43.5215 18.1999
7925 1 19.7825 41.9389 19.7825
7926 1 21.3651 43.5215 21.3651
7927 1 19.7825 41.9389 22.9477
7928 1 21.3651 43.5215 24.5303
7929 1 19.7825 41.9389 26.1129
7930 1 21.3651 43.5215 27.6955
7931 1 19.7825 41.9389 29.2781
7932 1 21.3651 43.5215 30.8607
7933 1 19.7825 41.9389 32.4433
7934 1 21.3651 43.5215 34.0259
7935 1 19.7825 45.1041 16.6173
7936 1 21.3651 46.6867 18.1999
7937 1 19.7825 45.1041 19.7825
7938 1 21.3651 46.6867 21.3651
7939 1 19.7825 45.1041 22.9477
7940 1 21.3651 46.6867 24.5303
7941 1 19.7825 45.1041 26.1129
7942 1 21.3651 46.6867 27.6955
7943 1 19.7825 45.1041 29.2781
7944 1 21.3651 46.6867 30.8607
7945 1 19.7825 45.1041 32.4433
7946 1 21.3651 46.6867 34.0259
7947 1 19.7825 48.2693 16.6173
7948 1 21.3651 49.8519 18.1999
7949 1 19.7825 48.2693 19.7825
7950 1 21.3651 49.8519 21.3651
7951 1 19.7825 48.2693 22.9477
7952 1 21.3651 49.8519 24.5303
7953 1 19.7825 48.2693 26.1129
7954 1 21.3651 49.8519 27.6955
7955 1 19.7825 48.2693 29.2781
7956 1 21.3651 49.8519 30.8607
7957 1 19.7825 48.2693 32.4433
7958 1 21.3651 49.8519 34.0259
7959 1 22.9477 35.6085 16.6173
7960 1 24.5303 37.1911 18.1999
7961 1 22.9477 35.6085 19.7825
7962 1 24.5303 37.1911 21.3651
7963 1 22.9477 35.6085 22.9477
7964 1 24.5303 37.1911 24.5303
7965 1 22.9477 35.6085 26.1129
7966 1 24.5303 37.1911 27.6955
7967 1 22.9477 35.6085 29.2781
7968 1 24.5303 37.1911 30.8607
7969 1 22.9477 35.6085 32.4433
7970 1 24.5303 37.1911 34.0259
7971 1 22.9477 38.7737 16.6173
7972 1 24.5303 40.3563 18.1999
7973 1 22.9477 38.7737 19.7825
7974 1 24.5303 40.3563 21.3651
7975 1 22.9477 38.7737 22.9477
7976 1 24.5303 40.3563 24.5303
7977 1 22.9477 38.7737 26.1129
7978 1 24.5303 40.3563 27.6955
7979 1 22.9477 38.7737 29.2781
7980 1 24.5303 40.3563 30.8607
7981 1 22.9477 38.7737 32.4433
7982 1 24.5303 40.3563 34.0259
7983 1 22.9477 41.9389 16.6173
7984 1 24.5303 43.5215 18.1999
7985 1 22.9477 41.9389 19.7825
7986 1 24.5303 43.5215 21.3651
7987 1 22.9477 41.9389 22.9477
7988 1 24.5303 43.5215 24.5303
7989 1 22.9477 41.9389 26.1129
7990 1 24.5303 43.5215 27.6955
7991 1 22.9477 41.9389 29.2781
7992 1 24.5303 43.5215 30.8607
7993 1 22.9477 41.9389 32.4433
7994 1 24.5303 43.5215 34.0259
7995 1 22.9477 45.1041 16.6173
7996 1 24.5303 46.6867 18.1999
7997 1 22.9477 45.1041 19.7825
7998 1 24.5303 46.6867 21.3651
7999 1 22.9477 45.1041 22.9477
8000 1 24.5303 46.6867 24.5303
8001 1 22.9477 45.1041 26.1129
8002 1 24.5303 46.6867 27.6955
8003 1 22.9477 45.1041 29.2781
8004 1 24.5303 46.6867 30.8607
8005 1 22.9477 45.1041 32.4433
8006 1 24.5303 46.6867 34.0259
8007 1 22.9477 48.2693 16.6173
8008 1 24.5303 49.8519 18.1999
8009 1 22.9477 48.2693 19.7825
8010 1 24.5303 49.8519 21.3651
8011 1 22.9477 48.2693 22.9477
8012 1 24.5303 49.8519 24.5303
8013 1 22.9477 48.2693 26.1129
8014 1 24.5303 49.8519 27.6955
8015 1 22.9477 48.2693 29.2781
8016 1 24.5303 49.8519 30.8607
8017 1 22.9477 48.2693 32.4433
8018 1 24.5303 49.8519 34.0259
8019 1 26.1129 35.6085 16.6173
8020 1 27.6955 37.1911 18.1999
8021 1 26.1129 35.6085 19.7825
8022 1 27.6955 37.1911 21.3651
8023 1 26.1129 35.6085 22.9477
8024 1 27.6955 37.1911 24.5303
8025 1 26.1129 35.6085 26.1129
8026 1 27.6955 37.1911 27.6955
8027 1 26.1129 35.6085 29.2781
8028 1 27.6955 37.1911 30.8607
8029 1 26.1129 35.6085 32.4433
8030 1 27.6955 37.1911 34.0259
8031 1 26.1129 38.7737 16.6173
8032 1 27.6955 40.3563 18.1999
8033 1 26.1129 38.7737 19.7825
8034 1 27.6955 40.3563 21.3651
8035 1 26.1129 38.7737 22.9477
8036 1 27.6955 40.3563 24.5303
8037 1 26.1129 38.7737 26.1129
8038 1 27.6955 40.3563 27.6955
8039 1 26.1129 38.7737 29.2781
8040 1 27.6955 40.3563 30.8607
8041 1 26.1129 38.7737 32.4433
8042 1 27.6955 40.3563 34.0259
8043 1 26.1129 41.9389 16.6173
8044 1 27.6955 43.5215 18.1999
8045 1 26.1129 41.9389 19.7825
8046 1 27.6955 43.5215 21.3651
8047 1 26.1129 41.9389 22.9477
8048 1 27.6955 43.5215 24.5303
8049 1 26.1129 41.9389 26.1129
8050 1 27.6955 43.5215 27.6955
8051 1 26.1129 41.9389 29.2781
8052 1 27.6955 43.5215 30.8607
8053 1 26.1129 41.9389 32.4433
8054 1 27.6955 43.5215 34.0259
8055 1 26.1129 45.1041 16.6173
8056 1 27.6955 46.6867 18.1999
8057 1 26.1129 45.1041 19.7825
8058 1 27.6955 46.6867 21.3651
8059 1 26.1129 45.1041 22.9477
8060 1 27.6955 46.6867 24.5303
8061 1 26.1129 45.1041 26.1129
8062 1 27.6955 46.6867 27.6955
8063 1 26.1129 45.1041 29.2781
8064 1 27.6955 46.6867 30.8607
8065 1 26.1129 45.1041 32.4433
8066 1 27.6955 46.6867 34.0259
8067 1 26.1129 48.2693 16.6173
8068 1 27.6955 49.8519 18.1999
8069 1 26.1129 48.2693 19.7825
8070 1 27.6955 49.8519 21.3651
8071 1 26.1129 48.2693 22.9477
8072 1 27.6955 49.8519 24.5303
8073 1 26.1129 48.2693 26.1129
8074 1 27.6955 49.8519 27.6955
8075 1 26.1129 48.2693 29.2781
8076 1 27.6955 49.8519 30.8607
8077 1 26.1129 48.2693 32.4433
8078 1 27.6955 49.8519 34.0259
8079 1 29.2781 35.6085 16.6173
8080 1 30.8607 37.1911 18.1999
8081 1 29.2781 35.6085 19.7825
8082 1 30.8607 37.1911 21.3651
8083 1 29.2781 35.6085 22.9477
8084 1 30.8607 37.1911 24.5303
8085 1 29.2781 35.6085 26.1129
8086 1 30.8607 37.1911 27.6955
8087 1 29.2781 35.6085 29.2781
8088 1 30.8607 37.1911 30.8607
8089 1 29.2781 35.6085 32.4433
8090 1 30.8607 37.1911 34.0259
8091 1 29.2781 38.7737 16.6173
8092 1 30.8607 40.3563 18.1999
8093 1 29.2781 38.7737 19.7825
8094 1 30.8607 40.3563 21.3651
8095 1 29.2781 38.7737 22.9477
8096 1 30.8607 40.3563 24.5303
8097 1 29.2781 38.7737 26.1129
8098 1 30.8607 40.3563 27.6955
8099 1 29.2781 38.7737 29.2781
8100 1 30.8607 40.3563 30.8607
8101 1 29.2781 38.7737 32.4433
8102 1 30.8607 40.3563 34.0259
8103 1 29.2781 41.9389 16.6173
8104 1 30.8607 43.5215 18.1999
8105 1 29.2781 41.9389 19.7825
8106 1 30.8607 43.5215 21.3651
8107 1 29.2781 41.9389 22.9477
8108 1 30.8607 43.5215 24.5303
8109 1 29.2781 41.9389 26.1129
8110 1 30.8607 43.5215 27.6955
8111 1 29.2781 41.9389 29.2781
8112 1 30.8607 43.5215 30.8607
8113 1 29.2781 41.9389 32.4433
8114 1 30.8607 43.5215 34.0259
8115 1 29.2781 45.1041 16.6173
8116 1 30.8607 46.6867 18.1999
8117 1 29.2781 45.1041 19.7825
8118 1 30.8607 46.6867 21.3651
8119 1 29.2781 45.1041 22.9477
8120 1 30.8607 46.6867 24.5303
8121 1 29.2781 45.1041 26.1129
8122 1 30.8607 46.6867 27.6955
8123 1 29.2781 45.1041 29.2781
8124 1 30.8607 46.6867 30.8607
8125 1 29.2781 45.1041 32.4433
8126 1 30.8607 46.6867 34.0259
8127 1 29.2781 48.2693 16.6173
8128 1 30.8607 49.8519 18.1999
8129 1 29.2781 48.2693 19.7825
8130 1 30.8607 49.8519 21.3651
8131 1 29.2781 48.2693 22.9477
8132 1 30.8607 49.8519 24.5303
8133 1 29.2781 48.2693 26.1129
8134 1 30.8607 49.8519 27.6955
8135 1 29.2781 48.2693 29.2781
8136 1 30.8607 49.8519 30.8607
8137 1 29.2781 48.2693 32.4433
8138 1 30.8607 49.8519 34.0259
8139 1 32.4433 35.6085 16.6173
8140 1 34.0259 37.1911 18.1999
8141 1 32.4433 35.6085 19.7825
8142 1 34.0259 37.1911 21.3651
8143 1 32.4433 35.6085 22.9477
8144 1 34.0259 37.1911 24.5303
8145 1 32.4433 35.6085 26.1129
8146 1 34.0259 37.1911 27.6955
8147 1 32.4433 35.6085 29.2781
8148 1 34.0259 37.1911 30.8607
8149 1 32.4433 35.6085 32.4433
8150 1 34.0259 37.1911 34.0259
8151 1 32.4433 38.7737 16.6173
8152 1 34.0259 40.3563 18.1999
8153 1 32.4433 38.7737 19.7825
8154 1 34.0259 40.3563 21.3651
8155 1 32.4433 38.7737 22.9477
8156 1 34.0259 40.3563 24.5303
8157 1 32.4433 38.7737 26.1129
8158 1 34.0259 40.3563 27.6955
8159 1 32.4433 38.7737 29.2781
8160 1 34.0259 40.3563 30.8607
8161 1 32.4433 38.7737 32.4433
8162 1 34.0259 40.3563 34.0259
8163 1 32.4433 41.9389 16.6173
8164 1 34.0259 43.5215 18.1999
8165 1 32.4433 41.9389 19.7825
8166 1 34.0259 43.5215 21.3651
8167 1 32.4433 41.9389 22.9477
8168 1 34.0259 43.5215 24.5303
8169 1 32.4433 41.9389 26.1129
8170 1 34.0259 43.5215 27.6955
8171 1 32.4433 41.9389 29.2781
8172 1 34.0259 43.5215 30.8607
8173 1 32.4433 41.9389 32.4433
8174 1 34.0259 43.5215 34.0259
8175 1 32.4433 45.1041 16.6173
8176 1 34.0259 46.6867 18.1999
8177 1 32.4433 45.1041 19.7825
8178 1 34.0259 46.6867 21.3651
8179 1 32.4433 45.1041 22.9477
8180 1 34.0259 46.6867 24.5303
8181 1 32.4433 45.1041 26.1129
8182 1 34.0259 46.6867 27.6955
8183 1 32.4433 45.1041 29.2781
8184 1 34.0259 46.6867 30.8607
8185 1 32.4433 45.1041 32.4433
8186 1 34.0259 46.6867 34.0259
8187 1 32.4433 48.2693 16.6173
8188 1 34.0259 49.8519 18.1999
8189 1 32.4433 48.2693 19.7825
8190 1 34.0259 49.8519 21.3651
8191 1 32.4433 48.2693 22.9477
8192 1 34.0259 49.8519 24.5303
8193 1 32.4433 48.2693 26.1129
8194 1 34.0259 49.8519 27.6955
8195 1 32.4433 48.2693 29.2781
8196 1 34.0259 49.8519 30.8607
8197 1 32.4433 48.2693 32.4433
8198 1 34.0259 49.8519 34.0259
