./desired/Juslin/7_6/36_46/cluster.dat


8199 atoms
0 bonds
0 angles
0 dihedrals
0 impropers

2 atom types
0 bond types
0 angle types
0 dihedral types
0 improper types


0.000      50.6432 xlo xhi
0.000      50.6432 ylo yhi
0.000      50.6432 zlo zhi


Atoms

1 1 16.5993 29.3252 16.6303
2 1 18.2072 30.8965 18.2312
3 1 16.6114 29.3295 19.8178
4 1 18.2084 30.9014 21.403
5 1 16.6028 29.3186 22.9975
6 1 18.2048 30.897 24.5938
7 1 16.6103 29.3317 26.1717
8 1 18.2028 30.8993 27.7678
9 1 16.5929 29.3447 29.377
10 1 18.2014 30.9017 30.9575
11 1 16.6203 32.4897 16.6455
12 1 18.2064 34.0499 18.2416
13 1 16.6257 32.4685 19.8437
14 1 18.217 34.0514 21.433
15 1 16.6319 32.4698 22.9975
16 1 18.2065 34.0489 24.592
17 1 16.6399 32.4748 26.1801
18 1 18.2172 34.0622 27.7599
19 1 16.6289 32.4769 29.3454
20 1 18.2261 34.06 30.9406
21 1 19.8023 32.4831 16.6572
22 1 19.7746 29.3457 19.7942
23 1 19.7797 29.3349 16.6279
24 1 19.7983 32.4674 23.0087
25 1 19.7987 32.4728 19.8386
26 1 19.8143 32.4853 29.3409
27 1 19.7725 29.3435 26.1952
28 1 19.8032 32.4683 26.1659
29 1 19.7736 29.3413 29.3799
30 1 19.7796 29.333 22.9979
31 1 21.3713 30.8922 18.2259
32 1 21.3714 30.8851 21.4192
33 1 21.3911 30.886 24.5994
34 1 21.3766 30.9094 27.7669
35 1 21.3836 34.0428 18.2532
36 1 21.3814 34.0494 21.4225
37 1 21.3837 34.0458 24.5914
38 1 22.9863 32.4862 29.3503
39 1 21.3795 34.0549 30.9303
40 1 22.9889 29.3271 16.6424
41 1 24.5761 30.8773 18.2259
42 1 22.9616 29.2878 19.8024
43 1 24.5614 30.8543 21.4139
44 1 22.9849 29.2583 23.0016
45 1 24.5486 30.8407 24.5824
46 1 22.9812 29.295 26.1787
47 1 24.553 30.8846 27.7657
48 1 22.9717 29.3283 29.3733
49 1 24.5535 30.8886 30.9423
50 1 22.9745 32.4671 16.6691
51 1 24.5847 33.971 18.2369
52 1 22.9674 32.4468 19.8266
53 1 24.545 34.0238 21.4307
54 1 22.974 32.4498 23.0093
55 1 24.5638 34.0373 24.5948
56 1 22.9861 32.4448 26.17
57 1 24.5707 34.0444 27.7584
58 1 24.5541 34.0599 30.9145
59 1 26.1523 29.3236 16.6243
60 1 27.7313 30.9017 18.227
61 1 26.137 29.2954 19.8104
62 1 27.7419 30.9008 21.4003
63 1 26.148 29.3095 22.9961
64 1 27.7465 30.9071 24.5966
65 1 26.1445 29.3093 26.1894
66 1 27.7343 30.9091 27.7819
67 1 26.1475 29.3236 29.3645
68 1 27.7336 30.9061 30.9423
69 1 26.1883 32.4482 16.6307
70 1 27.7286 34.0536 18.3307
71 1 26.1495 32.441 19.8339
72 1 27.7361 34.0378 21.4384
73 1 26.1367 32.4689 23.0122
74 1 27.7232 34.0512 24.5946
75 1 26.1406 32.4688 26.1758
76 1 27.7232 34.0544 27.7676
77 1 26.1403 32.4754 29.3414
78 1 27.7301 34.0651 30.9233
79 1 29.3818 29.3593 16.583
80 1 30.9456 30.9187 18.2127
81 1 29.3959 29.3843 19.7846
82 1 30.9258 30.9125 21.3957
83 1 29.3744 29.3759 22.9967
84 1 30.9243 30.9254 24.6061
85 1 29.3778 29.3859 26.2134
86 1 30.9245 30.9132 27.7852
87 1 29.3644 29.3699 29.4062
88 1 30.9197 30.9121 30.9414
89 1 29.3419 32.4873 16.7025
90 1 30.9182 34.0532 18.2381
91 1 29.339 32.4594 19.8477
92 1 30.8976 34.0501 21.4157
93 1 29.3131 32.4997 23.0086
94 1 30.9058 34.0591 24.5969
95 1 29.3369 32.4888 26.1877
96 1 30.9046 34.0647 27.7588
97 1 29.3103 32.4893 29.3553
98 1 30.9111 34.0721 30.9328
99 1 21.3849 34.0467 27.7685
100 1 21.3886 30.9145 30.9469
101 1 34.1021 30.889 18.2397
102 1 34.0966 30.8974 21.4238
103 1 34.0895 30.8884 24.5963
104 1 34.0963 30.8839 27.7664
105 1 34.0928 30.9036 30.9391
106 1 34.0785 34.0508 18.2512
107 1 34.0792 34.0502 21.4158
108 1 34.0649 34.048 24.6
109 1 34.0738 34.0539 27.7538
110 1 34.0731 34.0452 30.9288
111 1 32.5354 29.3244 16.6313
112 1 32.5138 29.3304 23.0062
113 1 32.5221 29.3261 19.8165
114 1 32.5071 29.3277 26.196
115 1 32.5076 29.3267 29.367
116 1 32.4908 32.4876 29.3467
117 1 32.4839 32.494 26.1877
118 1 32.4982 32.4832 19.8302
119 1 32.5039 32.467 16.6503
120 1 32.5054 32.4843 22.9977
121 1 16.6306 19.8072 26.1817
122 1 16.618 22.9732 16.6159
123 1 16.6336 22.984 19.8021
124 1 16.6496 22.9779 26.179
125 1 18.144 18.1648 27.8192
126 1 16.5895 26.1613 16.6228
127 1 16.63 22.9681 29.3653
128 1 18.2042 21.3839 30.9573
129 1 18.1608 18.1752 18.1745
130 1 18.1768 18.1886 24.5811
131 1 18.1718 18.1876 30.9738
132 1 19.7346 19.7582 16.5584
133 1 18.3015 21.4126 21.3839
134 1 19.6846 19.6226 26.2527
135 1 18.2391 21.3851 27.7773
136 1 19.7323 19.7473 29.4374
137 1 16.618 19.7968 29.3532
138 1 16.6178 19.8063 16.6321
139 1 18.1336 24.6122 18.1744
140 1 18.2207 21.3726 18.2022
141 1 18.189 24.5722 21.3815
142 1 16.6911 22.9718 23.0025
143 1 18.2009 24.5871 24.5991
144 1 16.5984 26.1617 19.8085
145 1 16.6134 26.1454 22.9913
146 1 16.6044 26.156 26.187
147 1 18.1412 24.6088 27.8291
148 1 18.196 24.5639 30.9661
149 1 16.6492 19.8198 22.9818
150 1 18.2983 21.4064 24.6061
151 1 19.7847 22.9957 29.4123
152 1 16.6355 19.8148 19.7961
153 1 19.7814 16.606 19.7971
154 1 19.7129 26.2222 29.4574
155 1 16.5895 26.1599 29.3752
156 1 19.665 26.2743 19.7173
157 1 16.6145 16.6299 22.9863
158 1 18.1883 18.1941 21.3747
159 1 16.598 16.6178 29.3556
160 1 19.715 26.212 16.556
161 1 19.6432 26.2936 26.276
162 1 19.6842 19.7657 22.9886
163 1 19.7725 22.9966 16.5756
164 1 16.6096 16.6261 19.7921
165 1 19.7052 19.6551 19.721
166 1 19.6841 23.1112 19.6586
167 1 19.7065 23.1263 26.3072
168 1 19.6668 26.2373 22.9901
169 1 16.5934 16.6136 16.6046
170 1 19.7413 16.584 29.3961
171 1 18.1589 27.7636 21.3947
172 1 18.1488 27.7881 27.8191
173 1 19.7489 16.5784 16.5809
174 1 18.1455 27.7985 18.1695
175 1 18.1712 27.7703 24.5883
176 1 19.7706 16.608 26.1971
177 1 19.7882 16.6281 22.9898
178 1 16.6131 16.631 26.1712
179 1 20.0047 22.9451 23.0289
180 1 18.1776 27.7595 30.9789
181 1 22.9425 16.468 22.9968
182 1 22.9474 19.7043 16.5357
183 1 21.3449 21.2991 17.9803
184 1 24.5602 24.5816 31.0467
185 1 21.2389 24.7149 18.0963
186 1 21.0591 24.7368 21.256
187 1 21.0557 24.803 24.7194
188 1 26.1546 19.7202 16.4661
189 1 26.1688 16.5761 16.5948
190 1 22.7533 16.4818 19.6615
191 1 24.4671 18.0269 18.0676
192 2 23.5164 19.0712 23.0396
193 1 22.7195 16.4404 26.3462
194 1 26.374 16.5768 26.3155
195 1 22.9835 19.4665 26.3091
196 1 26.161 19.7176 29.5792
197 1 22.9238 16.5444 16.5424
198 1 24.5201 21.3631 17.8132
199 1 22.9493 19.5143 19.7045
200 1 24.4877 21.4379 20.4497
201 1 21.352 21.3921 20.6046
202 2 24.5152 21.4799 23.0635
203 1 22.94 19.6483 29.4957
204 1 22.8865 23.0924 26.9165
205 1 24.5515 18.1507 31.0371
206 1 27.7894 21.3577 31.0384
207 1 24.559 21.3573 31.0708
208 1 22.9205 23.0053 16.4579
209 1 24.5993 24.6233 17.8805
210 1 22.879 23.0912 19.1889
211 1 24.7087 24.6126 20.5239
212 2 22.9634 23.163 21.7778
213 2 24.8287 24.5809 23.0777
214 2 24.7246 24.5667 25.6096
215 1 24.5999 24.607 28.2173
216 1 24.5274 21.3566 28.2514
217 1 22.9078 26.1974 29.4262
218 1 22.9152 26.1832 16.5528
219 1 22.8024 26.1991 19.7705
220 1 22.76 26.0853 22.993
221 1 22.8039 26.1915 26.2436
222 1 21.2016 24.7496 27.9107
223 1 29.3962 16.5213 19.7927
224 1 26.3289 16.5759 19.7042
225 1 27.9545 18.1473 21.3676
226 2 25.9214 19.693 21.7561
227 1 26.0778 19.6736 26.8763
228 1 27.8955 18.1183 18.1474
229 1 27.8138 21.3033 17.8695
230 1 26.0921 19.6881 19.2074
231 1 27.8061 21.2015 20.5141
232 2 27.7187 21.0423 23.048
233 2 27.8014 21.1384 25.5998
234 1 24.4842 17.6627 24.9702
235 1 26.2402 22.8934 26.9386
236 2 24.4698 21.4198 25.6373
237 1 30.9219 21.3794 30.9555
238 1 26.1731 22.9963 16.4484
239 1 27.7956 24.7182 18.1521
240 1 26.2173 22.9573 19.174
241 1 27.7998 24.8834 21.3446
242 2 26.2991 22.8642 21.77
243 1 27.7775 24.8962 24.6326
244 2 26.314 22.8233 24.341
245 1 27.8014 24.7376 27.8452
246 1 26.1856 22.9732 29.6312
247 1 27.7698 24.5826 31.0076
248 1 26.1985 26.2061 16.5658
249 1 26.3284 26.4316 19.7036
250 1 26.4027 26.5479 22.9669
251 1 26.3275 26.446 26.2816
252 1 26.2121 26.2268 29.4543
253 1 29.3619 16.5488 16.6025
254 1 31.0125 18.096 18.1532
255 1 31.0762 18.026 21.3503
256 1 31.0852 18.0132 24.647
257 1 29.6391 19.5384 26.2893
258 1 29.4031 19.7234 16.5587
259 1 30.8616 21.3841 18.2335
260 1 29.5969 19.5552 19.7487
261 1 30.7932 21.4109 21.4236
262 1 29.7183 19.4789 22.988
263 2 25.9049 19.6713 24.3233
264 1 27.8339 21.2645 28.2164
265 1 27.7957 18.1522 31.0207
266 1 29.3609 23.025 16.5957
267 1 30.9413 24.5981 18.196
268 1 29.3154 23.1539 19.7964
269 1 30.907 24.6077 21.4116
270 1 29.2262 23.1487 22.9978
271 1 30.911 24.6076 24.5882
272 1 29.2965 23.1479 26.1987
273 1 30.9494 24.6015 27.7957
274 1 29.3396 23.0433 29.3989
275 1 30.9329 24.5753 30.9677
276 1 29.3696 26.1871 16.5889
277 1 29.4248 26.2585 19.7627
278 1 29.403 26.2823 23.0057
279 1 29.4083 26.2595 26.2201
280 1 29.3853 26.2053 29.4128
281 1 24.4738 17.7069 21.0727
282 1 24.46 17.9653 27.9549
283 1 29.4452 19.6784 29.4632
284 2 21.9346 21.0166 23.0299
285 1 30.8656 21.3833 27.7685
286 1 30.7773 21.3981 24.5993
287 1 22.9328 23.009 29.6053
288 1 21.3641 21.3472 31.0196
289 1 24.5443 27.7118 27.7983
290 1 27.8359 27.8521 27.8679
291 1 30.9427 27.7502 30.9758
292 1 30.9667 27.7753 21.3896
293 1 30.9647 27.7665 18.2068
294 1 30.9591 27.7821 24.6016
295 1 27.7582 27.7653 30.9949
296 1 30.964 27.7707 27.798
297 1 22.8947 16.5305 29.4689
298 1 29.3852 16.5418 23.0163
299 1 21.3647 18.258 21.4269
300 1 27.9131 18.1322 27.8814
301 1 21.3319 27.7749 27.8127
302 1 21.345 18.1684 31.0156
303 1 24.5035 27.6455 21.4106
304 1 26.2043 16.5838 29.4173
305 1 27.9575 18.1622 24.6488
306 1 21.3188 18.1573 18.1357
307 1 21.2884 18.1327 27.8799
308 1 21.3177 27.7617 24.6057
309 1 21.3607 21.2811 28.0741
310 1 24.5635 27.7379 30.9594
311 1 24.532 27.6025 24.5835
312 1 21.3439 24.5797 31.0159
313 1 27.889 27.9161 21.3381
314 1 27.8661 27.9135 24.6481
315 1 24.5367 27.7165 18.1993
316 1 21.3583 27.757 30.9788
317 1 21.3117 27.7596 21.3897
318 1 27.8279 27.832 18.1329
319 1 21.33 27.7897 18.1819
320 1 31.0499 18.0684 27.8813
321 1 30.9721 18.167 31.0132
322 1 21.368 18.2366 24.5738
323 1 29.387 16.5361 29.4275
324 1 26.151 16.7596 23.009
325 1 29.4238 16.5281 26.2437
326 2 22.95 23.1646 24.3065
327 1 21.3618 21.3824 25.446
328 1 32.4175 22.9648 23.0118
329 1 32.4618 22.9555 19.8371
330 1 32.4567 22.9675 26.1801
331 1 32.4721 19.7656 23.009
332 1 32.4729 19.782 19.8291
333 1 34.0861 18.1975 18.2367
334 1 34.0735 18.1883 21.4239
335 1 34.0896 18.1772 24.6029
336 1 34.09 18.1975 30.9616
337 1 34.0479 21.3694 18.2579
338 1 34.0143 21.3758 21.4288
339 1 34.0144 21.3772 24.6024
340 1 34.055 21.3705 27.766
341 1 34.097 18.192 27.7854
342 1 34.0861 21.3754 30.9469
343 1 34.0823 24.5379 18.2501
344 1 34.0571 24.5337 21.4352
345 1 34.0504 24.5491 24.5909
346 1 34.0676 24.5341 27.7554
347 1 34.0749 24.5488 30.9318
348 1 34.0917 27.7271 30.9302
349 1 34.088 27.7197 21.4241
350 1 34.0978 27.7153 18.2464
351 1 34.0788 27.7281 24.5899
352 1 34.0938 27.7331 27.7697
353 1 32.5619 16.5565 26.2295
354 1 32.554 16.5416 19.7876
355 1 32.5521 16.5466 23.0221
356 1 32.5709 16.5595 29.4301
357 1 32.5356 16.5748 16.6099
358 1 32.5246 26.1422 16.6462
359 1 32.4988 19.7771 29.3688
360 1 32.5099 26.1507 26.1817
361 1 32.5177 26.1521 19.8194
362 1 32.5123 26.138 29.375
363 1 32.5149 26.1592 23.0116
364 1 32.485 19.7874 16.6466
365 1 32.4878 22.963 29.3718
366 1 32.4872 19.7729 26.1928
367 1 32.4889 22.9573 16.6504
368 1 16.6215 13.4765 19.8004
369 1 16.6431 13.4989 22.9699
370 1 16.6173 13.4521 16.6173
371 1 18.2104 15.0543 24.5729
372 1 16.6174 13.4834 26.1603
373 1 18.1774 15.0328 27.7697
374 1 16.5892 13.4661 29.3457
375 1 19.7884 13.464 22.9854
376 1 19.7484 13.4137 29.395
377 1 19.7887 13.4535 19.795
378 1 18.1914 15.0299 30.9575
379 1 18.1932 15.0252 18.2031
380 1 19.7919 13.4519 26.174
381 1 18.2175 15.0463 21.3863
382 1 19.7583 13.4234 16.6134
383 1 22.9682 13.433 22.9967
384 1 26.152 13.4391 29.3809
385 1 22.956 13.4358 19.8106
386 1 22.9709 13.4364 29.3791
387 1 27.7401 15.0239 24.598
388 1 24.5537 15.0243 18.2234
389 1 26.1305 13.4357 16.6329
390 1 29.3143 13.4152 19.8326
391 1 29.3133 13.4305 23.0092
392 1 24.5725 15.0079 30.9742
393 1 29.3374 13.4084 29.3879
394 1 22.9712 13.4304 16.625
395 1 26.1475 13.4696 23.0101
396 1 29.3263 13.4305 26.1946
397 1 29.3197 13.4161 16.6403
398 1 30.9317 14.9869 24.6166
399 1 30.9249 14.9772 21.4043
400 1 22.9609 13.4388 26.2074
401 1 21.3445 14.9915 31.0013
402 1 26.1602 13.4455 26.1993
403 1 26.1456 13.4444 19.8091
404 1 27.789 14.9601 27.8345
405 1 27.7421 15.0224 21.4228
406 1 30.9532 14.9875 30.9806
407 1 21.2907 14.9409 27.8578
408 1 27.7631 14.9644 18.1905
409 1 24.5624 14.9947 21.3893
410 1 30.9382 14.9795 18.2099
411 1 21.3086 14.9607 18.1456
412 1 21.3575 15.0219 21.3942
413 1 24.5717 14.9781 24.6202
414 1 27.7491 14.9987 30.9877
415 1 24.5649 15.0457 27.7778
416 1 21.3387 15.0019 24.5892
417 1 30.9537 14.9704 27.8038
418 1 34.0938 14.9993 21.4083
419 1 34.0937 15.0073 24.6062
420 1 34.1075 15.0267 30.9746
421 1 34.0868 14.9982 18.2286
422 1 34.1064 15.0015 27.8034
423 1 32.5135 13.419 29.3876
424 1 32.5004 13.4221 23.0107
425 1 32.4972 13.4223 19.8275
426 1 32.5107 13.4143 26.2053
427 1 32.4959 13.4188 16.6547
428 1 0.7913 0.7913 0.7913
429 1 2.3739 2.3739 2.3739
430 1 0.7913 0.7913 3.9565
431 1 2.3739 2.3739 5.5391
432 1 0.7913 0.7913 7.1217
433 1 2.3739 2.3739 8.7043
434 1 0.7913 0.7913 10.2869
435 1 2.3739 2.3739 11.8695
436 1 0.7913 0.7913 13.4521
437 1 2.3739 2.3739 15.0347
438 1 0.7913 0.7913 16.6173
439 1 2.3739 2.3739 18.1999
440 1 0.7913 0.7913 19.7825
441 1 2.3739 2.3739 21.3651
442 1 0.7913 0.7913 22.9477
443 1 2.3739 2.3739 24.5303
444 1 0.7913 0.7913 26.1129
445 1 2.3739 2.3739 27.6955
446 1 0.7913 0.7913 29.2781
447 1 2.3739 2.3739 30.8607
448 1 0.7913 0.7913 32.4433
449 1 2.3739 2.3739 34.0259
450 1 0.7913 0.7913 35.6085
451 1 2.3739 2.3739 37.1911
452 1 0.7913 0.7913 38.7737
453 1 2.3739 2.3739 40.3563
454 1 0.7913 0.7913 41.9389
455 1 2.3739 2.3739 43.5215
456 1 0.7913 0.7913 45.1041
457 1 2.3739 2.3739 46.6867
458 1 0.7913 0.7913 48.2693
459 1 2.3739 2.3739 49.8519
460 1 0.7913 3.9565 0.7913
461 1 2.3739 5.5391 2.3739
462 1 0.7913 3.9565 3.9565
463 1 2.3739 5.5391 5.5391
464 1 0.7913 3.9565 7.1217
465 1 2.3739 5.5391 8.7043
466 1 0.7913 3.9565 10.2869
467 1 2.3739 5.5391 11.8695
468 1 0.7913 3.9565 13.4521
469 1 2.3739 5.5391 15.0347
470 1 0.7913 3.9565 16.6173
471 1 2.3739 5.5391 18.1999
472 1 0.7913 3.9565 19.7825
473 1 2.3739 5.5391 21.3651
474 1 0.7913 3.9565 22.9477
475 1 2.3739 5.5391 24.5303
476 1 0.7913 3.9565 26.1129
477 1 2.3739 5.5391 27.6955
478 1 0.7913 3.9565 29.2781
479 1 2.3739 5.5391 30.8607
480 1 0.7913 3.9565 32.4433
481 1 2.3739 5.5391 34.0259
482 1 0.7913 3.9565 35.6085
483 1 2.3739 5.5391 37.1911
484 1 0.7913 3.9565 38.7737
485 1 2.3739 5.5391 40.3563
486 1 0.7913 3.9565 41.9389
487 1 2.3739 5.5391 43.5215
488 1 0.7913 3.9565 45.1041
489 1 2.3739 5.5391 46.6867
490 1 0.7913 3.9565 48.2693
491 1 2.3739 5.5391 49.8519
492 1 0.7913 7.1217 0.7913
493 1 2.3739 8.7043 2.3739
494 1 0.7913 7.1217 3.9565
495 1 2.3739 8.7043 5.5391
496 1 0.7913 7.1217 7.1217
497 1 2.3739 8.7043 8.7043
498 1 0.7913 7.1217 10.2869
499 1 2.3739 8.7043 11.8695
500 1 0.7913 7.1217 13.4521
501 1 2.3739 8.7043 15.0347
502 1 0.7913 7.1217 16.6173
503 1 2.3739 8.7043 18.1999
504 1 0.7913 7.1217 19.7825
505 1 2.3739 8.7043 21.3651
506 1 0.7913 7.1217 22.9477
507 1 2.3739 8.7043 24.5303
508 1 0.7913 7.1217 26.1129
509 1 2.3739 8.7043 27.6955
510 1 0.7913 7.1217 29.2781
511 1 2.3739 8.7043 30.8607
512 1 0.7913 7.1217 32.4433
513 1 2.3739 8.7043 34.0259
514 1 0.7913 7.1217 35.6085
515 1 2.3739 8.7043 37.1911
516 1 0.7913 7.1217 38.7737
517 1 2.3739 8.7043 40.3563
518 1 0.7913 7.1217 41.9389
519 1 2.3739 8.7043 43.5215
520 1 0.7913 7.1217 45.1041
521 1 2.3739 8.7043 46.6867
522 1 0.7913 7.1217 48.2693
523 1 2.3739 8.7043 49.8519
524 1 0.7913 10.2869 0.7913
525 1 2.3739 11.8695 2.3739
526 1 0.7913 10.2869 3.9565
527 1 2.3739 11.8695 5.5391
528 1 0.7913 10.2869 7.1217
529 1 2.3739 11.8695 8.7043
530 1 0.7913 10.2869 10.2869
531 1 2.3739 11.8695 11.8695
532 1 0.7913 10.2869 13.4521
533 1 2.3739 11.8695 15.0347
534 1 0.7913 10.2869 16.6173
535 1 2.3739 11.8695 18.1999
536 1 0.7913 10.2869 19.7825
537 1 2.3739 11.8695 21.3651
538 1 0.7913 10.2869 22.9477
539 1 2.3739 11.8695 24.5303
540 1 0.7913 10.2869 26.1129
541 1 2.3739 11.8695 27.6955
542 1 0.7913 10.2869 29.2781
543 1 2.3739 11.8695 30.8607
544 1 0.7913 10.2869 32.4433
545 1 2.3739 11.8695 34.0259
546 1 0.7913 10.2869 35.6085
547 1 2.3739 11.8695 37.1911
548 1 0.7913 10.2869 38.7737
549 1 2.3739 11.8695 40.3563
550 1 0.7913 10.2869 41.9389
551 1 2.3739 11.8695 43.5215
552 1 0.7913 10.2869 45.1041
553 1 2.3739 11.8695 46.6867
554 1 0.7913 10.2869 48.2693
555 1 2.3739 11.8695 49.8519
556 1 0.7913 13.4521 0.7913
557 1 2.3739 15.0347 2.3739
558 1 0.7913 13.4521 3.9565
559 1 2.3739 15.0347 5.5391
560 1 0.7913 13.4521 7.1217
561 1 2.3739 15.0347 8.7043
562 1 0.7913 13.4521 10.2869
563 1 2.3739 15.0347 11.8695
564 1 0.7913 13.4521 13.4521
565 1 2.3739 15.0347 15.0347
566 1 0.7913 13.4521 16.6173
567 1 2.3739 15.0347 18.1999
568 1 0.7913 13.4521 19.7825
569 1 2.3739 15.0347 21.3651
570 1 0.7913 13.4521 22.9477
571 1 2.3739 15.0347 24.5303
572 1 0.7913 13.4521 26.1129
573 1 2.3739 15.0347 27.6955
574 1 0.7913 13.4521 29.2781
575 1 2.3739 15.0347 30.8607
576 1 0.7913 13.4521 32.4433
577 1 2.3739 15.0347 34.0259
578 1 0.7913 13.4521 35.6085
579 1 2.3739 15.0347 37.1911
580 1 0.7913 13.4521 38.7737
581 1 2.3739 15.0347 40.3563
582 1 0.7913 13.4521 41.9389
583 1 2.3739 15.0347 43.5215
584 1 0.7913 13.4521 45.1041
585 1 2.3739 15.0347 46.6867
586 1 0.7913 13.4521 48.2693
587 1 2.3739 15.0347 49.8519
588 1 0.7913 16.6173 0.7913
589 1 2.3739 18.1999 2.3739
590 1 0.7913 16.6173 3.9565
591 1 2.3739 18.1999 5.5391
592 1 0.7913 16.6173 7.1217
593 1 2.3739 18.1999 8.7043
594 1 0.7913 16.6173 10.2869
595 1 2.3739 18.1999 11.8695
596 1 0.7913 16.6173 13.4521
597 1 2.3739 18.1999 15.0347
598 1 0.7913 16.6173 16.6173
599 1 2.3739 18.1999 18.1999
600 1 0.7913 16.6173 19.7825
601 1 2.3739 18.1999 21.3651
602 1 0.7913 16.6173 22.9477
603 1 2.3739 18.1999 24.5303
604 1 0.7913 16.6173 26.1129
605 1 2.3739 18.1999 27.6955
606 1 0.7913 16.6173 29.2781
607 1 2.3739 18.1999 30.8607
608 1 0.7913 16.6173 32.4433
609 1 2.3739 18.1999 34.0259
610 1 0.7913 16.6173 35.6085
611 1 2.3739 18.1999 37.1911
612 1 0.7913 16.6173 38.7737
613 1 2.3739 18.1999 40.3563
614 1 0.7913 16.6173 41.9389
615 1 2.3739 18.1999 43.5215
616 1 0.7913 16.6173 45.1041
617 1 2.3739 18.1999 46.6867
618 1 0.7913 16.6173 48.2693
619 1 2.3739 18.1999 49.8519
620 1 0.7913 19.7825 0.7913
621 1 2.3739 21.3651 2.3739
622 1 0.7913 19.7825 3.9565
623 1 2.3739 21.3651 5.5391
624 1 0.7913 19.7825 7.1217
625 1 2.3739 21.3651 8.7043
626 1 0.7913 19.7825 10.2869
627 1 2.3739 21.3651 11.8695
628 1 0.7913 19.7825 13.4521
629 1 2.3739 21.3651 15.0347
630 1 0.7913 19.7825 16.6173
631 1 2.3739 21.3651 18.1999
632 1 0.7913 19.7825 19.7825
633 1 2.3739 21.3651 21.3651
634 1 0.7913 19.7825 22.9477
635 1 2.3739 21.3651 24.5303
636 1 0.7913 19.7825 26.1129
637 1 2.3739 21.3651 27.6955
638 1 0.7913 19.7825 29.2781
639 1 2.3739 21.3651 30.8607
640 1 0.7913 19.7825 32.4433
641 1 2.3739 21.3651 34.0259
642 1 0.7913 19.7825 35.6085
643 1 2.3739 21.3651 37.1911
644 1 0.7913 19.7825 38.7737
645 1 2.3739 21.3651 40.3563
646 1 0.7913 19.7825 41.9389
647 1 2.3739 21.3651 43.5215
648 1 0.7913 19.7825 45.1041
649 1 2.3739 21.3651 46.6867
650 1 0.7913 19.7825 48.2693
651 1 2.3739 21.3651 49.8519
652 1 0.7913 22.9477 0.7913
653 1 2.3739 24.5303 2.3739
654 1 0.7913 22.9477 3.9565
655 1 2.3739 24.5303 5.5391
656 1 0.7913 22.9477 7.1217
657 1 2.3739 24.5303 8.7043
658 1 0.7913 22.9477 10.2869
659 1 2.3739 24.5303 11.8695
660 1 0.7913 22.9477 13.4521
661 1 2.3739 24.5303 15.0347
662 1 0.7913 22.9477 16.6173
663 1 2.3739 24.5303 18.1999
664 1 0.7913 22.9477 19.7825
665 1 2.3739 24.5303 21.3651
666 1 0.7913 22.9477 22.9477
667 1 2.3739 24.5303 24.5303
668 1 0.7913 22.9477 26.1129
669 1 2.3739 24.5303 27.6955
670 1 0.7913 22.9477 29.2781
671 1 2.3739 24.5303 30.8607
672 1 0.7913 22.9477 32.4433
673 1 2.3739 24.5303 34.0259
674 1 0.7913 22.9477 35.6085
675 1 2.3739 24.5303 37.1911
676 1 0.7913 22.9477 38.7737
677 1 2.3739 24.5303 40.3563
678 1 0.7913 22.9477 41.9389
679 1 2.3739 24.5303 43.5215
680 1 0.7913 22.9477 45.1041
681 1 2.3739 24.5303 46.6867
682 1 0.7913 22.9477 48.2693
683 1 2.3739 24.5303 49.8519
684 1 0.7913 26.1129 0.7913
685 1 2.3739 27.6955 2.3739
686 1 0.7913 26.1129 3.9565
687 1 2.3739 27.6955 5.5391
688 1 0.7913 26.1129 7.1217
689 1 2.3739 27.6955 8.7043
690 1 0.7913 26.1129 10.2869
691 1 2.3739 27.6955 11.8695
692 1 0.7913 26.1129 13.4521
693 1 2.3739 27.6955 15.0347
694 1 0.7913 26.1129 16.6173
695 1 2.3739 27.6955 18.1999
696 1 0.7913 26.1129 19.7825
697 1 2.3739 27.6955 21.3651
698 1 0.7913 26.1129 22.9477
699 1 2.3739 27.6955 24.5303
700 1 0.7913 26.1129 26.1129
701 1 2.3739 27.6955 27.6955
702 1 0.7913 26.1129 29.2781
703 1 2.3739 27.6955 30.8607
704 1 0.7913 26.1129 32.4433
705 1 2.3739 27.6955 34.0259
706 1 0.7913 26.1129 35.6085
707 1 2.3739 27.6955 37.1911
708 1 0.7913 26.1129 38.7737
709 1 2.3739 27.6955 40.3563
710 1 0.7913 26.1129 41.9389
711 1 2.3739 27.6955 43.5215
712 1 0.7913 26.1129 45.1041
713 1 2.3739 27.6955 46.6867
714 1 0.7913 26.1129 48.2693
715 1 2.3739 27.6955 49.8519
716 1 0.7913 29.2781 0.7913
717 1 2.3739 30.8607 2.3739
718 1 0.7913 29.2781 3.9565
719 1 2.3739 30.8607 5.5391
720 1 0.7913 29.2781 7.1217
721 1 2.3739 30.8607 8.7043
722 1 0.7913 29.2781 10.2869
723 1 2.3739 30.8607 11.8695
724 1 0.7913 29.2781 13.4521
725 1 2.3739 30.8607 15.0347
726 1 0.7913 29.2781 16.6173
727 1 2.3739 30.8607 18.1999
728 1 0.7913 29.2781 19.7825
729 1 2.3739 30.8607 21.3651
730 1 0.7913 29.2781 22.9477
731 1 2.3739 30.8607 24.5303
732 1 0.7913 29.2781 26.1129
733 1 2.3739 30.8607 27.6955
734 1 0.7913 29.2781 29.2781
735 1 2.3739 30.8607 30.8607
736 1 0.7913 29.2781 32.4433
737 1 2.3739 30.8607 34.0259
738 1 0.7913 29.2781 35.6085
739 1 2.3739 30.8607 37.1911
740 1 0.7913 29.2781 38.7737
741 1 2.3739 30.8607 40.3563
742 1 0.7913 29.2781 41.9389
743 1 2.3739 30.8607 43.5215
744 1 0.7913 29.2781 45.1041
745 1 2.3739 30.8607 46.6867
746 1 0.7913 29.2781 48.2693
747 1 2.3739 30.8607 49.8519
748 1 0.7913 32.4433 0.7913
749 1 2.3739 34.0259 2.3739
750 1 0.7913 32.4433 3.9565
751 1 2.3739 34.0259 5.5391
752 1 0.7913 32.4433 7.1217
753 1 2.3739 34.0259 8.7043
754 1 0.7913 32.4433 10.2869
755 1 2.3739 34.0259 11.8695
756 1 0.7913 32.4433 13.4521
757 1 2.3739 34.0259 15.0347
758 1 0.7913 32.4433 16.6173
759 1 2.3739 34.0259 18.1999
760 1 0.7913 32.4433 19.7825
761 1 2.3739 34.0259 21.3651
762 1 0.7913 32.4433 22.9477
763 1 2.3739 34.0259 24.5303
764 1 0.7913 32.4433 26.1129
765 1 2.3739 34.0259 27.6955
766 1 0.7913 32.4433 29.2781
767 1 2.3739 34.0259 30.8607
768 1 0.7913 32.4433 32.4433
769 1 2.3739 34.0259 34.0259
770 1 0.7913 32.4433 35.6085
771 1 2.3739 34.0259 37.1911
772 1 0.7913 32.4433 38.7737
773 1 2.3739 34.0259 40.3563
774 1 0.7913 32.4433 41.9389
775 1 2.3739 34.0259 43.5215
776 1 0.7913 32.4433 45.1041
777 1 2.3739 34.0259 46.6867
778 1 0.7913 32.4433 48.2693
779 1 2.3739 34.0259 49.8519
780 1 0.7913 35.6085 0.7913
781 1 2.3739 37.1911 2.3739
782 1 0.7913 35.6085 3.9565
783 1 2.3739 37.1911 5.5391
784 1 0.7913 35.6085 7.1217
785 1 2.3739 37.1911 8.7043
786 1 0.7913 35.6085 10.2869
787 1 2.3739 37.1911 11.8695
788 1 0.7913 35.6085 13.4521
789 1 2.3739 37.1911 15.0347
790 1 0.7913 35.6085 16.6173
791 1 2.3739 37.1911 18.1999
792 1 0.7913 35.6085 19.7825
793 1 2.3739 37.1911 21.3651
794 1 0.7913 35.6085 22.9477
795 1 2.3739 37.1911 24.5303
796 1 0.7913 35.6085 26.1129
797 1 2.3739 37.1911 27.6955
798 1 0.7913 35.6085 29.2781
799 1 2.3739 37.1911 30.8607
800 1 0.7913 35.6085 32.4433
801 1 2.3739 37.1911 34.0259
802 1 0.7913 35.6085 35.6085
803 1 2.3739 37.1911 37.1911
804 1 0.7913 35.6085 38.7737
805 1 2.3739 37.1911 40.3563
806 1 0.7913 35.6085 41.9389
807 1 2.3739 37.1911 43.5215
808 1 0.7913 35.6085 45.1041
809 1 2.3739 37.1911 46.6867
810 1 0.7913 35.6085 48.2693
811 1 2.3739 37.1911 49.8519
812 1 0.7913 38.7737 0.7913
813 1 2.3739 40.3563 2.3739
814 1 0.7913 38.7737 3.9565
815 1 2.3739 40.3563 5.5391
816 1 0.7913 38.7737 7.1217
817 1 2.3739 40.3563 8.7043
818 1 0.7913 38.7737 10.2869
819 1 2.3739 40.3563 11.8695
820 1 0.7913 38.7737 13.4521
821 1 2.3739 40.3563 15.0347
822 1 0.7913 38.7737 16.6173
823 1 2.3739 40.3563 18.1999
824 1 0.7913 38.7737 19.7825
825 1 2.3739 40.3563 21.3651
826 1 0.7913 38.7737 22.9477
827 1 2.3739 40.3563 24.5303
828 1 0.7913 38.7737 26.1129
829 1 2.3739 40.3563 27.6955
830 1 0.7913 38.7737 29.2781
831 1 2.3739 40.3563 30.8607
832 1 0.7913 38.7737 32.4433
833 1 2.3739 40.3563 34.0259
834 1 0.7913 38.7737 35.6085
835 1 2.3739 40.3563 37.1911
836 1 0.7913 38.7737 38.7737
837 1 2.3739 40.3563 40.3563
838 1 0.7913 38.7737 41.9389
839 1 2.3739 40.3563 43.5215
840 1 0.7913 38.7737 45.1041
841 1 2.3739 40.3563 46.6867
842 1 0.7913 38.7737 48.2693
843 1 2.3739 40.3563 49.8519
844 1 0.7913 41.9389 0.7913
845 1 2.3739 43.5215 2.3739
846 1 0.7913 41.9389 3.9565
847 1 2.3739 43.5215 5.5391
848 1 0.7913 41.9389 7.1217
849 1 2.3739 43.5215 8.7043
850 1 0.7913 41.9389 10.2869
851 1 2.3739 43.5215 11.8695
852 1 0.7913 41.9389 13.4521
853 1 2.3739 43.5215 15.0347
854 1 0.7913 41.9389 16.6173
855 1 2.3739 43.5215 18.1999
856 1 0.7913 41.9389 19.7825
857 1 2.3739 43.5215 21.3651
858 1 0.7913 41.9389 22.9477
859 1 2.3739 43.5215 24.5303
860 1 0.7913 41.9389 26.1129
861 1 2.3739 43.5215 27.6955
862 1 0.7913 41.9389 29.2781
863 1 2.3739 43.5215 30.8607
864 1 0.7913 41.9389 32.4433
865 1 2.3739 43.5215 34.0259
866 1 0.7913 41.9389 35.6085
867 1 2.3739 43.5215 37.1911
868 1 0.7913 41.9389 38.7737
869 1 2.3739 43.5215 40.3563
870 1 0.7913 41.9389 41.9389
871 1 2.3739 43.5215 43.5215
872 1 0.7913 41.9389 45.1041
873 1 2.3739 43.5215 46.6867
874 1 0.7913 41.9389 48.2693
875 1 2.3739 43.5215 49.8519
876 1 0.7913 45.1041 0.7913
877 1 2.3739 46.6867 2.3739
878 1 0.7913 45.1041 3.9565
879 1 2.3739 46.6867 5.5391
880 1 0.7913 45.1041 7.1217
881 1 2.3739 46.6867 8.7043
882 1 0.7913 45.1041 10.2869
883 1 2.3739 46.6867 11.8695
884 1 0.7913 45.1041 13.4521
885 1 2.3739 46.6867 15.0347
886 1 0.7913 45.1041 16.6173
887 1 2.3739 46.6867 18.1999
888 1 0.7913 45.1041 19.7825
889 1 2.3739 46.6867 21.3651
890 1 0.7913 45.1041 22.9477
891 1 2.3739 46.6867 24.5303
892 1 0.7913 45.1041 26.1129
893 1 2.3739 46.6867 27.6955
894 1 0.7913 45.1041 29.2781
895 1 2.3739 46.6867 30.8607
896 1 0.7913 45.1041 32.4433
897 1 2.3739 46.6867 34.0259
898 1 0.7913 45.1041 35.6085
899 1 2.3739 46.6867 37.1911
900 1 0.7913 45.1041 38.7737
901 1 2.3739 46.6867 40.3563
902 1 0.7913 45.1041 41.9389
903 1 2.3739 46.6867 43.5215
904 1 0.7913 45.1041 45.1041
905 1 2.3739 46.6867 46.6867
906 1 0.7913 45.1041 48.2693
907 1 2.3739 46.6867 49.8519
908 1 0.7913 48.2693 0.7913
909 1 2.3739 49.8519 2.3739
910 1 0.7913 48.2693 3.9565
911 1 2.3739 49.8519 5.5391
912 1 0.7913 48.2693 7.1217
913 1 2.3739 49.8519 8.7043
914 1 0.7913 48.2693 10.2869
915 1 2.3739 49.8519 11.8695
916 1 0.7913 48.2693 13.4521
917 1 2.3739 49.8519 15.0347
918 1 0.7913 48.2693 16.6173
919 1 2.3739 49.8519 18.1999
920 1 0.7913 48.2693 19.7825
921 1 2.3739 49.8519 21.3651
922 1 0.7913 48.2693 22.9477
923 1 2.3739 49.8519 24.5303
924 1 0.7913 48.2693 26.1129
925 1 2.3739 49.8519 27.6955
926 1 0.7913 48.2693 29.2781
927 1 2.3739 49.8519 30.8607
928 1 0.7913 48.2693 32.4433
929 1 2.3739 49.8519 34.0259
930 1 0.7913 48.2693 35.6085
931 1 2.3739 49.8519 37.1911
932 1 0.7913 48.2693 38.7737
933 1 2.3739 49.8519 40.3563
934 1 0.7913 48.2693 41.9389
935 1 2.3739 49.8519 43.5215
936 1 0.7913 48.2693 45.1041
937 1 2.3739 49.8519 46.6867
938 1 0.7913 48.2693 48.2693
939 1 2.3739 49.8519 49.8519
940 1 3.9565 0.7913 0.7913
941 1 5.5391 2.3739 2.3739
942 1 3.9565 0.7913 3.9565
943 1 5.5391 2.3739 5.5391
944 1 3.9565 0.7913 7.1217
945 1 5.5391 2.3739 8.7043
946 1 3.9565 0.7913 10.2869
947 1 5.5391 2.3739 11.8695
948 1 3.9565 0.7913 13.4521
949 1 5.5391 2.3739 15.0347
950 1 3.9565 0.7913 16.6173
951 1 5.5391 2.3739 18.1999
952 1 3.9565 0.7913 19.7825
953 1 5.5391 2.3739 21.3651
954 1 3.9565 0.7913 22.9477
955 1 5.5391 2.3739 24.5303
956 1 3.9565 0.7913 26.1129
957 1 5.5391 2.3739 27.6955
958 1 3.9565 0.7913 29.2781
959 1 5.5391 2.3739 30.8607
960 1 3.9565 0.7913 32.4433
961 1 5.5391 2.3739 34.0259
962 1 3.9565 0.7913 35.6085
963 1 5.5391 2.3739 37.1911
964 1 3.9565 0.7913 38.7737
965 1 5.5391 2.3739 40.3563
966 1 3.9565 0.7913 41.9389
967 1 5.5391 2.3739 43.5215
968 1 3.9565 0.7913 45.1041
969 1 5.5391 2.3739 46.6867
970 1 3.9565 0.7913 48.2693
971 1 5.5391 2.3739 49.8519
972 1 3.9565 3.9565 0.7913
973 1 5.5391 5.5391 2.3739
974 1 3.9565 3.9565 3.9565
975 1 5.5391 5.5391 5.5391
976 1 3.9565 3.9565 7.1217
977 1 5.5391 5.5391 8.7043
978 1 3.9565 3.9565 10.2869
979 1 5.5391 5.5391 11.8695
980 1 3.9565 3.9565 13.4521
981 1 5.5391 5.5391 15.0347
982 1 3.9565 3.9565 16.6173
983 1 5.5391 5.5391 18.1999
984 1 3.9565 3.9565 19.7825
985 1 5.5391 5.5391 21.3651
986 1 3.9565 3.9565 22.9477
987 1 5.5391 5.5391 24.5303
988 1 3.9565 3.9565 26.1129
989 1 5.5391 5.5391 27.6955
990 1 3.9565 3.9565 29.2781
991 1 5.5391 5.5391 30.8607
992 1 3.9565 3.9565 32.4433
993 1 5.5391 5.5391 34.0259
994 1 3.9565 3.9565 35.6085
995 1 5.5391 5.5391 37.1911
996 1 3.9565 3.9565 38.7737
997 1 5.5391 5.5391 40.3563
998 1 3.9565 3.9565 41.9389
999 1 5.5391 5.5391 43.5215
1000 1 3.9565 3.9565 45.1041
1001 1 5.5391 5.5391 46.6867
1002 1 3.9565 3.9565 48.2693
1003 1 5.5391 5.5391 49.8519
1004 1 3.9565 7.1217 0.7913
1005 1 5.5391 8.7043 2.3739
1006 1 3.9565 7.1217 3.9565
1007 1 5.5391 8.7043 5.5391
1008 1 3.9565 7.1217 7.1217
1009 1 5.5391 8.7043 8.7043
1010 1 3.9565 7.1217 10.2869
1011 1 5.5391 8.7043 11.8695
1012 1 3.9565 7.1217 13.4521
1013 1 5.5391 8.7043 15.0347
1014 1 3.9565 7.1217 16.6173
1015 1 5.5391 8.7043 18.1999
1016 1 3.9565 7.1217 19.7825
1017 1 5.5391 8.7043 21.3651
1018 1 3.9565 7.1217 22.9477
1019 1 5.5391 8.7043 24.5303
1020 1 3.9565 7.1217 26.1129
1021 1 5.5391 8.7043 27.6955
1022 1 3.9565 7.1217 29.2781
1023 1 5.5391 8.7043 30.8607
1024 1 3.9565 7.1217 32.4433
1025 1 5.5391 8.7043 34.0259
1026 1 3.9565 7.1217 35.6085
1027 1 5.5391 8.7043 37.1911
1028 1 3.9565 7.1217 38.7737
1029 1 5.5391 8.7043 40.3563
1030 1 3.9565 7.1217 41.9389
1031 1 5.5391 8.7043 43.5215
1032 1 3.9565 7.1217 45.1041
1033 1 5.5391 8.7043 46.6867
1034 1 3.9565 7.1217 48.2693
1035 1 5.5391 8.7043 49.8519
1036 1 3.9565 10.2869 0.7913
1037 1 5.5391 11.8695 2.3739
1038 1 3.9565 10.2869 3.9565
1039 1 5.5391 11.8695 5.5391
1040 1 3.9565 10.2869 7.1217
1041 1 5.5391 11.8695 8.7043
1042 1 3.9565 10.2869 10.2869
1043 1 5.5391 11.8695 11.8695
1044 1 3.9565 10.2869 13.4521
1045 1 5.5391 11.8695 15.0347
1046 1 3.9565 10.2869 16.6173
1047 1 5.5391 11.8695 18.1999
1048 1 3.9565 10.2869 19.7825
1049 1 5.5391 11.8695 21.3651
1050 1 3.9565 10.2869 22.9477
1051 1 5.5391 11.8695 24.5303
1052 1 3.9565 10.2869 26.1129
1053 1 5.5391 11.8695 27.6955
1054 1 3.9565 10.2869 29.2781
1055 1 5.5391 11.8695 30.8607
1056 1 3.9565 10.2869 32.4433
1057 1 5.5391 11.8695 34.0259
1058 1 3.9565 10.2869 35.6085
1059 1 5.5391 11.8695 37.1911
1060 1 3.9565 10.2869 38.7737
1061 1 5.5391 11.8695 40.3563
1062 1 3.9565 10.2869 41.9389
1063 1 5.5391 11.8695 43.5215
1064 1 3.9565 10.2869 45.1041
1065 1 5.5391 11.8695 46.6867
1066 1 3.9565 10.2869 48.2693
1067 1 5.5391 11.8695 49.8519
1068 1 3.9565 13.4521 0.7913
1069 1 5.5391 15.0347 2.3739
1070 1 3.9565 13.4521 3.9565
1071 1 5.5391 15.0347 5.5391
1072 1 3.9565 13.4521 7.1217
1073 1 5.5391 15.0347 8.7043
1074 1 3.9565 13.4521 10.2869
1075 1 5.5391 15.0347 11.8695
1076 1 3.9565 13.4521 13.4521
1077 1 5.5391 15.0347 15.0347
1078 1 3.9565 13.4521 16.6173
1079 1 5.5391 15.0347 18.1999
1080 1 3.9565 13.4521 19.7825
1081 1 5.5391 15.0347 21.3651
1082 1 3.9565 13.4521 22.9477
1083 1 5.5391 15.0347 24.5303
1084 1 3.9565 13.4521 26.1129
1085 1 5.5391 15.0347 27.6955
1086 1 3.9565 13.4521 29.2781
1087 1 5.5391 15.0347 30.8607
1088 1 3.9565 13.4521 32.4433
1089 1 5.5391 15.0347 34.0259
1090 1 3.9565 13.4521 35.6085
1091 1 5.5391 15.0347 37.1911
1092 1 3.9565 13.4521 38.7737
1093 1 5.5391 15.0347 40.3563
1094 1 3.9565 13.4521 41.9389
1095 1 5.5391 15.0347 43.5215
1096 1 3.9565 13.4521 45.1041
1097 1 5.5391 15.0347 46.6867
1098 1 3.9565 13.4521 48.2693
1099 1 5.5391 15.0347 49.8519
1100 1 3.9565 16.6173 0.7913
1101 1 5.5391 18.1999 2.3739
1102 1 3.9565 16.6173 3.9565
1103 1 5.5391 18.1999 5.5391
1104 1 3.9565 16.6173 7.1217
1105 1 5.5391 18.1999 8.7043
1106 1 3.9565 16.6173 10.2869
1107 1 5.5391 18.1999 11.8695
1108 1 3.9565 16.6173 13.4521
1109 1 5.5391 18.1999 15.0347
1110 1 3.9565 16.6173 16.6173
1111 1 5.5391 18.1999 18.1999
1112 1 3.9565 16.6173 19.7825
1113 1 5.5391 18.1999 21.3651
1114 1 3.9565 16.6173 22.9477
1115 1 5.5391 18.1999 24.5303
1116 1 3.9565 16.6173 26.1129
1117 1 5.5391 18.1999 27.6955
1118 1 3.9565 16.6173 29.2781
1119 1 5.5391 18.1999 30.8607
1120 1 3.9565 16.6173 32.4433
1121 1 5.5391 18.1999 34.0259
1122 1 3.9565 16.6173 35.6085
1123 1 5.5391 18.1999 37.1911
1124 1 3.9565 16.6173 38.7737
1125 1 5.5391 18.1999 40.3563
1126 1 3.9565 16.6173 41.9389
1127 1 5.5391 18.1999 43.5215
1128 1 3.9565 16.6173 45.1041
1129 1 5.5391 18.1999 46.6867
1130 1 3.9565 16.6173 48.2693
1131 1 5.5391 18.1999 49.8519
1132 1 3.9565 19.7825 0.7913
1133 1 5.5391 21.3651 2.3739
1134 1 3.9565 19.7825 3.9565
1135 1 5.5391 21.3651 5.5391
1136 1 3.9565 19.7825 7.1217
1137 1 5.5391 21.3651 8.7043
1138 1 3.9565 19.7825 10.2869
1139 1 5.5391 21.3651 11.8695
1140 1 3.9565 19.7825 13.4521
1141 1 5.5391 21.3651 15.0347
1142 1 3.9565 19.7825 16.6173
1143 1 5.5391 21.3651 18.1999
1144 1 3.9565 19.7825 19.7825
1145 1 5.5391 21.3651 21.3651
1146 1 3.9565 19.7825 22.9477
1147 1 5.5391 21.3651 24.5303
1148 1 3.9565 19.7825 26.1129
1149 1 5.5391 21.3651 27.6955
1150 1 3.9565 19.7825 29.2781
1151 1 5.5391 21.3651 30.8607
1152 1 3.9565 19.7825 32.4433
1153 1 5.5391 21.3651 34.0259
1154 1 3.9565 19.7825 35.6085
1155 1 5.5391 21.3651 37.1911
1156 1 3.9565 19.7825 38.7737
1157 1 5.5391 21.3651 40.3563
1158 1 3.9565 19.7825 41.9389
1159 1 5.5391 21.3651 43.5215
1160 1 3.9565 19.7825 45.1041
1161 1 5.5391 21.3651 46.6867
1162 1 3.9565 19.7825 48.2693
1163 1 5.5391 21.3651 49.8519
1164 1 3.9565 22.9477 0.7913
1165 1 5.5391 24.5303 2.3739
1166 1 3.9565 22.9477 3.9565
1167 1 5.5391 24.5303 5.5391
1168 1 3.9565 22.9477 7.1217
1169 1 5.5391 24.5303 8.7043
1170 1 3.9565 22.9477 10.2869
1171 1 5.5391 24.5303 11.8695
1172 1 3.9565 22.9477 13.4521
1173 1 5.5391 24.5303 15.0347
1174 1 3.9565 22.9477 16.6173
1175 1 5.5391 24.5303 18.1999
1176 1 3.9565 22.9477 19.7825
1177 1 5.5391 24.5303 21.3651
1178 1 3.9565 22.9477 22.9477
1179 1 5.5391 24.5303 24.5303
1180 1 3.9565 22.9477 26.1129
1181 1 5.5391 24.5303 27.6955
1182 1 3.9565 22.9477 29.2781
1183 1 5.5391 24.5303 30.8607
1184 1 3.9565 22.9477 32.4433
1185 1 5.5391 24.5303 34.0259
1186 1 3.9565 22.9477 35.6085
1187 1 5.5391 24.5303 37.1911
1188 1 3.9565 22.9477 38.7737
1189 1 5.5391 24.5303 40.3563
1190 1 3.9565 22.9477 41.9389
1191 1 5.5391 24.5303 43.5215
1192 1 3.9565 22.9477 45.1041
1193 1 5.5391 24.5303 46.6867
1194 1 3.9565 22.9477 48.2693
1195 1 5.5391 24.5303 49.8519
1196 1 3.9565 26.1129 0.7913
1197 1 5.5391 27.6955 2.3739
1198 1 3.9565 26.1129 3.9565
1199 1 5.5391 27.6955 5.5391
1200 1 3.9565 26.1129 7.1217
1201 1 5.5391 27.6955 8.7043
1202 1 3.9565 26.1129 10.2869
1203 1 5.5391 27.6955 11.8695
1204 1 3.9565 26.1129 13.4521
1205 1 5.5391 27.6955 15.0347
1206 1 3.9565 26.1129 16.6173
1207 1 5.5391 27.6955 18.1999
1208 1 3.9565 26.1129 19.7825
1209 1 5.5391 27.6955 21.3651
1210 1 3.9565 26.1129 22.9477
1211 1 5.5391 27.6955 24.5303
1212 1 3.9565 26.1129 26.1129
1213 1 5.5391 27.6955 27.6955
1214 1 3.9565 26.1129 29.2781
1215 1 5.5391 27.6955 30.8607
1216 1 3.9565 26.1129 32.4433
1217 1 5.5391 27.6955 34.0259
1218 1 3.9565 26.1129 35.6085
1219 1 5.5391 27.6955 37.1911
1220 1 3.9565 26.1129 38.7737
1221 1 5.5391 27.6955 40.3563
1222 1 3.9565 26.1129 41.9389
1223 1 5.5391 27.6955 43.5215
1224 1 3.9565 26.1129 45.1041
1225 1 5.5391 27.6955 46.6867
1226 1 3.9565 26.1129 48.2693
1227 1 5.5391 27.6955 49.8519
1228 1 3.9565 29.2781 0.7913
1229 1 5.5391 30.8607 2.3739
1230 1 3.9565 29.2781 3.9565
1231 1 5.5391 30.8607 5.5391
1232 1 3.9565 29.2781 7.1217
1233 1 5.5391 30.8607 8.7043
1234 1 3.9565 29.2781 10.2869
1235 1 5.5391 30.8607 11.8695
1236 1 3.9565 29.2781 13.4521
1237 1 5.5391 30.8607 15.0347
1238 1 3.9565 29.2781 16.6173
1239 1 5.5391 30.8607 18.1999
1240 1 3.9565 29.2781 19.7825
1241 1 5.5391 30.8607 21.3651
1242 1 3.9565 29.2781 22.9477
1243 1 5.5391 30.8607 24.5303
1244 1 3.9565 29.2781 26.1129
1245 1 5.5391 30.8607 27.6955
1246 1 3.9565 29.2781 29.2781
1247 1 5.5391 30.8607 30.8607
1248 1 3.9565 29.2781 32.4433
1249 1 5.5391 30.8607 34.0259
1250 1 3.9565 29.2781 35.6085
1251 1 5.5391 30.8607 37.1911
1252 1 3.9565 29.2781 38.7737
1253 1 5.5391 30.8607 40.3563
1254 1 3.9565 29.2781 41.9389
1255 1 5.5391 30.8607 43.5215
1256 1 3.9565 29.2781 45.1041
1257 1 5.5391 30.8607 46.6867
1258 1 3.9565 29.2781 48.2693
1259 1 5.5391 30.8607 49.8519
1260 1 3.9565 32.4433 0.7913
1261 1 5.5391 34.0259 2.3739
1262 1 3.9565 32.4433 3.9565
1263 1 5.5391 34.0259 5.5391
1264 1 3.9565 32.4433 7.1217
1265 1 5.5391 34.0259 8.7043
1266 1 3.9565 32.4433 10.2869
1267 1 5.5391 34.0259 11.8695
1268 1 3.9565 32.4433 13.4521
1269 1 5.5391 34.0259 15.0347
1270 1 3.9565 32.4433 16.6173
1271 1 5.5391 34.0259 18.1999
1272 1 3.9565 32.4433 19.7825
1273 1 5.5391 34.0259 21.3651
1274 1 3.9565 32.4433 22.9477
1275 1 5.5391 34.0259 24.5303
1276 1 3.9565 32.4433 26.1129
1277 1 5.5391 34.0259 27.6955
1278 1 3.9565 32.4433 29.2781
1279 1 5.5391 34.0259 30.8607
1280 1 3.9565 32.4433 32.4433
1281 1 5.5391 34.0259 34.0259
1282 1 3.9565 32.4433 35.6085
1283 1 5.5391 34.0259 37.1911
1284 1 3.9565 32.4433 38.7737
1285 1 5.5391 34.0259 40.3563
1286 1 3.9565 32.4433 41.9389
1287 1 5.5391 34.0259 43.5215
1288 1 3.9565 32.4433 45.1041
1289 1 5.5391 34.0259 46.6867
1290 1 3.9565 32.4433 48.2693
1291 1 5.5391 34.0259 49.8519
1292 1 3.9565 35.6085 0.7913
1293 1 5.5391 37.1911 2.3739
1294 1 3.9565 35.6085 3.9565
1295 1 5.5391 37.1911 5.5391
1296 1 3.9565 35.6085 7.1217
1297 1 5.5391 37.1911 8.7043
1298 1 3.9565 35.6085 10.2869
1299 1 5.5391 37.1911 11.8695
1300 1 3.9565 35.6085 13.4521
1301 1 5.5391 37.1911 15.0347
1302 1 3.9565 35.6085 16.6173
1303 1 5.5391 37.1911 18.1999
1304 1 3.9565 35.6085 19.7825
1305 1 5.5391 37.1911 21.3651
1306 1 3.9565 35.6085 22.9477
1307 1 5.5391 37.1911 24.5303
1308 1 3.9565 35.6085 26.1129
1309 1 5.5391 37.1911 27.6955
1310 1 3.9565 35.6085 29.2781
1311 1 5.5391 37.1911 30.8607
1312 1 3.9565 35.6085 32.4433
1313 1 5.5391 37.1911 34.0259
1314 1 3.9565 35.6085 35.6085
1315 1 5.5391 37.1911 37.1911
1316 1 3.9565 35.6085 38.7737
1317 1 5.5391 37.1911 40.3563
1318 1 3.9565 35.6085 41.9389
1319 1 5.5391 37.1911 43.5215
1320 1 3.9565 35.6085 45.1041
1321 1 5.5391 37.1911 46.6867
1322 1 3.9565 35.6085 48.2693
1323 1 5.5391 37.1911 49.8519
1324 1 3.9565 38.7737 0.7913
1325 1 5.5391 40.3563 2.3739
1326 1 3.9565 38.7737 3.9565
1327 1 5.5391 40.3563 5.5391
1328 1 3.9565 38.7737 7.1217
1329 1 5.5391 40.3563 8.7043
1330 1 3.9565 38.7737 10.2869
1331 1 5.5391 40.3563 11.8695
1332 1 3.9565 38.7737 13.4521
1333 1 5.5391 40.3563 15.0347
1334 1 3.9565 38.7737 16.6173
1335 1 5.5391 40.3563 18.1999
1336 1 3.9565 38.7737 19.7825
1337 1 5.5391 40.3563 21.3651
1338 1 3.9565 38.7737 22.9477
1339 1 5.5391 40.3563 24.5303
1340 1 3.9565 38.7737 26.1129
1341 1 5.5391 40.3563 27.6955
1342 1 3.9565 38.7737 29.2781
1343 1 5.5391 40.3563 30.8607
1344 1 3.9565 38.7737 32.4433
1345 1 5.5391 40.3563 34.0259
1346 1 3.9565 38.7737 35.6085
1347 1 5.5391 40.3563 37.1911
1348 1 3.9565 38.7737 38.7737
1349 1 5.5391 40.3563 40.3563
1350 1 3.9565 38.7737 41.9389
1351 1 5.5391 40.3563 43.5215
1352 1 3.9565 38.7737 45.1041
1353 1 5.5391 40.3563 46.6867
1354 1 3.9565 38.7737 48.2693
1355 1 5.5391 40.3563 49.8519
1356 1 3.9565 41.9389 0.7913
1357 1 5.5391 43.5215 2.3739
1358 1 3.9565 41.9389 3.9565
1359 1 5.5391 43.5215 5.5391
1360 1 3.9565 41.9389 7.1217
1361 1 5.5391 43.5215 8.7043
1362 1 3.9565 41.9389 10.2869
1363 1 5.5391 43.5215 11.8695
1364 1 3.9565 41.9389 13.4521
1365 1 5.5391 43.5215 15.0347
1366 1 3.9565 41.9389 16.6173
1367 1 5.5391 43.5215 18.1999
1368 1 3.9565 41.9389 19.7825
1369 1 5.5391 43.5215 21.3651
1370 1 3.9565 41.9389 22.9477
1371 1 5.5391 43.5215 24.5303
1372 1 3.9565 41.9389 26.1129
1373 1 5.5391 43.5215 27.6955
1374 1 3.9565 41.9389 29.2781
1375 1 5.5391 43.5215 30.8607
1376 1 3.9565 41.9389 32.4433
1377 1 5.5391 43.5215 34.0259
1378 1 3.9565 41.9389 35.6085
1379 1 5.5391 43.5215 37.1911
1380 1 3.9565 41.9389 38.7737
1381 1 5.5391 43.5215 40.3563
1382 1 3.9565 41.9389 41.9389
1383 1 5.5391 43.5215 43.5215
1384 1 3.9565 41.9389 45.1041
1385 1 5.5391 43.5215 46.6867
1386 1 3.9565 41.9389 48.2693
1387 1 5.5391 43.5215 49.8519
1388 1 3.9565 45.1041 0.7913
1389 1 5.5391 46.6867 2.3739
1390 1 3.9565 45.1041 3.9565
1391 1 5.5391 46.6867 5.5391
1392 1 3.9565 45.1041 7.1217
1393 1 5.5391 46.6867 8.7043
1394 1 3.9565 45.1041 10.2869
1395 1 5.5391 46.6867 11.8695
1396 1 3.9565 45.1041 13.4521
1397 1 5.5391 46.6867 15.0347
1398 1 3.9565 45.1041 16.6173
1399 1 5.5391 46.6867 18.1999
1400 1 3.9565 45.1041 19.7825
1401 1 5.5391 46.6867 21.3651
1402 1 3.9565 45.1041 22.9477
1403 1 5.5391 46.6867 24.5303
1404 1 3.9565 45.1041 26.1129
1405 1 5.5391 46.6867 27.6955
1406 1 3.9565 45.1041 29.2781
1407 1 5.5391 46.6867 30.8607
1408 1 3.9565 45.1041 32.4433
1409 1 5.5391 46.6867 34.0259
1410 1 3.9565 45.1041 35.6085
1411 1 5.5391 46.6867 37.1911
1412 1 3.9565 45.1041 38.7737
1413 1 5.5391 46.6867 40.3563
1414 1 3.9565 45.1041 41.9389
1415 1 5.5391 46.6867 43.5215
1416 1 3.9565 45.1041 45.1041
1417 1 5.5391 46.6867 46.6867
1418 1 3.9565 45.1041 48.2693
1419 1 5.5391 46.6867 49.8519
1420 1 3.9565 48.2693 0.7913
1421 1 5.5391 49.8519 2.3739
1422 1 3.9565 48.2693 3.9565
1423 1 5.5391 49.8519 5.5391
1424 1 3.9565 48.2693 7.1217
1425 1 5.5391 49.8519 8.7043
1426 1 3.9565 48.2693 10.2869
1427 1 5.5391 49.8519 11.8695
1428 1 3.9565 48.2693 13.4521
1429 1 5.5391 49.8519 15.0347
1430 1 3.9565 48.2693 16.6173
1431 1 5.5391 49.8519 18.1999
1432 1 3.9565 48.2693 19.7825
1433 1 5.5391 49.8519 21.3651
1434 1 3.9565 48.2693 22.9477
1435 1 5.5391 49.8519 24.5303
1436 1 3.9565 48.2693 26.1129
1437 1 5.5391 49.8519 27.6955
1438 1 3.9565 48.2693 29.2781
1439 1 5.5391 49.8519 30.8607
1440 1 3.9565 48.2693 32.4433
1441 1 5.5391 49.8519 34.0259
1442 1 3.9565 48.2693 35.6085
1443 1 5.5391 49.8519 37.1911
1444 1 3.9565 48.2693 38.7737
1445 1 5.5391 49.8519 40.3563
1446 1 3.9565 48.2693 41.9389
1447 1 5.5391 49.8519 43.5215
1448 1 3.9565 48.2693 45.1041
1449 1 5.5391 49.8519 46.6867
1450 1 3.9565 48.2693 48.2693
1451 1 5.5391 49.8519 49.8519
1452 1 7.1217 0.7913 0.7913
1453 1 8.7043 2.3739 2.3739
1454 1 7.1217 0.7913 3.9565
1455 1 8.7043 2.3739 5.5391
1456 1 7.1217 0.7913 7.1217
1457 1 8.7043 2.3739 8.7043
1458 1 7.1217 0.7913 10.2869
1459 1 8.7043 2.3739 11.8695
1460 1 7.1217 0.7913 13.4521
1461 1 8.7043 2.3739 15.0347
1462 1 7.1217 0.7913 16.6173
1463 1 8.7043 2.3739 18.1999
1464 1 7.1217 0.7913 19.7825
1465 1 8.7043 2.3739 21.3651
1466 1 7.1217 0.7913 22.9477
1467 1 8.7043 2.3739 24.5303
1468 1 7.1217 0.7913 26.1129
1469 1 8.7043 2.3739 27.6955
1470 1 7.1217 0.7913 29.2781
1471 1 8.7043 2.3739 30.8607
1472 1 7.1217 0.7913 32.4433
1473 1 8.7043 2.3739 34.0259
1474 1 7.1217 0.7913 35.6085
1475 1 8.7043 2.3739 37.1911
1476 1 7.1217 0.7913 38.7737
1477 1 8.7043 2.3739 40.3563
1478 1 7.1217 0.7913 41.9389
1479 1 8.7043 2.3739 43.5215
1480 1 7.1217 0.7913 45.1041
1481 1 8.7043 2.3739 46.6867
1482 1 7.1217 0.7913 48.2693
1483 1 8.7043 2.3739 49.8519
1484 1 7.1217 3.9565 0.7913
1485 1 8.7043 5.5391 2.3739
1486 1 7.1217 3.9565 3.9565
1487 1 8.7043 5.5391 5.5391
1488 1 7.1217 3.9565 7.1217
1489 1 8.7043 5.5391 8.7043
1490 1 7.1217 3.9565 10.2869
1491 1 8.7043 5.5391 11.8695
1492 1 7.1217 3.9565 13.4521
1493 1 8.7043 5.5391 15.0347
1494 1 7.1217 3.9565 16.6173
1495 1 8.7043 5.5391 18.1999
1496 1 7.1217 3.9565 19.7825
1497 1 8.7043 5.5391 21.3651
1498 1 7.1217 3.9565 22.9477
1499 1 8.7043 5.5391 24.5303
1500 1 7.1217 3.9565 26.1129
1501 1 8.7043 5.5391 27.6955
1502 1 7.1217 3.9565 29.2781
1503 1 8.7043 5.5391 30.8607
1504 1 7.1217 3.9565 32.4433
1505 1 8.7043 5.5391 34.0259
1506 1 7.1217 3.9565 35.6085
1507 1 8.7043 5.5391 37.1911
1508 1 7.1217 3.9565 38.7737
1509 1 8.7043 5.5391 40.3563
1510 1 7.1217 3.9565 41.9389
1511 1 8.7043 5.5391 43.5215
1512 1 7.1217 3.9565 45.1041
1513 1 8.7043 5.5391 46.6867
1514 1 7.1217 3.9565 48.2693
1515 1 8.7043 5.5391 49.8519
1516 1 7.1217 7.1217 0.7913
1517 1 8.7043 8.7043 2.3739
1518 1 7.1217 7.1217 3.9565
1519 1 8.7043 8.7043 5.5391
1520 1 7.1217 7.1217 7.1217
1521 1 8.7043 8.7043 8.7043
1522 1 7.1217 7.1217 10.2869
1523 1 8.7043 8.7043 11.8695
1524 1 7.1217 7.1217 13.4521
1525 1 8.7043 8.7043 15.0347
1526 1 7.1217 7.1217 16.6173
1527 1 8.7043 8.7043 18.1999
1528 1 7.1217 7.1217 19.7825
1529 1 8.7043 8.7043 21.3651
1530 1 7.1217 7.1217 22.9477
1531 1 8.7043 8.7043 24.5303
1532 1 7.1217 7.1217 26.1129
1533 1 8.7043 8.7043 27.6955
1534 1 7.1217 7.1217 29.2781
1535 1 8.7043 8.7043 30.8607
1536 1 7.1217 7.1217 32.4433
1537 1 8.7043 8.7043 34.0259
1538 1 7.1217 7.1217 35.6085
1539 1 8.7043 8.7043 37.1911
1540 1 7.1217 7.1217 38.7737
1541 1 8.7043 8.7043 40.3563
1542 1 7.1217 7.1217 41.9389
1543 1 8.7043 8.7043 43.5215
1544 1 7.1217 7.1217 45.1041
1545 1 8.7043 8.7043 46.6867
1546 1 7.1217 7.1217 48.2693
1547 1 8.7043 8.7043 49.8519
1548 1 7.1217 10.2869 0.7913
1549 1 8.7043 11.8695 2.3739
1550 1 7.1217 10.2869 3.9565
1551 1 8.7043 11.8695 5.5391
1552 1 7.1217 10.2869 7.1217
1553 1 8.7043 11.8695 8.7043
1554 1 7.1217 10.2869 10.2869
1555 1 8.7043 11.8695 11.8695
1556 1 7.1217 10.2869 13.4521
1557 1 8.7043 11.8695 15.0347
1558 1 7.1217 10.2869 16.6173
1559 1 8.7043 11.8695 18.1999
1560 1 7.1217 10.2869 19.7825
1561 1 8.7043 11.8695 21.3651
1562 1 7.1217 10.2869 22.9477
1563 1 8.7043 11.8695 24.5303
1564 1 7.1217 10.2869 26.1129
1565 1 8.7043 11.8695 27.6955
1566 1 7.1217 10.2869 29.2781
1567 1 8.7043 11.8695 30.8607
1568 1 7.1217 10.2869 32.4433
1569 1 8.7043 11.8695 34.0259
1570 1 7.1217 10.2869 35.6085
1571 1 8.7043 11.8695 37.1911
1572 1 7.1217 10.2869 38.7737
1573 1 8.7043 11.8695 40.3563
1574 1 7.1217 10.2869 41.9389
1575 1 8.7043 11.8695 43.5215
1576 1 7.1217 10.2869 45.1041
1577 1 8.7043 11.8695 46.6867
1578 1 7.1217 10.2869 48.2693
1579 1 8.7043 11.8695 49.8519
1580 1 7.1217 13.4521 0.7913
1581 1 8.7043 15.0347 2.3739
1582 1 7.1217 13.4521 3.9565
1583 1 8.7043 15.0347 5.5391
1584 1 7.1217 13.4521 7.1217
1585 1 8.7043 15.0347 8.7043
1586 1 7.1217 13.4521 10.2869
1587 1 8.7043 15.0347 11.8695
1588 1 7.1217 13.4521 13.4521
1589 1 8.7043 15.0347 15.0347
1590 1 7.1217 13.4521 16.6173
1591 1 8.7043 15.0347 18.1999
1592 1 7.1217 13.4521 19.7825
1593 1 8.7043 15.0347 21.3651
1594 1 7.1217 13.4521 22.9477
1595 1 8.7043 15.0347 24.5303
1596 1 7.1217 13.4521 26.1129
1597 1 8.7043 15.0347 27.6955
1598 1 7.1217 13.4521 29.2781
1599 1 8.7043 15.0347 30.8607
1600 1 7.1217 13.4521 32.4433
1601 1 8.7043 15.0347 34.0259
1602 1 7.1217 13.4521 35.6085
1603 1 8.7043 15.0347 37.1911
1604 1 7.1217 13.4521 38.7737
1605 1 8.7043 15.0347 40.3563
1606 1 7.1217 13.4521 41.9389
1607 1 8.7043 15.0347 43.5215
1608 1 7.1217 13.4521 45.1041
1609 1 8.7043 15.0347 46.6867
1610 1 7.1217 13.4521 48.2693
1611 1 8.7043 15.0347 49.8519
1612 1 7.1217 16.6173 0.7913
1613 1 8.7043 18.1999 2.3739
1614 1 7.1217 16.6173 3.9565
1615 1 8.7043 18.1999 5.5391
1616 1 7.1217 16.6173 7.1217
1617 1 8.7043 18.1999 8.7043
1618 1 7.1217 16.6173 10.2869
1619 1 8.7043 18.1999 11.8695
1620 1 7.1217 16.6173 13.4521
1621 1 8.7043 18.1999 15.0347
1622 1 7.1217 16.6173 16.6173
1623 1 8.7043 18.1999 18.1999
1624 1 7.1217 16.6173 19.7825
1625 1 8.7043 18.1999 21.3651
1626 1 7.1217 16.6173 22.9477
1627 1 8.7043 18.1999 24.5303
1628 1 7.1217 16.6173 26.1129
1629 1 8.7043 18.1999 27.6955
1630 1 7.1217 16.6173 29.2781
1631 1 8.7043 18.1999 30.8607
1632 1 7.1217 16.6173 32.4433
1633 1 8.7043 18.1999 34.0259
1634 1 7.1217 16.6173 35.6085
1635 1 8.7043 18.1999 37.1911
1636 1 7.1217 16.6173 38.7737
1637 1 8.7043 18.1999 40.3563
1638 1 7.1217 16.6173 41.9389
1639 1 8.7043 18.1999 43.5215
1640 1 7.1217 16.6173 45.1041
1641 1 8.7043 18.1999 46.6867
1642 1 7.1217 16.6173 48.2693
1643 1 8.7043 18.1999 49.8519
1644 1 7.1217 19.7825 0.7913
1645 1 8.7043 21.3651 2.3739
1646 1 7.1217 19.7825 3.9565
1647 1 8.7043 21.3651 5.5391
1648 1 7.1217 19.7825 7.1217
1649 1 8.7043 21.3651 8.7043
1650 1 7.1217 19.7825 10.2869
1651 1 8.7043 21.3651 11.8695
1652 1 7.1217 19.7825 13.4521
1653 1 8.7043 21.3651 15.0347
1654 1 7.1217 19.7825 16.6173
1655 1 8.7043 21.3651 18.1999
1656 1 7.1217 19.7825 19.7825
1657 1 8.7043 21.3651 21.3651
1658 1 7.1217 19.7825 22.9477
1659 1 8.7043 21.3651 24.5303
1660 1 7.1217 19.7825 26.1129
1661 1 8.7043 21.3651 27.6955
1662 1 7.1217 19.7825 29.2781
1663 1 8.7043 21.3651 30.8607
1664 1 7.1217 19.7825 32.4433
1665 1 8.7043 21.3651 34.0259
1666 1 7.1217 19.7825 35.6085
1667 1 8.7043 21.3651 37.1911
1668 1 7.1217 19.7825 38.7737
1669 1 8.7043 21.3651 40.3563
1670 1 7.1217 19.7825 41.9389
1671 1 8.7043 21.3651 43.5215
1672 1 7.1217 19.7825 45.1041
1673 1 8.7043 21.3651 46.6867
1674 1 7.1217 19.7825 48.2693
1675 1 8.7043 21.3651 49.8519
1676 1 7.1217 22.9477 0.7913
1677 1 8.7043 24.5303 2.3739
1678 1 7.1217 22.9477 3.9565
1679 1 8.7043 24.5303 5.5391
1680 1 7.1217 22.9477 7.1217
1681 1 8.7043 24.5303 8.7043
1682 1 7.1217 22.9477 10.2869
1683 1 8.7043 24.5303 11.8695
1684 1 7.1217 22.9477 13.4521
1685 1 8.7043 24.5303 15.0347
1686 1 7.1217 22.9477 16.6173
1687 1 8.7043 24.5303 18.1999
1688 1 7.1217 22.9477 19.7825
1689 1 8.7043 24.5303 21.3651
1690 1 7.1217 22.9477 22.9477
1691 1 8.7043 24.5303 24.5303
1692 1 7.1217 22.9477 26.1129
1693 1 8.7043 24.5303 27.6955
1694 1 7.1217 22.9477 29.2781
1695 1 8.7043 24.5303 30.8607
1696 1 7.1217 22.9477 32.4433
1697 1 8.7043 24.5303 34.0259
1698 1 7.1217 22.9477 35.6085
1699 1 8.7043 24.5303 37.1911
1700 1 7.1217 22.9477 38.7737
1701 1 8.7043 24.5303 40.3563
1702 1 7.1217 22.9477 41.9389
1703 1 8.7043 24.5303 43.5215
1704 1 7.1217 22.9477 45.1041
1705 1 8.7043 24.5303 46.6867
1706 1 7.1217 22.9477 48.2693
1707 1 8.7043 24.5303 49.8519
1708 1 7.1217 26.1129 0.7913
1709 1 8.7043 27.6955 2.3739
1710 1 7.1217 26.1129 3.9565
1711 1 8.7043 27.6955 5.5391
1712 1 7.1217 26.1129 7.1217
1713 1 8.7043 27.6955 8.7043
1714 1 7.1217 26.1129 10.2869
1715 1 8.7043 27.6955 11.8695
1716 1 7.1217 26.1129 13.4521
1717 1 8.7043 27.6955 15.0347
1718 1 7.1217 26.1129 16.6173
1719 1 8.7043 27.6955 18.1999
1720 1 7.1217 26.1129 19.7825
1721 1 8.7043 27.6955 21.3651
1722 1 7.1217 26.1129 22.9477
1723 1 8.7043 27.6955 24.5303
1724 1 7.1217 26.1129 26.1129
1725 1 8.7043 27.6955 27.6955
1726 1 7.1217 26.1129 29.2781
1727 1 8.7043 27.6955 30.8607
1728 1 7.1217 26.1129 32.4433
1729 1 8.7043 27.6955 34.0259
1730 1 7.1217 26.1129 35.6085
1731 1 8.7043 27.6955 37.1911
1732 1 7.1217 26.1129 38.7737
1733 1 8.7043 27.6955 40.3563
1734 1 7.1217 26.1129 41.9389
1735 1 8.7043 27.6955 43.5215
1736 1 7.1217 26.1129 45.1041
1737 1 8.7043 27.6955 46.6867
1738 1 7.1217 26.1129 48.2693
1739 1 8.7043 27.6955 49.8519
1740 1 7.1217 29.2781 0.7913
1741 1 8.7043 30.8607 2.3739
1742 1 7.1217 29.2781 3.9565
1743 1 8.7043 30.8607 5.5391
1744 1 7.1217 29.2781 7.1217
1745 1 8.7043 30.8607 8.7043
1746 1 7.1217 29.2781 10.2869
1747 1 8.7043 30.8607 11.8695
1748 1 7.1217 29.2781 13.4521
1749 1 8.7043 30.8607 15.0347
1750 1 7.1217 29.2781 16.6173
1751 1 8.7043 30.8607 18.1999
1752 1 7.1217 29.2781 19.7825
1753 1 8.7043 30.8607 21.3651
1754 1 7.1217 29.2781 22.9477
1755 1 8.7043 30.8607 24.5303
1756 1 7.1217 29.2781 26.1129
1757 1 8.7043 30.8607 27.6955
1758 1 7.1217 29.2781 29.2781
1759 1 8.7043 30.8607 30.8607
1760 1 7.1217 29.2781 32.4433
1761 1 8.7043 30.8607 34.0259
1762 1 7.1217 29.2781 35.6085
1763 1 8.7043 30.8607 37.1911
1764 1 7.1217 29.2781 38.7737
1765 1 8.7043 30.8607 40.3563
1766 1 7.1217 29.2781 41.9389
1767 1 8.7043 30.8607 43.5215
1768 1 7.1217 29.2781 45.1041
1769 1 8.7043 30.8607 46.6867
1770 1 7.1217 29.2781 48.2693
1771 1 8.7043 30.8607 49.8519
1772 1 7.1217 32.4433 0.7913
1773 1 8.7043 34.0259 2.3739
1774 1 7.1217 32.4433 3.9565
1775 1 8.7043 34.0259 5.5391
1776 1 7.1217 32.4433 7.1217
1777 1 8.7043 34.0259 8.7043
1778 1 7.1217 32.4433 10.2869
1779 1 8.7043 34.0259 11.8695
1780 1 7.1217 32.4433 13.4521
1781 1 8.7043 34.0259 15.0347
1782 1 7.1217 32.4433 16.6173
1783 1 8.7043 34.0259 18.1999
1784 1 7.1217 32.4433 19.7825
1785 1 8.7043 34.0259 21.3651
1786 1 7.1217 32.4433 22.9477
1787 1 8.7043 34.0259 24.5303
1788 1 7.1217 32.4433 26.1129
1789 1 8.7043 34.0259 27.6955
1790 1 7.1217 32.4433 29.2781
1791 1 8.7043 34.0259 30.8607
1792 1 7.1217 32.4433 32.4433
1793 1 8.7043 34.0259 34.0259
1794 1 7.1217 32.4433 35.6085
1795 1 8.7043 34.0259 37.1911
1796 1 7.1217 32.4433 38.7737
1797 1 8.7043 34.0259 40.3563
1798 1 7.1217 32.4433 41.9389
1799 1 8.7043 34.0259 43.5215
1800 1 7.1217 32.4433 45.1041
1801 1 8.7043 34.0259 46.6867
1802 1 7.1217 32.4433 48.2693
1803 1 8.7043 34.0259 49.8519
1804 1 7.1217 35.6085 0.7913
1805 1 8.7043 37.1911 2.3739
1806 1 7.1217 35.6085 3.9565
1807 1 8.7043 37.1911 5.5391
1808 1 7.1217 35.6085 7.1217
1809 1 8.7043 37.1911 8.7043
1810 1 7.1217 35.6085 10.2869
1811 1 8.7043 37.1911 11.8695
1812 1 7.1217 35.6085 13.4521
1813 1 8.7043 37.1911 15.0347
1814 1 7.1217 35.6085 16.6173
1815 1 8.7043 37.1911 18.1999
1816 1 7.1217 35.6085 19.7825
1817 1 8.7043 37.1911 21.3651
1818 1 7.1217 35.6085 22.9477
1819 1 8.7043 37.1911 24.5303
1820 1 7.1217 35.6085 26.1129
1821 1 8.7043 37.1911 27.6955
1822 1 7.1217 35.6085 29.2781
1823 1 8.7043 37.1911 30.8607
1824 1 7.1217 35.6085 32.4433
1825 1 8.7043 37.1911 34.0259
1826 1 7.1217 35.6085 35.6085
1827 1 8.7043 37.1911 37.1911
1828 1 7.1217 35.6085 38.7737
1829 1 8.7043 37.1911 40.3563
1830 1 7.1217 35.6085 41.9389
1831 1 8.7043 37.1911 43.5215
1832 1 7.1217 35.6085 45.1041
1833 1 8.7043 37.1911 46.6867
1834 1 7.1217 35.6085 48.2693
1835 1 8.7043 37.1911 49.8519
1836 1 7.1217 38.7737 0.7913
1837 1 8.7043 40.3563 2.3739
1838 1 7.1217 38.7737 3.9565
1839 1 8.7043 40.3563 5.5391
1840 1 7.1217 38.7737 7.1217
1841 1 8.7043 40.3563 8.7043
1842 1 7.1217 38.7737 10.2869
1843 1 8.7043 40.3563 11.8695
1844 1 7.1217 38.7737 13.4521
1845 1 8.7043 40.3563 15.0347
1846 1 7.1217 38.7737 16.6173
1847 1 8.7043 40.3563 18.1999
1848 1 7.1217 38.7737 19.7825
1849 1 8.7043 40.3563 21.3651
1850 1 7.1217 38.7737 22.9477
1851 1 8.7043 40.3563 24.5303
1852 1 7.1217 38.7737 26.1129
1853 1 8.7043 40.3563 27.6955
1854 1 7.1217 38.7737 29.2781
1855 1 8.7043 40.3563 30.8607
1856 1 7.1217 38.7737 32.4433
1857 1 8.7043 40.3563 34.0259
1858 1 7.1217 38.7737 35.6085
1859 1 8.7043 40.3563 37.1911
1860 1 7.1217 38.7737 38.7737
1861 1 8.7043 40.3563 40.3563
1862 1 7.1217 38.7737 41.9389
1863 1 8.7043 40.3563 43.5215
1864 1 7.1217 38.7737 45.1041
1865 1 8.7043 40.3563 46.6867
1866 1 7.1217 38.7737 48.2693
1867 1 8.7043 40.3563 49.8519
1868 1 7.1217 41.9389 0.7913
1869 1 8.7043 43.5215 2.3739
1870 1 7.1217 41.9389 3.9565
1871 1 8.7043 43.5215 5.5391
1872 1 7.1217 41.9389 7.1217
1873 1 8.7043 43.5215 8.7043
1874 1 7.1217 41.9389 10.2869
1875 1 8.7043 43.5215 11.8695
1876 1 7.1217 41.9389 13.4521
1877 1 8.7043 43.5215 15.0347
1878 1 7.1217 41.9389 16.6173
1879 1 8.7043 43.5215 18.1999
1880 1 7.1217 41.9389 19.7825
1881 1 8.7043 43.5215 21.3651
1882 1 7.1217 41.9389 22.9477
1883 1 8.7043 43.5215 24.5303
1884 1 7.1217 41.9389 26.1129
1885 1 8.7043 43.5215 27.6955
1886 1 7.1217 41.9389 29.2781
1887 1 8.7043 43.5215 30.8607
1888 1 7.1217 41.9389 32.4433
1889 1 8.7043 43.5215 34.0259
1890 1 7.1217 41.9389 35.6085
1891 1 8.7043 43.5215 37.1911
1892 1 7.1217 41.9389 38.7737
1893 1 8.7043 43.5215 40.3563
1894 1 7.1217 41.9389 41.9389
1895 1 8.7043 43.5215 43.5215
1896 1 7.1217 41.9389 45.1041
1897 1 8.7043 43.5215 46.6867
1898 1 7.1217 41.9389 48.2693
1899 1 8.7043 43.5215 49.8519
1900 1 7.1217 45.1041 0.7913
1901 1 8.7043 46.6867 2.3739
1902 1 7.1217 45.1041 3.9565
1903 1 8.7043 46.6867 5.5391
1904 1 7.1217 45.1041 7.1217
1905 1 8.7043 46.6867 8.7043
1906 1 7.1217 45.1041 10.2869
1907 1 8.7043 46.6867 11.8695
1908 1 7.1217 45.1041 13.4521
1909 1 8.7043 46.6867 15.0347
1910 1 7.1217 45.1041 16.6173
1911 1 8.7043 46.6867 18.1999
1912 1 7.1217 45.1041 19.7825
1913 1 8.7043 46.6867 21.3651
1914 1 7.1217 45.1041 22.9477
1915 1 8.7043 46.6867 24.5303
1916 1 7.1217 45.1041 26.1129
1917 1 8.7043 46.6867 27.6955
1918 1 7.1217 45.1041 29.2781
1919 1 8.7043 46.6867 30.8607
1920 1 7.1217 45.1041 32.4433
1921 1 8.7043 46.6867 34.0259
1922 1 7.1217 45.1041 35.6085
1923 1 8.7043 46.6867 37.1911
1924 1 7.1217 45.1041 38.7737
1925 1 8.7043 46.6867 40.3563
1926 1 7.1217 45.1041 41.9389
1927 1 8.7043 46.6867 43.5215
1928 1 7.1217 45.1041 45.1041
1929 1 8.7043 46.6867 46.6867
1930 1 7.1217 45.1041 48.2693
1931 1 8.7043 46.6867 49.8519
1932 1 7.1217 48.2693 0.7913
1933 1 8.7043 49.8519 2.3739
1934 1 7.1217 48.2693 3.9565
1935 1 8.7043 49.8519 5.5391
1936 1 7.1217 48.2693 7.1217
1937 1 8.7043 49.8519 8.7043
1938 1 7.1217 48.2693 10.2869
1939 1 8.7043 49.8519 11.8695
1940 1 7.1217 48.2693 13.4521
1941 1 8.7043 49.8519 15.0347
1942 1 7.1217 48.2693 16.6173
1943 1 8.7043 49.8519 18.1999
1944 1 7.1217 48.2693 19.7825
1945 1 8.7043 49.8519 21.3651
1946 1 7.1217 48.2693 22.9477
1947 1 8.7043 49.8519 24.5303
1948 1 7.1217 48.2693 26.1129
1949 1 8.7043 49.8519 27.6955
1950 1 7.1217 48.2693 29.2781
1951 1 8.7043 49.8519 30.8607
1952 1 7.1217 48.2693 32.4433
1953 1 8.7043 49.8519 34.0259
1954 1 7.1217 48.2693 35.6085
1955 1 8.7043 49.8519 37.1911
1956 1 7.1217 48.2693 38.7737
1957 1 8.7043 49.8519 40.3563
1958 1 7.1217 48.2693 41.9389
1959 1 8.7043 49.8519 43.5215
1960 1 7.1217 48.2693 45.1041
1961 1 8.7043 49.8519 46.6867
1962 1 7.1217 48.2693 48.2693
1963 1 8.7043 49.8519 49.8519
1964 1 10.2869 0.7913 0.7913
1965 1 11.8695 2.3739 2.3739
1966 1 10.2869 0.7913 3.9565
1967 1 11.8695 2.3739 5.5391
1968 1 10.2869 0.7913 7.1217
1969 1 11.8695 2.3739 8.7043
1970 1 10.2869 0.7913 10.2869
1971 1 11.8695 2.3739 11.8695
1972 1 10.2869 0.7913 13.4521
1973 1 11.8695 2.3739 15.0347
1974 1 10.2869 0.7913 16.6173
1975 1 11.8695 2.3739 18.1999
1976 1 10.2869 0.7913 19.7825
1977 1 11.8695 2.3739 21.3651
1978 1 10.2869 0.7913 22.9477
1979 1 11.8695 2.3739 24.5303
1980 1 10.2869 0.7913 26.1129
1981 1 11.8695 2.3739 27.6955
1982 1 10.2869 0.7913 29.2781
1983 1 11.8695 2.3739 30.8607
1984 1 10.2869 0.7913 32.4433
1985 1 11.8695 2.3739 34.0259
1986 1 10.2869 0.7913 35.6085
1987 1 11.8695 2.3739 37.1911
1988 1 10.2869 0.7913 38.7737
1989 1 11.8695 2.3739 40.3563
1990 1 10.2869 0.7913 41.9389
1991 1 11.8695 2.3739 43.5215
1992 1 10.2869 0.7913 45.1041
1993 1 11.8695 2.3739 46.6867
1994 1 10.2869 0.7913 48.2693
1995 1 11.8695 2.3739 49.8519
1996 1 10.2869 3.9565 0.7913
1997 1 11.8695 5.5391 2.3739
1998 1 10.2869 3.9565 3.9565
1999 1 11.8695 5.5391 5.5391
2000 1 10.2869 3.9565 7.1217
2001 1 11.8695 5.5391 8.7043
2002 1 10.2869 3.9565 10.2869
2003 1 11.8695 5.5391 11.8695
2004 1 10.2869 3.9565 13.4521
2005 1 11.8695 5.5391 15.0347
2006 1 10.2869 3.9565 16.6173
2007 1 11.8695 5.5391 18.1999
2008 1 10.2869 3.9565 19.7825
2009 1 11.8695 5.5391 21.3651
2010 1 10.2869 3.9565 22.9477
2011 1 11.8695 5.5391 24.5303
2012 1 10.2869 3.9565 26.1129
2013 1 11.8695 5.5391 27.6955
2014 1 10.2869 3.9565 29.2781
2015 1 11.8695 5.5391 30.8607
2016 1 10.2869 3.9565 32.4433
2017 1 11.8695 5.5391 34.0259
2018 1 10.2869 3.9565 35.6085
2019 1 11.8695 5.5391 37.1911
2020 1 10.2869 3.9565 38.7737
2021 1 11.8695 5.5391 40.3563
2022 1 10.2869 3.9565 41.9389
2023 1 11.8695 5.5391 43.5215
2024 1 10.2869 3.9565 45.1041
2025 1 11.8695 5.5391 46.6867
2026 1 10.2869 3.9565 48.2693
2027 1 11.8695 5.5391 49.8519
2028 1 10.2869 7.1217 0.7913
2029 1 11.8695 8.7043 2.3739
2030 1 10.2869 7.1217 3.9565
2031 1 11.8695 8.7043 5.5391
2032 1 10.2869 7.1217 7.1217
2033 1 11.8695 8.7043 8.7043
2034 1 10.2869 7.1217 10.2869
2035 1 11.8695 8.7043 11.8695
2036 1 10.2869 7.1217 13.4521
2037 1 11.8695 8.7043 15.0347
2038 1 10.2869 7.1217 16.6173
2039 1 11.8695 8.7043 18.1999
2040 1 10.2869 7.1217 19.7825
2041 1 11.8695 8.7043 21.3651
2042 1 10.2869 7.1217 22.9477
2043 1 11.8695 8.7043 24.5303
2044 1 10.2869 7.1217 26.1129
2045 1 11.8695 8.7043 27.6955
2046 1 10.2869 7.1217 29.2781
2047 1 11.8695 8.7043 30.8607
2048 1 10.2869 7.1217 32.4433
2049 1 11.8695 8.7043 34.0259
2050 1 10.2869 7.1217 35.6085
2051 1 11.8695 8.7043 37.1911
2052 1 10.2869 7.1217 38.7737
2053 1 11.8695 8.7043 40.3563
2054 1 10.2869 7.1217 41.9389
2055 1 11.8695 8.7043 43.5215
2056 1 10.2869 7.1217 45.1041
2057 1 11.8695 8.7043 46.6867
2058 1 10.2869 7.1217 48.2693
2059 1 11.8695 8.7043 49.8519
2060 1 10.2869 10.2869 0.7913
2061 1 11.8695 11.8695 2.3739
2062 1 10.2869 10.2869 3.9565
2063 1 11.8695 11.8695 5.5391
2064 1 10.2869 10.2869 7.1217
2065 1 11.8695 11.8695 8.7043
2066 1 10.2869 10.2869 10.2869
2067 1 11.8695 11.8695 11.8695
2068 1 10.2869 10.2869 13.4521
2069 1 11.8695 11.8695 15.0347
2070 1 10.2869 10.2869 16.6173
2071 1 11.8695 11.8695 18.1999
2072 1 10.2869 10.2869 19.7825
2073 1 11.8695 11.8695 21.3651
2074 1 10.2869 10.2869 22.9477
2075 1 11.8695 11.8695 24.5303
2076 1 10.2869 10.2869 26.1129
2077 1 11.8695 11.8695 27.6955
2078 1 10.2869 10.2869 29.2781
2079 1 11.8695 11.8695 30.8607
2080 1 10.2869 10.2869 32.4433
2081 1 11.8695 11.8695 34.0259
2082 1 10.2869 10.2869 35.6085
2083 1 11.8695 11.8695 37.1911
2084 1 10.2869 10.2869 38.7737
2085 1 11.8695 11.8695 40.3563
2086 1 10.2869 10.2869 41.9389
2087 1 11.8695 11.8695 43.5215
2088 1 10.2869 10.2869 45.1041
2089 1 11.8695 11.8695 46.6867
2090 1 10.2869 10.2869 48.2693
2091 1 11.8695 11.8695 49.8519
2092 1 10.2869 13.4521 0.7913
2093 1 11.8695 15.0347 2.3739
2094 1 10.2869 13.4521 3.9565
2095 1 11.8695 15.0347 5.5391
2096 1 10.2869 13.4521 7.1217
2097 1 11.8695 15.0347 8.7043
2098 1 10.2869 13.4521 10.2869
2099 1 11.8695 15.0347 11.8695
2100 1 10.2869 13.4521 13.4521
2101 1 11.8695 15.0347 15.0347
2102 1 10.2869 13.4521 16.6173
2103 1 11.8695 15.0347 18.1999
2104 1 10.2869 13.4521 19.7825
2105 1 11.8695 15.0347 21.3651
2106 1 10.2869 13.4521 22.9477
2107 1 11.8695 15.0347 24.5303
2108 1 10.2869 13.4521 26.1129
2109 1 11.8695 15.0347 27.6955
2110 1 10.2869 13.4521 29.2781
2111 1 11.8695 15.0347 30.8607
2112 1 10.2869 13.4521 32.4433
2113 1 11.8695 15.0347 34.0259
2114 1 10.2869 13.4521 35.6085
2115 1 11.8695 15.0347 37.1911
2116 1 10.2869 13.4521 38.7737
2117 1 11.8695 15.0347 40.3563
2118 1 10.2869 13.4521 41.9389
2119 1 11.8695 15.0347 43.5215
2120 1 10.2869 13.4521 45.1041
2121 1 11.8695 15.0347 46.6867
2122 1 10.2869 13.4521 48.2693
2123 1 11.8695 15.0347 49.8519
2124 1 10.2869 16.6173 0.7913
2125 1 11.8695 18.1999 2.3739
2126 1 10.2869 16.6173 3.9565
2127 1 11.8695 18.1999 5.5391
2128 1 10.2869 16.6173 7.1217
2129 1 11.8695 18.1999 8.7043
2130 1 10.2869 16.6173 10.2869
2131 1 11.8695 18.1999 11.8695
2132 1 10.2869 16.6173 13.4521
2133 1 11.8695 18.1999 15.0347
2134 1 10.2869 16.6173 16.6173
2135 1 11.8695 18.1999 18.1999
2136 1 10.2869 16.6173 19.7825
2137 1 11.8695 18.1999 21.3651
2138 1 10.2869 16.6173 22.9477
2139 1 11.8695 18.1999 24.5303
2140 1 10.2869 16.6173 26.1129
2141 1 11.8695 18.1999 27.6955
2142 1 10.2869 16.6173 29.2781
2143 1 11.8695 18.1999 30.8607
2144 1 10.2869 16.6173 32.4433
2145 1 11.8695 18.1999 34.0259
2146 1 10.2869 16.6173 35.6085
2147 1 11.8695 18.1999 37.1911
2148 1 10.2869 16.6173 38.7737
2149 1 11.8695 18.1999 40.3563
2150 1 10.2869 16.6173 41.9389
2151 1 11.8695 18.1999 43.5215
2152 1 10.2869 16.6173 45.1041
2153 1 11.8695 18.1999 46.6867
2154 1 10.2869 16.6173 48.2693
2155 1 11.8695 18.1999 49.8519
2156 1 10.2869 19.7825 0.7913
2157 1 11.8695 21.3651 2.3739
2158 1 10.2869 19.7825 3.9565
2159 1 11.8695 21.3651 5.5391
2160 1 10.2869 19.7825 7.1217
2161 1 11.8695 21.3651 8.7043
2162 1 10.2869 19.7825 10.2869
2163 1 11.8695 21.3651 11.8695
2164 1 10.2869 19.7825 13.4521
2165 1 11.8695 21.3651 15.0347
2166 1 10.2869 19.7825 16.6173
2167 1 11.8695 21.3651 18.1999
2168 1 10.2869 19.7825 19.7825
2169 1 11.8695 21.3651 21.3651
2170 1 10.2869 19.7825 22.9477
2171 1 11.8695 21.3651 24.5303
2172 1 10.2869 19.7825 26.1129
2173 1 11.8695 21.3651 27.6955
2174 1 10.2869 19.7825 29.2781
2175 1 11.8695 21.3651 30.8607
2176 1 10.2869 19.7825 32.4433
2177 1 11.8695 21.3651 34.0259
2178 1 10.2869 19.7825 35.6085
2179 1 11.8695 21.3651 37.1911
2180 1 10.2869 19.7825 38.7737
2181 1 11.8695 21.3651 40.3563
2182 1 10.2869 19.7825 41.9389
2183 1 11.8695 21.3651 43.5215
2184 1 10.2869 19.7825 45.1041
2185 1 11.8695 21.3651 46.6867
2186 1 10.2869 19.7825 48.2693
2187 1 11.8695 21.3651 49.8519
2188 1 10.2869 22.9477 0.7913
2189 1 11.8695 24.5303 2.3739
2190 1 10.2869 22.9477 3.9565
2191 1 11.8695 24.5303 5.5391
2192 1 10.2869 22.9477 7.1217
2193 1 11.8695 24.5303 8.7043
2194 1 10.2869 22.9477 10.2869
2195 1 11.8695 24.5303 11.8695
2196 1 10.2869 22.9477 13.4521
2197 1 11.8695 24.5303 15.0347
2198 1 10.2869 22.9477 16.6173
2199 1 11.8695 24.5303 18.1999
2200 1 10.2869 22.9477 19.7825
2201 1 11.8695 24.5303 21.3651
2202 1 10.2869 22.9477 22.9477
2203 1 11.8695 24.5303 24.5303
2204 1 10.2869 22.9477 26.1129
2205 1 11.8695 24.5303 27.6955
2206 1 10.2869 22.9477 29.2781
2207 1 11.8695 24.5303 30.8607
2208 1 10.2869 22.9477 32.4433
2209 1 11.8695 24.5303 34.0259
2210 1 10.2869 22.9477 35.6085
2211 1 11.8695 24.5303 37.1911
2212 1 10.2869 22.9477 38.7737
2213 1 11.8695 24.5303 40.3563
2214 1 10.2869 22.9477 41.9389
2215 1 11.8695 24.5303 43.5215
2216 1 10.2869 22.9477 45.1041
2217 1 11.8695 24.5303 46.6867
2218 1 10.2869 22.9477 48.2693
2219 1 11.8695 24.5303 49.8519
2220 1 10.2869 26.1129 0.7913
2221 1 11.8695 27.6955 2.3739
2222 1 10.2869 26.1129 3.9565
2223 1 11.8695 27.6955 5.5391
2224 1 10.2869 26.1129 7.1217
2225 1 11.8695 27.6955 8.7043
2226 1 10.2869 26.1129 10.2869
2227 1 11.8695 27.6955 11.8695
2228 1 10.2869 26.1129 13.4521
2229 1 11.8695 27.6955 15.0347
2230 1 10.2869 26.1129 16.6173
2231 1 11.8695 27.6955 18.1999
2232 1 10.2869 26.1129 19.7825
2233 1 11.8695 27.6955 21.3651
2234 1 10.2869 26.1129 22.9477
2235 1 11.8695 27.6955 24.5303
2236 1 10.2869 26.1129 26.1129
2237 1 11.8695 27.6955 27.6955
2238 1 10.2869 26.1129 29.2781
2239 1 11.8695 27.6955 30.8607
2240 1 10.2869 26.1129 32.4433
2241 1 11.8695 27.6955 34.0259
2242 1 10.2869 26.1129 35.6085
2243 1 11.8695 27.6955 37.1911
2244 1 10.2869 26.1129 38.7737
2245 1 11.8695 27.6955 40.3563
2246 1 10.2869 26.1129 41.9389
2247 1 11.8695 27.6955 43.5215
2248 1 10.2869 26.1129 45.1041
2249 1 11.8695 27.6955 46.6867
2250 1 10.2869 26.1129 48.2693
2251 1 11.8695 27.6955 49.8519
2252 1 10.2869 29.2781 0.7913
2253 1 11.8695 30.8607 2.3739
2254 1 10.2869 29.2781 3.9565
2255 1 11.8695 30.8607 5.5391
2256 1 10.2869 29.2781 7.1217
2257 1 11.8695 30.8607 8.7043
2258 1 10.2869 29.2781 10.2869
2259 1 11.8695 30.8607 11.8695
2260 1 10.2869 29.2781 13.4521
2261 1 11.8695 30.8607 15.0347
2262 1 10.2869 29.2781 16.6173
2263 1 11.8695 30.8607 18.1999
2264 1 10.2869 29.2781 19.7825
2265 1 11.8695 30.8607 21.3651
2266 1 10.2869 29.2781 22.9477
2267 1 11.8695 30.8607 24.5303
2268 1 10.2869 29.2781 26.1129
2269 1 11.8695 30.8607 27.6955
2270 1 10.2869 29.2781 29.2781
2271 1 11.8695 30.8607 30.8607
2272 1 10.2869 29.2781 32.4433
2273 1 11.8695 30.8607 34.0259
2274 1 10.2869 29.2781 35.6085
2275 1 11.8695 30.8607 37.1911
2276 1 10.2869 29.2781 38.7737
2277 1 11.8695 30.8607 40.3563
2278 1 10.2869 29.2781 41.9389
2279 1 11.8695 30.8607 43.5215
2280 1 10.2869 29.2781 45.1041
2281 1 11.8695 30.8607 46.6867
2282 1 10.2869 29.2781 48.2693
2283 1 11.8695 30.8607 49.8519
2284 1 10.2869 32.4433 0.7913
2285 1 11.8695 34.0259 2.3739
2286 1 10.2869 32.4433 3.9565
2287 1 11.8695 34.0259 5.5391
2288 1 10.2869 32.4433 7.1217
2289 1 11.8695 34.0259 8.7043
2290 1 10.2869 32.4433 10.2869
2291 1 11.8695 34.0259 11.8695
2292 1 10.2869 32.4433 13.4521
2293 1 11.8695 34.0259 15.0347
2294 1 10.2869 32.4433 16.6173
2295 1 11.8695 34.0259 18.1999
2296 1 10.2869 32.4433 19.7825
2297 1 11.8695 34.0259 21.3651
2298 1 10.2869 32.4433 22.9477
2299 1 11.8695 34.0259 24.5303
2300 1 10.2869 32.4433 26.1129
2301 1 11.8695 34.0259 27.6955
2302 1 10.2869 32.4433 29.2781
2303 1 11.8695 34.0259 30.8607
2304 1 10.2869 32.4433 32.4433
2305 1 11.8695 34.0259 34.0259
2306 1 10.2869 32.4433 35.6085
2307 1 11.8695 34.0259 37.1911
2308 1 10.2869 32.4433 38.7737
2309 1 11.8695 34.0259 40.3563
2310 1 10.2869 32.4433 41.9389
2311 1 11.8695 34.0259 43.5215
2312 1 10.2869 32.4433 45.1041
2313 1 11.8695 34.0259 46.6867
2314 1 10.2869 32.4433 48.2693
2315 1 11.8695 34.0259 49.8519
2316 1 10.2869 35.6085 0.7913
2317 1 11.8695 37.1911 2.3739
2318 1 10.2869 35.6085 3.9565
2319 1 11.8695 37.1911 5.5391
2320 1 10.2869 35.6085 7.1217
2321 1 11.8695 37.1911 8.7043
2322 1 10.2869 35.6085 10.2869
2323 1 11.8695 37.1911 11.8695
2324 1 10.2869 35.6085 13.4521
2325 1 11.8695 37.1911 15.0347
2326 1 10.2869 35.6085 16.6173
2327 1 11.8695 37.1911 18.1999
2328 1 10.2869 35.6085 19.7825
2329 1 11.8695 37.1911 21.3651
2330 1 10.2869 35.6085 22.9477
2331 1 11.8695 37.1911 24.5303
2332 1 10.2869 35.6085 26.1129
2333 1 11.8695 37.1911 27.6955
2334 1 10.2869 35.6085 29.2781
2335 1 11.8695 37.1911 30.8607
2336 1 10.2869 35.6085 32.4433
2337 1 11.8695 37.1911 34.0259
2338 1 10.2869 35.6085 35.6085
2339 1 11.8695 37.1911 37.1911
2340 1 10.2869 35.6085 38.7737
2341 1 11.8695 37.1911 40.3563
2342 1 10.2869 35.6085 41.9389
2343 1 11.8695 37.1911 43.5215
2344 1 10.2869 35.6085 45.1041
2345 1 11.8695 37.1911 46.6867
2346 1 10.2869 35.6085 48.2693
2347 1 11.8695 37.1911 49.8519
2348 1 10.2869 38.7737 0.7913
2349 1 11.8695 40.3563 2.3739
2350 1 10.2869 38.7737 3.9565
2351 1 11.8695 40.3563 5.5391
2352 1 10.2869 38.7737 7.1217
2353 1 11.8695 40.3563 8.7043
2354 1 10.2869 38.7737 10.2869
2355 1 11.8695 40.3563 11.8695
2356 1 10.2869 38.7737 13.4521
2357 1 11.8695 40.3563 15.0347
2358 1 10.2869 38.7737 16.6173
2359 1 11.8695 40.3563 18.1999
2360 1 10.2869 38.7737 19.7825
2361 1 11.8695 40.3563 21.3651
2362 1 10.2869 38.7737 22.9477
2363 1 11.8695 40.3563 24.5303
2364 1 10.2869 38.7737 26.1129
2365 1 11.8695 40.3563 27.6955
2366 1 10.2869 38.7737 29.2781
2367 1 11.8695 40.3563 30.8607
2368 1 10.2869 38.7737 32.4433
2369 1 11.8695 40.3563 34.0259
2370 1 10.2869 38.7737 35.6085
2371 1 11.8695 40.3563 37.1911
2372 1 10.2869 38.7737 38.7737
2373 1 11.8695 40.3563 40.3563
2374 1 10.2869 38.7737 41.9389
2375 1 11.8695 40.3563 43.5215
2376 1 10.2869 38.7737 45.1041
2377 1 11.8695 40.3563 46.6867
2378 1 10.2869 38.7737 48.2693
2379 1 11.8695 40.3563 49.8519
2380 1 10.2869 41.9389 0.7913
2381 1 11.8695 43.5215 2.3739
2382 1 10.2869 41.9389 3.9565
2383 1 11.8695 43.5215 5.5391
2384 1 10.2869 41.9389 7.1217
2385 1 11.8695 43.5215 8.7043
2386 1 10.2869 41.9389 10.2869
2387 1 11.8695 43.5215 11.8695
2388 1 10.2869 41.9389 13.4521
2389 1 11.8695 43.5215 15.0347
2390 1 10.2869 41.9389 16.6173
2391 1 11.8695 43.5215 18.1999
2392 1 10.2869 41.9389 19.7825
2393 1 11.8695 43.5215 21.3651
2394 1 10.2869 41.9389 22.9477
2395 1 11.8695 43.5215 24.5303
2396 1 10.2869 41.9389 26.1129
2397 1 11.8695 43.5215 27.6955
2398 1 10.2869 41.9389 29.2781
2399 1 11.8695 43.5215 30.8607
2400 1 10.2869 41.9389 32.4433
2401 1 11.8695 43.5215 34.0259
2402 1 10.2869 41.9389 35.6085
2403 1 11.8695 43.5215 37.1911
2404 1 10.2869 41.9389 38.7737
2405 1 11.8695 43.5215 40.3563
2406 1 10.2869 41.9389 41.9389
2407 1 11.8695 43.5215 43.5215
2408 1 10.2869 41.9389 45.1041
2409 1 11.8695 43.5215 46.6867
2410 1 10.2869 41.9389 48.2693
2411 1 11.8695 43.5215 49.8519
2412 1 10.2869 45.1041 0.7913
2413 1 11.8695 46.6867 2.3739
2414 1 10.2869 45.1041 3.9565
2415 1 11.8695 46.6867 5.5391
2416 1 10.2869 45.1041 7.1217
2417 1 11.8695 46.6867 8.7043
2418 1 10.2869 45.1041 10.2869
2419 1 11.8695 46.6867 11.8695
2420 1 10.2869 45.1041 13.4521
2421 1 11.8695 46.6867 15.0347
2422 1 10.2869 45.1041 16.6173
2423 1 11.8695 46.6867 18.1999
2424 1 10.2869 45.1041 19.7825
2425 1 11.8695 46.6867 21.3651
2426 1 10.2869 45.1041 22.9477
2427 1 11.8695 46.6867 24.5303
2428 1 10.2869 45.1041 26.1129
2429 1 11.8695 46.6867 27.6955
2430 1 10.2869 45.1041 29.2781
2431 1 11.8695 46.6867 30.8607
2432 1 10.2869 45.1041 32.4433
2433 1 11.8695 46.6867 34.0259
2434 1 10.2869 45.1041 35.6085
2435 1 11.8695 46.6867 37.1911
2436 1 10.2869 45.1041 38.7737
2437 1 11.8695 46.6867 40.3563
2438 1 10.2869 45.1041 41.9389
2439 1 11.8695 46.6867 43.5215
2440 1 10.2869 45.1041 45.1041
2441 1 11.8695 46.6867 46.6867
2442 1 10.2869 45.1041 48.2693
2443 1 11.8695 46.6867 49.8519
2444 1 10.2869 48.2693 0.7913
2445 1 11.8695 49.8519 2.3739
2446 1 10.2869 48.2693 3.9565
2447 1 11.8695 49.8519 5.5391
2448 1 10.2869 48.2693 7.1217
2449 1 11.8695 49.8519 8.7043
2450 1 10.2869 48.2693 10.2869
2451 1 11.8695 49.8519 11.8695
2452 1 10.2869 48.2693 13.4521
2453 1 11.8695 49.8519 15.0347
2454 1 10.2869 48.2693 16.6173
2455 1 11.8695 49.8519 18.1999
2456 1 10.2869 48.2693 19.7825
2457 1 11.8695 49.8519 21.3651
2458 1 10.2869 48.2693 22.9477
2459 1 11.8695 49.8519 24.5303
2460 1 10.2869 48.2693 26.1129
2461 1 11.8695 49.8519 27.6955
2462 1 10.2869 48.2693 29.2781
2463 1 11.8695 49.8519 30.8607
2464 1 10.2869 48.2693 32.4433
2465 1 11.8695 49.8519 34.0259
2466 1 10.2869 48.2693 35.6085
2467 1 11.8695 49.8519 37.1911
2468 1 10.2869 48.2693 38.7737
2469 1 11.8695 49.8519 40.3563
2470 1 10.2869 48.2693 41.9389
2471 1 11.8695 49.8519 43.5215
2472 1 10.2869 48.2693 45.1041
2473 1 11.8695 49.8519 46.6867
2474 1 10.2869 48.2693 48.2693
2475 1 11.8695 49.8519 49.8519
2476 1 13.4521 0.7913 0.7913
2477 1 15.0347 2.3739 2.3739
2478 1 13.4521 0.7913 3.9565
2479 1 15.0347 2.3739 5.5391
2480 1 13.4521 0.7913 7.1217
2481 1 15.0347 2.3739 8.7043
2482 1 13.4521 0.7913 10.2869
2483 1 15.0347 2.3739 11.8695
2484 1 13.4521 0.7913 13.4521
2485 1 15.0347 2.3739 15.0347
2486 1 13.4521 0.7913 16.6173
2487 1 15.0347 2.3739 18.1999
2488 1 13.4521 0.7913 19.7825
2489 1 15.0347 2.3739 21.3651
2490 1 13.4521 0.7913 22.9477
2491 1 15.0347 2.3739 24.5303
2492 1 13.4521 0.7913 26.1129
2493 1 15.0347 2.3739 27.6955
2494 1 13.4521 0.7913 29.2781
2495 1 15.0347 2.3739 30.8607
2496 1 13.4521 0.7913 32.4433
2497 1 15.0347 2.3739 34.0259
2498 1 13.4521 0.7913 35.6085
2499 1 15.0347 2.3739 37.1911
2500 1 13.4521 0.7913 38.7737
2501 1 15.0347 2.3739 40.3563
2502 1 13.4521 0.7913 41.9389
2503 1 15.0347 2.3739 43.5215
2504 1 13.4521 0.7913 45.1041
2505 1 15.0347 2.3739 46.6867
2506 1 13.4521 0.7913 48.2693
2507 1 15.0347 2.3739 49.8519
2508 1 13.4521 3.9565 0.7913
2509 1 15.0347 5.5391 2.3739
2510 1 13.4521 3.9565 3.9565
2511 1 15.0347 5.5391 5.5391
2512 1 13.4521 3.9565 7.1217
2513 1 15.0347 5.5391 8.7043
2514 1 13.4521 3.9565 10.2869
2515 1 15.0347 5.5391 11.8695
2516 1 13.4521 3.9565 13.4521
2517 1 15.0347 5.5391 15.0347
2518 1 13.4521 3.9565 16.6173
2519 1 15.0347 5.5391 18.1999
2520 1 13.4521 3.9565 19.7825
2521 1 15.0347 5.5391 21.3651
2522 1 13.4521 3.9565 22.9477
2523 1 15.0347 5.5391 24.5303
2524 1 13.4521 3.9565 26.1129
2525 1 15.0347 5.5391 27.6955
2526 1 13.4521 3.9565 29.2781
2527 1 15.0347 5.5391 30.8607
2528 1 13.4521 3.9565 32.4433
2529 1 15.0347 5.5391 34.0259
2530 1 13.4521 3.9565 35.6085
2531 1 15.0347 5.5391 37.1911
2532 1 13.4521 3.9565 38.7737
2533 1 15.0347 5.5391 40.3563
2534 1 13.4521 3.9565 41.9389
2535 1 15.0347 5.5391 43.5215
2536 1 13.4521 3.9565 45.1041
2537 1 15.0347 5.5391 46.6867
2538 1 13.4521 3.9565 48.2693
2539 1 15.0347 5.5391 49.8519
2540 1 13.4521 7.1217 0.7913
2541 1 15.0347 8.7043 2.3739
2542 1 13.4521 7.1217 3.9565
2543 1 15.0347 8.7043 5.5391
2544 1 13.4521 7.1217 7.1217
2545 1 15.0347 8.7043 8.7043
2546 1 13.4521 7.1217 10.2869
2547 1 15.0347 8.7043 11.8695
2548 1 13.4521 7.1217 13.4521
2549 1 15.0347 8.7043 15.0347
2550 1 13.4521 7.1217 16.6173
2551 1 15.0347 8.7043 18.1999
2552 1 13.4521 7.1217 19.7825
2553 1 15.0347 8.7043 21.3651
2554 1 13.4521 7.1217 22.9477
2555 1 15.0347 8.7043 24.5303
2556 1 13.4521 7.1217 26.1129
2557 1 15.0347 8.7043 27.6955
2558 1 13.4521 7.1217 29.2781
2559 1 15.0347 8.7043 30.8607
2560 1 13.4521 7.1217 32.4433
2561 1 15.0347 8.7043 34.0259
2562 1 13.4521 7.1217 35.6085
2563 1 15.0347 8.7043 37.1911
2564 1 13.4521 7.1217 38.7737
2565 1 15.0347 8.7043 40.3563
2566 1 13.4521 7.1217 41.9389
2567 1 15.0347 8.7043 43.5215
2568 1 13.4521 7.1217 45.1041
2569 1 15.0347 8.7043 46.6867
2570 1 13.4521 7.1217 48.2693
2571 1 15.0347 8.7043 49.8519
2572 1 13.4521 10.2869 0.7913
2573 1 15.0347 11.8695 2.3739
2574 1 13.4521 10.2869 3.9565
2575 1 15.0347 11.8695 5.5391
2576 1 13.4521 10.2869 7.1217
2577 1 15.0347 11.8695 8.7043
2578 1 13.4521 10.2869 10.2869
2579 1 15.0347 11.8695 11.8695
2580 1 13.4521 10.2869 13.4521
2581 1 15.0347 11.8695 15.0347
2582 1 13.4521 10.2869 16.6173
2583 1 15.0347 11.8695 18.1999
2584 1 13.4521 10.2869 19.7825
2585 1 15.0347 11.8695 21.3651
2586 1 13.4521 10.2869 22.9477
2587 1 15.0347 11.8695 24.5303
2588 1 13.4521 10.2869 26.1129
2589 1 15.0347 11.8695 27.6955
2590 1 13.4521 10.2869 29.2781
2591 1 15.0347 11.8695 30.8607
2592 1 13.4521 10.2869 32.4433
2593 1 15.0347 11.8695 34.0259
2594 1 13.4521 10.2869 35.6085
2595 1 15.0347 11.8695 37.1911
2596 1 13.4521 10.2869 38.7737
2597 1 15.0347 11.8695 40.3563
2598 1 13.4521 10.2869 41.9389
2599 1 15.0347 11.8695 43.5215
2600 1 13.4521 10.2869 45.1041
2601 1 15.0347 11.8695 46.6867
2602 1 13.4521 10.2869 48.2693
2603 1 15.0347 11.8695 49.8519
2604 1 13.4521 13.4521 0.7913
2605 1 15.0347 15.0347 2.3739
2606 1 13.4521 13.4521 3.9565
2607 1 15.0347 15.0347 5.5391
2608 1 13.4521 13.4521 7.1217
2609 1 15.0347 15.0347 8.7043
2610 1 13.4521 13.4521 10.2869
2611 1 15.0347 15.0347 11.8695
2612 1 13.4521 13.4521 13.4521
2613 1 15.0347 15.0347 15.0347
2614 1 13.4521 13.4521 16.6173
2615 1 15.0347 15.0347 18.1999
2616 1 13.4521 13.4521 19.7825
2617 1 15.0347 15.0347 21.3651
2618 1 13.4521 13.4521 22.9477
2619 1 15.0347 15.0347 24.5303
2620 1 13.4521 13.4521 26.1129
2621 1 15.0347 15.0347 27.6955
2622 1 13.4521 13.4521 29.2781
2623 1 15.0347 15.0347 30.8607
2624 1 13.4521 13.4521 32.4433
2625 1 15.0347 15.0347 34.0259
2626 1 13.4521 13.4521 35.6085
2627 1 15.0347 15.0347 37.1911
2628 1 13.4521 13.4521 38.7737
2629 1 15.0347 15.0347 40.3563
2630 1 13.4521 13.4521 41.9389
2631 1 15.0347 15.0347 43.5215
2632 1 13.4521 13.4521 45.1041
2633 1 15.0347 15.0347 46.6867
2634 1 13.4521 13.4521 48.2693
2635 1 15.0347 15.0347 49.8519
2636 1 13.4521 16.6173 0.7913
2637 1 15.0347 18.1999 2.3739
2638 1 13.4521 16.6173 3.9565
2639 1 15.0347 18.1999 5.5391
2640 1 13.4521 16.6173 7.1217
2641 1 15.0347 18.1999 8.7043
2642 1 13.4521 16.6173 10.2869
2643 1 15.0347 18.1999 11.8695
2644 1 13.4521 16.6173 13.4521
2645 1 15.0347 18.1999 15.0347
2646 1 13.4521 16.6173 16.6173
2647 1 15.0347 18.1999 18.1999
2648 1 13.4521 16.6173 19.7825
2649 1 15.0347 18.1999 21.3651
2650 1 13.4521 16.6173 22.9477
2651 1 15.0347 18.1999 24.5303
2652 1 13.4521 16.6173 26.1129
2653 1 15.0347 18.1999 27.6955
2654 1 13.4521 16.6173 29.2781
2655 1 15.0347 18.1999 30.8607
2656 1 13.4521 16.6173 32.4433
2657 1 15.0347 18.1999 34.0259
2658 1 13.4521 16.6173 35.6085
2659 1 15.0347 18.1999 37.1911
2660 1 13.4521 16.6173 38.7737
2661 1 15.0347 18.1999 40.3563
2662 1 13.4521 16.6173 41.9389
2663 1 15.0347 18.1999 43.5215
2664 1 13.4521 16.6173 45.1041
2665 1 15.0347 18.1999 46.6867
2666 1 13.4521 16.6173 48.2693
2667 1 15.0347 18.1999 49.8519
2668 1 13.4521 19.7825 0.7913
2669 1 15.0347 21.3651 2.3739
2670 1 13.4521 19.7825 3.9565
2671 1 15.0347 21.3651 5.5391
2672 1 13.4521 19.7825 7.1217
2673 1 15.0347 21.3651 8.7043
2674 1 13.4521 19.7825 10.2869
2675 1 15.0347 21.3651 11.8695
2676 1 13.4521 19.7825 13.4521
2677 1 15.0347 21.3651 15.0347
2678 1 13.4521 19.7825 16.6173
2679 1 15.0347 21.3651 18.1999
2680 1 13.4521 19.7825 19.7825
2681 1 15.0347 21.3651 21.3651
2682 1 13.4521 19.7825 22.9477
2683 1 15.0347 21.3651 24.5303
2684 1 13.4521 19.7825 26.1129
2685 1 15.0347 21.3651 27.6955
2686 1 13.4521 19.7825 29.2781
2687 1 15.0347 21.3651 30.8607
2688 1 13.4521 19.7825 32.4433
2689 1 15.0347 21.3651 34.0259
2690 1 13.4521 19.7825 35.6085
2691 1 15.0347 21.3651 37.1911
2692 1 13.4521 19.7825 38.7737
2693 1 15.0347 21.3651 40.3563
2694 1 13.4521 19.7825 41.9389
2695 1 15.0347 21.3651 43.5215
2696 1 13.4521 19.7825 45.1041
2697 1 15.0347 21.3651 46.6867
2698 1 13.4521 19.7825 48.2693
2699 1 15.0347 21.3651 49.8519
2700 1 13.4521 22.9477 0.7913
2701 1 15.0347 24.5303 2.3739
2702 1 13.4521 22.9477 3.9565
2703 1 15.0347 24.5303 5.5391
2704 1 13.4521 22.9477 7.1217
2705 1 15.0347 24.5303 8.7043
2706 1 13.4521 22.9477 10.2869
2707 1 15.0347 24.5303 11.8695
2708 1 13.4521 22.9477 13.4521
2709 1 15.0347 24.5303 15.0347
2710 1 13.4521 22.9477 16.6173
2711 1 15.0347 24.5303 18.1999
2712 1 13.4521 22.9477 19.7825
2713 1 15.0347 24.5303 21.3651
2714 1 13.4521 22.9477 22.9477
2715 1 15.0347 24.5303 24.5303
2716 1 13.4521 22.9477 26.1129
2717 1 15.0347 24.5303 27.6955
2718 1 13.4521 22.9477 29.2781
2719 1 15.0347 24.5303 30.8607
2720 1 13.4521 22.9477 32.4433
2721 1 15.0347 24.5303 34.0259
2722 1 13.4521 22.9477 35.6085
2723 1 15.0347 24.5303 37.1911
2724 1 13.4521 22.9477 38.7737
2725 1 15.0347 24.5303 40.3563
2726 1 13.4521 22.9477 41.9389
2727 1 15.0347 24.5303 43.5215
2728 1 13.4521 22.9477 45.1041
2729 1 15.0347 24.5303 46.6867
2730 1 13.4521 22.9477 48.2693
2731 1 15.0347 24.5303 49.8519
2732 1 13.4521 26.1129 0.7913
2733 1 15.0347 27.6955 2.3739
2734 1 13.4521 26.1129 3.9565
2735 1 15.0347 27.6955 5.5391
2736 1 13.4521 26.1129 7.1217
2737 1 15.0347 27.6955 8.7043
2738 1 13.4521 26.1129 10.2869
2739 1 15.0347 27.6955 11.8695
2740 1 13.4521 26.1129 13.4521
2741 1 15.0347 27.6955 15.0347
2742 1 13.4521 26.1129 16.6173
2743 1 15.0347 27.6955 18.1999
2744 1 13.4521 26.1129 19.7825
2745 1 15.0347 27.6955 21.3651
2746 1 13.4521 26.1129 22.9477
2747 1 15.0347 27.6955 24.5303
2748 1 13.4521 26.1129 26.1129
2749 1 15.0347 27.6955 27.6955
2750 1 13.4521 26.1129 29.2781
2751 1 15.0347 27.6955 30.8607
2752 1 13.4521 26.1129 32.4433
2753 1 15.0347 27.6955 34.0259
2754 1 13.4521 26.1129 35.6085
2755 1 15.0347 27.6955 37.1911
2756 1 13.4521 26.1129 38.7737
2757 1 15.0347 27.6955 40.3563
2758 1 13.4521 26.1129 41.9389
2759 1 15.0347 27.6955 43.5215
2760 1 13.4521 26.1129 45.1041
2761 1 15.0347 27.6955 46.6867
2762 1 13.4521 26.1129 48.2693
2763 1 15.0347 27.6955 49.8519
2764 1 13.4521 29.2781 0.7913
2765 1 15.0347 30.8607 2.3739
2766 1 13.4521 29.2781 3.9565
2767 1 15.0347 30.8607 5.5391
2768 1 13.4521 29.2781 7.1217
2769 1 15.0347 30.8607 8.7043
2770 1 13.4521 29.2781 10.2869
2771 1 15.0347 30.8607 11.8695
2772 1 13.4521 29.2781 13.4521
2773 1 15.0347 30.8607 15.0347
2774 1 13.4521 29.2781 16.6173
2775 1 15.0347 30.8607 18.1999
2776 1 13.4521 29.2781 19.7825
2777 1 15.0347 30.8607 21.3651
2778 1 13.4521 29.2781 22.9477
2779 1 15.0347 30.8607 24.5303
2780 1 13.4521 29.2781 26.1129
2781 1 15.0347 30.8607 27.6955
2782 1 13.4521 29.2781 29.2781
2783 1 15.0347 30.8607 30.8607
2784 1 13.4521 29.2781 32.4433
2785 1 15.0347 30.8607 34.0259
2786 1 13.4521 29.2781 35.6085
2787 1 15.0347 30.8607 37.1911
2788 1 13.4521 29.2781 38.7737
2789 1 15.0347 30.8607 40.3563
2790 1 13.4521 29.2781 41.9389
2791 1 15.0347 30.8607 43.5215
2792 1 13.4521 29.2781 45.1041
2793 1 15.0347 30.8607 46.6867
2794 1 13.4521 29.2781 48.2693
2795 1 15.0347 30.8607 49.8519
2796 1 13.4521 32.4433 0.7913
2797 1 15.0347 34.0259 2.3739
2798 1 13.4521 32.4433 3.9565
2799 1 15.0347 34.0259 5.5391
2800 1 13.4521 32.4433 7.1217
2801 1 15.0347 34.0259 8.7043
2802 1 13.4521 32.4433 10.2869
2803 1 15.0347 34.0259 11.8695
2804 1 13.4521 32.4433 13.4521
2805 1 15.0347 34.0259 15.0347
2806 1 13.4521 32.4433 16.6173
2807 1 15.0347 34.0259 18.1999
2808 1 13.4521 32.4433 19.7825
2809 1 15.0347 34.0259 21.3651
2810 1 13.4521 32.4433 22.9477
2811 1 15.0347 34.0259 24.5303
2812 1 13.4521 32.4433 26.1129
2813 1 15.0347 34.0259 27.6955
2814 1 13.4521 32.4433 29.2781
2815 1 15.0347 34.0259 30.8607
2816 1 13.4521 32.4433 32.4433
2817 1 15.0347 34.0259 34.0259
2818 1 13.4521 32.4433 35.6085
2819 1 15.0347 34.0259 37.1911
2820 1 13.4521 32.4433 38.7737
2821 1 15.0347 34.0259 40.3563
2822 1 13.4521 32.4433 41.9389
2823 1 15.0347 34.0259 43.5215
2824 1 13.4521 32.4433 45.1041
2825 1 15.0347 34.0259 46.6867
2826 1 13.4521 32.4433 48.2693
2827 1 15.0347 34.0259 49.8519
2828 1 13.4521 35.6085 0.7913
2829 1 15.0347 37.1911 2.3739
2830 1 13.4521 35.6085 3.9565
2831 1 15.0347 37.1911 5.5391
2832 1 13.4521 35.6085 7.1217
2833 1 15.0347 37.1911 8.7043
2834 1 13.4521 35.6085 10.2869
2835 1 15.0347 37.1911 11.8695
2836 1 13.4521 35.6085 13.4521
2837 1 15.0347 37.1911 15.0347
2838 1 13.4521 35.6085 16.6173
2839 1 15.0347 37.1911 18.1999
2840 1 13.4521 35.6085 19.7825
2841 1 15.0347 37.1911 21.3651
2842 1 13.4521 35.6085 22.9477
2843 1 15.0347 37.1911 24.5303
2844 1 13.4521 35.6085 26.1129
2845 1 15.0347 37.1911 27.6955
2846 1 13.4521 35.6085 29.2781
2847 1 15.0347 37.1911 30.8607
2848 1 13.4521 35.6085 32.4433
2849 1 15.0347 37.1911 34.0259
2850 1 13.4521 35.6085 35.6085
2851 1 15.0347 37.1911 37.1911
2852 1 13.4521 35.6085 38.7737
2853 1 15.0347 37.1911 40.3563
2854 1 13.4521 35.6085 41.9389
2855 1 15.0347 37.1911 43.5215
2856 1 13.4521 35.6085 45.1041
2857 1 15.0347 37.1911 46.6867
2858 1 13.4521 35.6085 48.2693
2859 1 15.0347 37.1911 49.8519
2860 1 13.4521 38.7737 0.7913
2861 1 15.0347 40.3563 2.3739
2862 1 13.4521 38.7737 3.9565
2863 1 15.0347 40.3563 5.5391
2864 1 13.4521 38.7737 7.1217
2865 1 15.0347 40.3563 8.7043
2866 1 13.4521 38.7737 10.2869
2867 1 15.0347 40.3563 11.8695
2868 1 13.4521 38.7737 13.4521
2869 1 15.0347 40.3563 15.0347
2870 1 13.4521 38.7737 16.6173
2871 1 15.0347 40.3563 18.1999
2872 1 13.4521 38.7737 19.7825
2873 1 15.0347 40.3563 21.3651
2874 1 13.4521 38.7737 22.9477
2875 1 15.0347 40.3563 24.5303
2876 1 13.4521 38.7737 26.1129
2877 1 15.0347 40.3563 27.6955
2878 1 13.4521 38.7737 29.2781
2879 1 15.0347 40.3563 30.8607
2880 1 13.4521 38.7737 32.4433
2881 1 15.0347 40.3563 34.0259
2882 1 13.4521 38.7737 35.6085
2883 1 15.0347 40.3563 37.1911
2884 1 13.4521 38.7737 38.7737
2885 1 15.0347 40.3563 40.3563
2886 1 13.4521 38.7737 41.9389
2887 1 15.0347 40.3563 43.5215
2888 1 13.4521 38.7737 45.1041
2889 1 15.0347 40.3563 46.6867
2890 1 13.4521 38.7737 48.2693
2891 1 15.0347 40.3563 49.8519
2892 1 13.4521 41.9389 0.7913
2893 1 15.0347 43.5215 2.3739
2894 1 13.4521 41.9389 3.9565
2895 1 15.0347 43.5215 5.5391
2896 1 13.4521 41.9389 7.1217
2897 1 15.0347 43.5215 8.7043
2898 1 13.4521 41.9389 10.2869
2899 1 15.0347 43.5215 11.8695
2900 1 13.4521 41.9389 13.4521
2901 1 15.0347 43.5215 15.0347
2902 1 13.4521 41.9389 16.6173
2903 1 15.0347 43.5215 18.1999
2904 1 13.4521 41.9389 19.7825
2905 1 15.0347 43.5215 21.3651
2906 1 13.4521 41.9389 22.9477
2907 1 15.0347 43.5215 24.5303
2908 1 13.4521 41.9389 26.1129
2909 1 15.0347 43.5215 27.6955
2910 1 13.4521 41.9389 29.2781
2911 1 15.0347 43.5215 30.8607
2912 1 13.4521 41.9389 32.4433
2913 1 15.0347 43.5215 34.0259
2914 1 13.4521 41.9389 35.6085
2915 1 15.0347 43.5215 37.1911
2916 1 13.4521 41.9389 38.7737
2917 1 15.0347 43.5215 40.3563
2918 1 13.4521 41.9389 41.9389
2919 1 15.0347 43.5215 43.5215
2920 1 13.4521 41.9389 45.1041
2921 1 15.0347 43.5215 46.6867
2922 1 13.4521 41.9389 48.2693
2923 1 15.0347 43.5215 49.8519
2924 1 13.4521 45.1041 0.7913
2925 1 15.0347 46.6867 2.3739
2926 1 13.4521 45.1041 3.9565
2927 1 15.0347 46.6867 5.5391
2928 1 13.4521 45.1041 7.1217
2929 1 15.0347 46.6867 8.7043
2930 1 13.4521 45.1041 10.2869
2931 1 15.0347 46.6867 11.8695
2932 1 13.4521 45.1041 13.4521
2933 1 15.0347 46.6867 15.0347
2934 1 13.4521 45.1041 16.6173
2935 1 15.0347 46.6867 18.1999
2936 1 13.4521 45.1041 19.7825
2937 1 15.0347 46.6867 21.3651
2938 1 13.4521 45.1041 22.9477
2939 1 15.0347 46.6867 24.5303
2940 1 13.4521 45.1041 26.1129
2941 1 15.0347 46.6867 27.6955
2942 1 13.4521 45.1041 29.2781
2943 1 15.0347 46.6867 30.8607
2944 1 13.4521 45.1041 32.4433
2945 1 15.0347 46.6867 34.0259
2946 1 13.4521 45.1041 35.6085
2947 1 15.0347 46.6867 37.1911
2948 1 13.4521 45.1041 38.7737
2949 1 15.0347 46.6867 40.3563
2950 1 13.4521 45.1041 41.9389
2951 1 15.0347 46.6867 43.5215
2952 1 13.4521 45.1041 45.1041
2953 1 15.0347 46.6867 46.6867
2954 1 13.4521 45.1041 48.2693
2955 1 15.0347 46.6867 49.8519
2956 1 13.4521 48.2693 0.7913
2957 1 15.0347 49.8519 2.3739
2958 1 13.4521 48.2693 3.9565
2959 1 15.0347 49.8519 5.5391
2960 1 13.4521 48.2693 7.1217
2961 1 15.0347 49.8519 8.7043
2962 1 13.4521 48.2693 10.2869
2963 1 15.0347 49.8519 11.8695
2964 1 13.4521 48.2693 13.4521
2965 1 15.0347 49.8519 15.0347
2966 1 13.4521 48.2693 16.6173
2967 1 15.0347 49.8519 18.1999
2968 1 13.4521 48.2693 19.7825
2969 1 15.0347 49.8519 21.3651
2970 1 13.4521 48.2693 22.9477
2971 1 15.0347 49.8519 24.5303
2972 1 13.4521 48.2693 26.1129
2973 1 15.0347 49.8519 27.6955
2974 1 13.4521 48.2693 29.2781
2975 1 15.0347 49.8519 30.8607
2976 1 13.4521 48.2693 32.4433
2977 1 15.0347 49.8519 34.0259
2978 1 13.4521 48.2693 35.6085
2979 1 15.0347 49.8519 37.1911
2980 1 13.4521 48.2693 38.7737
2981 1 15.0347 49.8519 40.3563
2982 1 13.4521 48.2693 41.9389
2983 1 15.0347 49.8519 43.5215
2984 1 13.4521 48.2693 45.1041
2985 1 15.0347 49.8519 46.6867
2986 1 13.4521 48.2693 48.2693
2987 1 15.0347 49.8519 49.8519
2988 1 35.6085 0.7913 0.7913
2989 1 37.1911 2.3739 2.3739
2990 1 35.6085 0.7913 3.9565
2991 1 37.1911 2.3739 5.5391
2992 1 35.6085 0.7913 7.1217
2993 1 37.1911 2.3739 8.7043
2994 1 35.6085 0.7913 10.2869
2995 1 37.1911 2.3739 11.8695
2996 1 35.6085 0.7913 13.4521
2997 1 37.1911 2.3739 15.0347
2998 1 35.6085 0.7913 16.6173
2999 1 37.1911 2.3739 18.1999
3000 1 35.6085 0.7913 19.7825
3001 1 37.1911 2.3739 21.3651
3002 1 35.6085 0.7913 22.9477
3003 1 37.1911 2.3739 24.5303
3004 1 35.6085 0.7913 26.1129
3005 1 37.1911 2.3739 27.6955
3006 1 35.6085 0.7913 29.2781
3007 1 37.1911 2.3739 30.8607
3008 1 35.6085 0.7913 32.4433
3009 1 37.1911 2.3739 34.0259
3010 1 35.6085 0.7913 35.6085
3011 1 37.1911 2.3739 37.1911
3012 1 35.6085 0.7913 38.7737
3013 1 37.1911 2.3739 40.3563
3014 1 35.6085 0.7913 41.9389
3015 1 37.1911 2.3739 43.5215
3016 1 35.6085 0.7913 45.1041
3017 1 37.1911 2.3739 46.6867
3018 1 35.6085 0.7913 48.2693
3019 1 37.1911 2.3739 49.8519
3020 1 35.6085 3.9565 0.7913
3021 1 37.1911 5.5391 2.3739
3022 1 35.6085 3.9565 3.9565
3023 1 37.1911 5.5391 5.5391
3024 1 35.6085 3.9565 7.1217
3025 1 37.1911 5.5391 8.7043
3026 1 35.6085 3.9565 10.2869
3027 1 37.1911 5.5391 11.8695
3028 1 35.6085 3.9565 13.4521
3029 1 37.1911 5.5391 15.0347
3030 1 35.6085 3.9565 16.6173
3031 1 37.1911 5.5391 18.1999
3032 1 35.6085 3.9565 19.7825
3033 1 37.1911 5.5391 21.3651
3034 1 35.6085 3.9565 22.9477
3035 1 37.1911 5.5391 24.5303
3036 1 35.6085 3.9565 26.1129
3037 1 37.1911 5.5391 27.6955
3038 1 35.6085 3.9565 29.2781
3039 1 37.1911 5.5391 30.8607
3040 1 35.6085 3.9565 32.4433
3041 1 37.1911 5.5391 34.0259
3042 1 35.6085 3.9565 35.6085
3043 1 37.1911 5.5391 37.1911
3044 1 35.6085 3.9565 38.7737
3045 1 37.1911 5.5391 40.3563
3046 1 35.6085 3.9565 41.9389
3047 1 37.1911 5.5391 43.5215
3048 1 35.6085 3.9565 45.1041
3049 1 37.1911 5.5391 46.6867
3050 1 35.6085 3.9565 48.2693
3051 1 37.1911 5.5391 49.8519
3052 1 35.6085 7.1217 0.7913
3053 1 37.1911 8.7043 2.3739
3054 1 35.6085 7.1217 3.9565
3055 1 37.1911 8.7043 5.5391
3056 1 35.6085 7.1217 7.1217
3057 1 37.1911 8.7043 8.7043
3058 1 35.6085 7.1217 10.2869
3059 1 37.1911 8.7043 11.8695
3060 1 35.6085 7.1217 13.4521
3061 1 37.1911 8.7043 15.0347
3062 1 35.6085 7.1217 16.6173
3063 1 37.1911 8.7043 18.1999
3064 1 35.6085 7.1217 19.7825
3065 1 37.1911 8.7043 21.3651
3066 1 35.6085 7.1217 22.9477
3067 1 37.1911 8.7043 24.5303
3068 1 35.6085 7.1217 26.1129
3069 1 37.1911 8.7043 27.6955
3070 1 35.6085 7.1217 29.2781
3071 1 37.1911 8.7043 30.8607
3072 1 35.6085 7.1217 32.4433
3073 1 37.1911 8.7043 34.0259
3074 1 35.6085 7.1217 35.6085
3075 1 37.1911 8.7043 37.1911
3076 1 35.6085 7.1217 38.7737
3077 1 37.1911 8.7043 40.3563
3078 1 35.6085 7.1217 41.9389
3079 1 37.1911 8.7043 43.5215
3080 1 35.6085 7.1217 45.1041
3081 1 37.1911 8.7043 46.6867
3082 1 35.6085 7.1217 48.2693
3083 1 37.1911 8.7043 49.8519
3084 1 35.6085 10.2869 0.7913
3085 1 37.1911 11.8695 2.3739
3086 1 35.6085 10.2869 3.9565
3087 1 37.1911 11.8695 5.5391
3088 1 35.6085 10.2869 7.1217
3089 1 37.1911 11.8695 8.7043
3090 1 35.6085 10.2869 10.2869
3091 1 37.1911 11.8695 11.8695
3092 1 35.6085 10.2869 13.4521
3093 1 37.1911 11.8695 15.0347
3094 1 35.6085 10.2869 16.6173
3095 1 37.1911 11.8695 18.1999
3096 1 35.6085 10.2869 19.7825
3097 1 37.1911 11.8695 21.3651
3098 1 35.6085 10.2869 22.9477
3099 1 37.1911 11.8695 24.5303
3100 1 35.6085 10.2869 26.1129
3101 1 37.1911 11.8695 27.6955
3102 1 35.6085 10.2869 29.2781
3103 1 37.1911 11.8695 30.8607
3104 1 35.6085 10.2869 32.4433
3105 1 37.1911 11.8695 34.0259
3106 1 35.6085 10.2869 35.6085
3107 1 37.1911 11.8695 37.1911
3108 1 35.6085 10.2869 38.7737
3109 1 37.1911 11.8695 40.3563
3110 1 35.6085 10.2869 41.9389
3111 1 37.1911 11.8695 43.5215
3112 1 35.6085 10.2869 45.1041
3113 1 37.1911 11.8695 46.6867
3114 1 35.6085 10.2869 48.2693
3115 1 37.1911 11.8695 49.8519
3116 1 35.6085 13.4521 0.7913
3117 1 37.1911 15.0347 2.3739
3118 1 35.6085 13.4521 3.9565
3119 1 37.1911 15.0347 5.5391
3120 1 35.6085 13.4521 7.1217
3121 1 37.1911 15.0347 8.7043
3122 1 35.6085 13.4521 10.2869
3123 1 37.1911 15.0347 11.8695
3124 1 35.6085 13.4521 13.4521
3125 1 37.1911 15.0347 15.0347
3126 1 35.6085 13.4521 16.6173
3127 1 37.1911 15.0347 18.1999
3128 1 35.6085 13.4521 19.7825
3129 1 37.1911 15.0347 21.3651
3130 1 35.6085 13.4521 22.9477
3131 1 37.1911 15.0347 24.5303
3132 1 35.6085 13.4521 26.1129
3133 1 37.1911 15.0347 27.6955
3134 1 35.6085 13.4521 29.2781
3135 1 37.1911 15.0347 30.8607
3136 1 35.6085 13.4521 32.4433
3137 1 37.1911 15.0347 34.0259
3138 1 35.6085 13.4521 35.6085
3139 1 37.1911 15.0347 37.1911
3140 1 35.6085 13.4521 38.7737
3141 1 37.1911 15.0347 40.3563
3142 1 35.6085 13.4521 41.9389
3143 1 37.1911 15.0347 43.5215
3144 1 35.6085 13.4521 45.1041
3145 1 37.1911 15.0347 46.6867
3146 1 35.6085 13.4521 48.2693
3147 1 37.1911 15.0347 49.8519
3148 1 35.6085 16.6173 0.7913
3149 1 37.1911 18.1999 2.3739
3150 1 35.6085 16.6173 3.9565
3151 1 37.1911 18.1999 5.5391
3152 1 35.6085 16.6173 7.1217
3153 1 37.1911 18.1999 8.7043
3154 1 35.6085 16.6173 10.2869
3155 1 37.1911 18.1999 11.8695
3156 1 35.6085 16.6173 13.4521
3157 1 37.1911 18.1999 15.0347
3158 1 35.6085 16.6173 16.6173
3159 1 37.1911 18.1999 18.1999
3160 1 35.6085 16.6173 19.7825
3161 1 37.1911 18.1999 21.3651
3162 1 35.6085 16.6173 22.9477
3163 1 37.1911 18.1999 24.5303
3164 1 35.6085 16.6173 26.1129
3165 1 37.1911 18.1999 27.6955
3166 1 35.6085 16.6173 29.2781
3167 1 37.1911 18.1999 30.8607
3168 1 35.6085 16.6173 32.4433
3169 1 37.1911 18.1999 34.0259
3170 1 35.6085 16.6173 35.6085
3171 1 37.1911 18.1999 37.1911
3172 1 35.6085 16.6173 38.7737
3173 1 37.1911 18.1999 40.3563
3174 1 35.6085 16.6173 41.9389
3175 1 37.1911 18.1999 43.5215
3176 1 35.6085 16.6173 45.1041
3177 1 37.1911 18.1999 46.6867
3178 1 35.6085 16.6173 48.2693
3179 1 37.1911 18.1999 49.8519
3180 1 35.6085 19.7825 0.7913
3181 1 37.1911 21.3651 2.3739
3182 1 35.6085 19.7825 3.9565
3183 1 37.1911 21.3651 5.5391
3184 1 35.6085 19.7825 7.1217
3185 1 37.1911 21.3651 8.7043
3186 1 35.6085 19.7825 10.2869
3187 1 37.1911 21.3651 11.8695
3188 1 35.6085 19.7825 13.4521
3189 1 37.1911 21.3651 15.0347
3190 1 35.6085 19.7825 16.6173
3191 1 37.1911 21.3651 18.1999
3192 1 35.6085 19.7825 19.7825
3193 1 37.1911 21.3651 21.3651
3194 1 35.6085 19.7825 22.9477
3195 1 37.1911 21.3651 24.5303
3196 1 35.6085 19.7825 26.1129
3197 1 37.1911 21.3651 27.6955
3198 1 35.6085 19.7825 29.2781
3199 1 37.1911 21.3651 30.8607
3200 1 35.6085 19.7825 32.4433
3201 1 37.1911 21.3651 34.0259
3202 1 35.6085 19.7825 35.6085
3203 1 37.1911 21.3651 37.1911
3204 1 35.6085 19.7825 38.7737
3205 1 37.1911 21.3651 40.3563
3206 1 35.6085 19.7825 41.9389
3207 1 37.1911 21.3651 43.5215
3208 1 35.6085 19.7825 45.1041
3209 1 37.1911 21.3651 46.6867
3210 1 35.6085 19.7825 48.2693
3211 1 37.1911 21.3651 49.8519
3212 1 35.6085 22.9477 0.7913
3213 1 37.1911 24.5303 2.3739
3214 1 35.6085 22.9477 3.9565
3215 1 37.1911 24.5303 5.5391
3216 1 35.6085 22.9477 7.1217
3217 1 37.1911 24.5303 8.7043
3218 1 35.6085 22.9477 10.2869
3219 1 37.1911 24.5303 11.8695
3220 1 35.6085 22.9477 13.4521
3221 1 37.1911 24.5303 15.0347
3222 1 35.6085 22.9477 16.6173
3223 1 37.1911 24.5303 18.1999
3224 1 35.6085 22.9477 19.7825
3225 1 37.1911 24.5303 21.3651
3226 1 35.6085 22.9477 22.9477
3227 1 37.1911 24.5303 24.5303
3228 1 35.6085 22.9477 26.1129
3229 1 37.1911 24.5303 27.6955
3230 1 35.6085 22.9477 29.2781
3231 1 37.1911 24.5303 30.8607
3232 1 35.6085 22.9477 32.4433
3233 1 37.1911 24.5303 34.0259
3234 1 35.6085 22.9477 35.6085
3235 1 37.1911 24.5303 37.1911
3236 1 35.6085 22.9477 38.7737
3237 1 37.1911 24.5303 40.3563
3238 1 35.6085 22.9477 41.9389
3239 1 37.1911 24.5303 43.5215
3240 1 35.6085 22.9477 45.1041
3241 1 37.1911 24.5303 46.6867
3242 1 35.6085 22.9477 48.2693
3243 1 37.1911 24.5303 49.8519
3244 1 35.6085 26.1129 0.7913
3245 1 37.1911 27.6955 2.3739
3246 1 35.6085 26.1129 3.9565
3247 1 37.1911 27.6955 5.5391
3248 1 35.6085 26.1129 7.1217
3249 1 37.1911 27.6955 8.7043
3250 1 35.6085 26.1129 10.2869
3251 1 37.1911 27.6955 11.8695
3252 1 35.6085 26.1129 13.4521
3253 1 37.1911 27.6955 15.0347
3254 1 35.6085 26.1129 16.6173
3255 1 37.1911 27.6955 18.1999
3256 1 35.6085 26.1129 19.7825
3257 1 37.1911 27.6955 21.3651
3258 1 35.6085 26.1129 22.9477
3259 1 37.1911 27.6955 24.5303
3260 1 35.6085 26.1129 26.1129
3261 1 37.1911 27.6955 27.6955
3262 1 35.6085 26.1129 29.2781
3263 1 37.1911 27.6955 30.8607
3264 1 35.6085 26.1129 32.4433
3265 1 37.1911 27.6955 34.0259
3266 1 35.6085 26.1129 35.6085
3267 1 37.1911 27.6955 37.1911
3268 1 35.6085 26.1129 38.7737
3269 1 37.1911 27.6955 40.3563
3270 1 35.6085 26.1129 41.9389
3271 1 37.1911 27.6955 43.5215
3272 1 35.6085 26.1129 45.1041
3273 1 37.1911 27.6955 46.6867
3274 1 35.6085 26.1129 48.2693
3275 1 37.1911 27.6955 49.8519
3276 1 35.6085 29.2781 0.7913
3277 1 37.1911 30.8607 2.3739
3278 1 35.6085 29.2781 3.9565
3279 1 37.1911 30.8607 5.5391
3280 1 35.6085 29.2781 7.1217
3281 1 37.1911 30.8607 8.7043
3282 1 35.6085 29.2781 10.2869
3283 1 37.1911 30.8607 11.8695
3284 1 35.6085 29.2781 13.4521
3285 1 37.1911 30.8607 15.0347
3286 1 35.6085 29.2781 16.6173
3287 1 37.1911 30.8607 18.1999
3288 1 35.6085 29.2781 19.7825
3289 1 37.1911 30.8607 21.3651
3290 1 35.6085 29.2781 22.9477
3291 1 37.1911 30.8607 24.5303
3292 1 35.6085 29.2781 26.1129
3293 1 37.1911 30.8607 27.6955
3294 1 35.6085 29.2781 29.2781
3295 1 37.1911 30.8607 30.8607
3296 1 35.6085 29.2781 32.4433
3297 1 37.1911 30.8607 34.0259
3298 1 35.6085 29.2781 35.6085
3299 1 37.1911 30.8607 37.1911
3300 1 35.6085 29.2781 38.7737
3301 1 37.1911 30.8607 40.3563
3302 1 35.6085 29.2781 41.9389
3303 1 37.1911 30.8607 43.5215
3304 1 35.6085 29.2781 45.1041
3305 1 37.1911 30.8607 46.6867
3306 1 35.6085 29.2781 48.2693
3307 1 37.1911 30.8607 49.8519
3308 1 35.6085 32.4433 0.7913
3309 1 37.1911 34.0259 2.3739
3310 1 35.6085 32.4433 3.9565
3311 1 37.1911 34.0259 5.5391
3312 1 35.6085 32.4433 7.1217
3313 1 37.1911 34.0259 8.7043
3314 1 35.6085 32.4433 10.2869
3315 1 37.1911 34.0259 11.8695
3316 1 35.6085 32.4433 13.4521
3317 1 37.1911 34.0259 15.0347
3318 1 35.6085 32.4433 16.6173
3319 1 37.1911 34.0259 18.1999
3320 1 35.6085 32.4433 19.7825
3321 1 37.1911 34.0259 21.3651
3322 1 35.6085 32.4433 22.9477
3323 1 37.1911 34.0259 24.5303
3324 1 35.6085 32.4433 26.1129
3325 1 37.1911 34.0259 27.6955
3326 1 35.6085 32.4433 29.2781
3327 1 37.1911 34.0259 30.8607
3328 1 35.6085 32.4433 32.4433
3329 1 37.1911 34.0259 34.0259
3330 1 35.6085 32.4433 35.6085
3331 1 37.1911 34.0259 37.1911
3332 1 35.6085 32.4433 38.7737
3333 1 37.1911 34.0259 40.3563
3334 1 35.6085 32.4433 41.9389
3335 1 37.1911 34.0259 43.5215
3336 1 35.6085 32.4433 45.1041
3337 1 37.1911 34.0259 46.6867
3338 1 35.6085 32.4433 48.2693
3339 1 37.1911 34.0259 49.8519
3340 1 35.6085 35.6085 0.7913
3341 1 37.1911 37.1911 2.3739
3342 1 35.6085 35.6085 3.9565
3343 1 37.1911 37.1911 5.5391
3344 1 35.6085 35.6085 7.1217
3345 1 37.1911 37.1911 8.7043
3346 1 35.6085 35.6085 10.2869
3347 1 37.1911 37.1911 11.8695
3348 1 35.6085 35.6085 13.4521
3349 1 37.1911 37.1911 15.0347
3350 1 35.6085 35.6085 16.6173
3351 1 37.1911 37.1911 18.1999
3352 1 35.6085 35.6085 19.7825
3353 1 37.1911 37.1911 21.3651
3354 1 35.6085 35.6085 22.9477
3355 1 37.1911 37.1911 24.5303
3356 1 35.6085 35.6085 26.1129
3357 1 37.1911 37.1911 27.6955
3358 1 35.6085 35.6085 29.2781
3359 1 37.1911 37.1911 30.8607
3360 1 35.6085 35.6085 32.4433
3361 1 37.1911 37.1911 34.0259
3362 1 35.6085 35.6085 35.6085
3363 1 37.1911 37.1911 37.1911
3364 1 35.6085 35.6085 38.7737
3365 1 37.1911 37.1911 40.3563
3366 1 35.6085 35.6085 41.9389
3367 1 37.1911 37.1911 43.5215
3368 1 35.6085 35.6085 45.1041
3369 1 37.1911 37.1911 46.6867
3370 1 35.6085 35.6085 48.2693
3371 1 37.1911 37.1911 49.8519
3372 1 35.6085 38.7737 0.7913
3373 1 37.1911 40.3563 2.3739
3374 1 35.6085 38.7737 3.9565
3375 1 37.1911 40.3563 5.5391
3376 1 35.6085 38.7737 7.1217
3377 1 37.1911 40.3563 8.7043
3378 1 35.6085 38.7737 10.2869
3379 1 37.1911 40.3563 11.8695
3380 1 35.6085 38.7737 13.4521
3381 1 37.1911 40.3563 15.0347
3382 1 35.6085 38.7737 16.6173
3383 1 37.1911 40.3563 18.1999
3384 1 35.6085 38.7737 19.7825
3385 1 37.1911 40.3563 21.3651
3386 1 35.6085 38.7737 22.9477
3387 1 37.1911 40.3563 24.5303
3388 1 35.6085 38.7737 26.1129
3389 1 37.1911 40.3563 27.6955
3390 1 35.6085 38.7737 29.2781
3391 1 37.1911 40.3563 30.8607
3392 1 35.6085 38.7737 32.4433
3393 1 37.1911 40.3563 34.0259
3394 1 35.6085 38.7737 35.6085
3395 1 37.1911 40.3563 37.1911
3396 1 35.6085 38.7737 38.7737
3397 1 37.1911 40.3563 40.3563
3398 1 35.6085 38.7737 41.9389
3399 1 37.1911 40.3563 43.5215
3400 1 35.6085 38.7737 45.1041
3401 1 37.1911 40.3563 46.6867
3402 1 35.6085 38.7737 48.2693
3403 1 37.1911 40.3563 49.8519
3404 1 35.6085 41.9389 0.7913
3405 1 37.1911 43.5215 2.3739
3406 1 35.6085 41.9389 3.9565
3407 1 37.1911 43.5215 5.5391
3408 1 35.6085 41.9389 7.1217
3409 1 37.1911 43.5215 8.7043
3410 1 35.6085 41.9389 10.2869
3411 1 37.1911 43.5215 11.8695
3412 1 35.6085 41.9389 13.4521
3413 1 37.1911 43.5215 15.0347
3414 1 35.6085 41.9389 16.6173
3415 1 37.1911 43.5215 18.1999
3416 1 35.6085 41.9389 19.7825
3417 1 37.1911 43.5215 21.3651
3418 1 35.6085 41.9389 22.9477
3419 1 37.1911 43.5215 24.5303
3420 1 35.6085 41.9389 26.1129
3421 1 37.1911 43.5215 27.6955
3422 1 35.6085 41.9389 29.2781
3423 1 37.1911 43.5215 30.8607
3424 1 35.6085 41.9389 32.4433
3425 1 37.1911 43.5215 34.0259
3426 1 35.6085 41.9389 35.6085
3427 1 37.1911 43.5215 37.1911
3428 1 35.6085 41.9389 38.7737
3429 1 37.1911 43.5215 40.3563
3430 1 35.6085 41.9389 41.9389
3431 1 37.1911 43.5215 43.5215
3432 1 35.6085 41.9389 45.1041
3433 1 37.1911 43.5215 46.6867
3434 1 35.6085 41.9389 48.2693
3435 1 37.1911 43.5215 49.8519
3436 1 35.6085 45.1041 0.7913
3437 1 37.1911 46.6867 2.3739
3438 1 35.6085 45.1041 3.9565
3439 1 37.1911 46.6867 5.5391
3440 1 35.6085 45.1041 7.1217
3441 1 37.1911 46.6867 8.7043
3442 1 35.6085 45.1041 10.2869
3443 1 37.1911 46.6867 11.8695
3444 1 35.6085 45.1041 13.4521
3445 1 37.1911 46.6867 15.0347
3446 1 35.6085 45.1041 16.6173
3447 1 37.1911 46.6867 18.1999
3448 1 35.6085 45.1041 19.7825
3449 1 37.1911 46.6867 21.3651
3450 1 35.6085 45.1041 22.9477
3451 1 37.1911 46.6867 24.5303
3452 1 35.6085 45.1041 26.1129
3453 1 37.1911 46.6867 27.6955
3454 1 35.6085 45.1041 29.2781
3455 1 37.1911 46.6867 30.8607
3456 1 35.6085 45.1041 32.4433
3457 1 37.1911 46.6867 34.0259
3458 1 35.6085 45.1041 35.6085
3459 1 37.1911 46.6867 37.1911
3460 1 35.6085 45.1041 38.7737
3461 1 37.1911 46.6867 40.3563
3462 1 35.6085 45.1041 41.9389
3463 1 37.1911 46.6867 43.5215
3464 1 35.6085 45.1041 45.1041
3465 1 37.1911 46.6867 46.6867
3466 1 35.6085 45.1041 48.2693
3467 1 37.1911 46.6867 49.8519
3468 1 35.6085 48.2693 0.7913
3469 1 37.1911 49.8519 2.3739
3470 1 35.6085 48.2693 3.9565
3471 1 37.1911 49.8519 5.5391
3472 1 35.6085 48.2693 7.1217
3473 1 37.1911 49.8519 8.7043
3474 1 35.6085 48.2693 10.2869
3475 1 37.1911 49.8519 11.8695
3476 1 35.6085 48.2693 13.4521
3477 1 37.1911 49.8519 15.0347
3478 1 35.6085 48.2693 16.6173
3479 1 37.1911 49.8519 18.1999
3480 1 35.6085 48.2693 19.7825
3481 1 37.1911 49.8519 21.3651
3482 1 35.6085 48.2693 22.9477
3483 1 37.1911 49.8519 24.5303
3484 1 35.6085 48.2693 26.1129
3485 1 37.1911 49.8519 27.6955
3486 1 35.6085 48.2693 29.2781
3487 1 37.1911 49.8519 30.8607
3488 1 35.6085 48.2693 32.4433
3489 1 37.1911 49.8519 34.0259
3490 1 35.6085 48.2693 35.6085
3491 1 37.1911 49.8519 37.1911
3492 1 35.6085 48.2693 38.7737
3493 1 37.1911 49.8519 40.3563
3494 1 35.6085 48.2693 41.9389
3495 1 37.1911 49.8519 43.5215
3496 1 35.6085 48.2693 45.1041
3497 1 37.1911 49.8519 46.6867
3498 1 35.6085 48.2693 48.2693
3499 1 37.1911 49.8519 49.8519
3500 1 38.7737 0.7913 0.7913
3501 1 40.3563 2.3739 2.3739
3502 1 38.7737 0.7913 3.9565
3503 1 40.3563 2.3739 5.5391
3504 1 38.7737 0.7913 7.1217
3505 1 40.3563 2.3739 8.7043
3506 1 38.7737 0.7913 10.2869
3507 1 40.3563 2.3739 11.8695
3508 1 38.7737 0.7913 13.4521
3509 1 40.3563 2.3739 15.0347
3510 1 38.7737 0.7913 16.6173
3511 1 40.3563 2.3739 18.1999
3512 1 38.7737 0.7913 19.7825
3513 1 40.3563 2.3739 21.3651
3514 1 38.7737 0.7913 22.9477
3515 1 40.3563 2.3739 24.5303
3516 1 38.7737 0.7913 26.1129
3517 1 40.3563 2.3739 27.6955
3518 1 38.7737 0.7913 29.2781
3519 1 40.3563 2.3739 30.8607
3520 1 38.7737 0.7913 32.4433
3521 1 40.3563 2.3739 34.0259
3522 1 38.7737 0.7913 35.6085
3523 1 40.3563 2.3739 37.1911
3524 1 38.7737 0.7913 38.7737
3525 1 40.3563 2.3739 40.3563
3526 1 38.7737 0.7913 41.9389
3527 1 40.3563 2.3739 43.5215
3528 1 38.7737 0.7913 45.1041
3529 1 40.3563 2.3739 46.6867
3530 1 38.7737 0.7913 48.2693
3531 1 40.3563 2.3739 49.8519
3532 1 38.7737 3.9565 0.7913
3533 1 40.3563 5.5391 2.3739
3534 1 38.7737 3.9565 3.9565
3535 1 40.3563 5.5391 5.5391
3536 1 38.7737 3.9565 7.1217
3537 1 40.3563 5.5391 8.7043
3538 1 38.7737 3.9565 10.2869
3539 1 40.3563 5.5391 11.8695
3540 1 38.7737 3.9565 13.4521
3541 1 40.3563 5.5391 15.0347
3542 1 38.7737 3.9565 16.6173
3543 1 40.3563 5.5391 18.1999
3544 1 38.7737 3.9565 19.7825
3545 1 40.3563 5.5391 21.3651
3546 1 38.7737 3.9565 22.9477
3547 1 40.3563 5.5391 24.5303
3548 1 38.7737 3.9565 26.1129
3549 1 40.3563 5.5391 27.6955
3550 1 38.7737 3.9565 29.2781
3551 1 40.3563 5.5391 30.8607
3552 1 38.7737 3.9565 32.4433
3553 1 40.3563 5.5391 34.0259
3554 1 38.7737 3.9565 35.6085
3555 1 40.3563 5.5391 37.1911
3556 1 38.7737 3.9565 38.7737
3557 1 40.3563 5.5391 40.3563
3558 1 38.7737 3.9565 41.9389
3559 1 40.3563 5.5391 43.5215
3560 1 38.7737 3.9565 45.1041
3561 1 40.3563 5.5391 46.6867
3562 1 38.7737 3.9565 48.2693
3563 1 40.3563 5.5391 49.8519
3564 1 38.7737 7.1217 0.7913
3565 1 40.3563 8.7043 2.3739
3566 1 38.7737 7.1217 3.9565
3567 1 40.3563 8.7043 5.5391
3568 1 38.7737 7.1217 7.1217
3569 1 40.3563 8.7043 8.7043
3570 1 38.7737 7.1217 10.2869
3571 1 40.3563 8.7043 11.8695
3572 1 38.7737 7.1217 13.4521
3573 1 40.3563 8.7043 15.0347
3574 1 38.7737 7.1217 16.6173
3575 1 40.3563 8.7043 18.1999
3576 1 38.7737 7.1217 19.7825
3577 1 40.3563 8.7043 21.3651
3578 1 38.7737 7.1217 22.9477
3579 1 40.3563 8.7043 24.5303
3580 1 38.7737 7.1217 26.1129
3581 1 40.3563 8.7043 27.6955
3582 1 38.7737 7.1217 29.2781
3583 1 40.3563 8.7043 30.8607
3584 1 38.7737 7.1217 32.4433
3585 1 40.3563 8.7043 34.0259
3586 1 38.7737 7.1217 35.6085
3587 1 40.3563 8.7043 37.1911
3588 1 38.7737 7.1217 38.7737
3589 1 40.3563 8.7043 40.3563
3590 1 38.7737 7.1217 41.9389
3591 1 40.3563 8.7043 43.5215
3592 1 38.7737 7.1217 45.1041
3593 1 40.3563 8.7043 46.6867
3594 1 38.7737 7.1217 48.2693
3595 1 40.3563 8.7043 49.8519
3596 1 38.7737 10.2869 0.7913
3597 1 40.3563 11.8695 2.3739
3598 1 38.7737 10.2869 3.9565
3599 1 40.3563 11.8695 5.5391
3600 1 38.7737 10.2869 7.1217
3601 1 40.3563 11.8695 8.7043
3602 1 38.7737 10.2869 10.2869
3603 1 40.3563 11.8695 11.8695
3604 1 38.7737 10.2869 13.4521
3605 1 40.3563 11.8695 15.0347
3606 1 38.7737 10.2869 16.6173
3607 1 40.3563 11.8695 18.1999
3608 1 38.7737 10.2869 19.7825
3609 1 40.3563 11.8695 21.3651
3610 1 38.7737 10.2869 22.9477
3611 1 40.3563 11.8695 24.5303
3612 1 38.7737 10.2869 26.1129
3613 1 40.3563 11.8695 27.6955
3614 1 38.7737 10.2869 29.2781
3615 1 40.3563 11.8695 30.8607
3616 1 38.7737 10.2869 32.4433
3617 1 40.3563 11.8695 34.0259
3618 1 38.7737 10.2869 35.6085
3619 1 40.3563 11.8695 37.1911
3620 1 38.7737 10.2869 38.7737
3621 1 40.3563 11.8695 40.3563
3622 1 38.7737 10.2869 41.9389
3623 1 40.3563 11.8695 43.5215
3624 1 38.7737 10.2869 45.1041
3625 1 40.3563 11.8695 46.6867
3626 1 38.7737 10.2869 48.2693
3627 1 40.3563 11.8695 49.8519
3628 1 38.7737 13.4521 0.7913
3629 1 40.3563 15.0347 2.3739
3630 1 38.7737 13.4521 3.9565
3631 1 40.3563 15.0347 5.5391
3632 1 38.7737 13.4521 7.1217
3633 1 40.3563 15.0347 8.7043
3634 1 38.7737 13.4521 10.2869
3635 1 40.3563 15.0347 11.8695
3636 1 38.7737 13.4521 13.4521
3637 1 40.3563 15.0347 15.0347
3638 1 38.7737 13.4521 16.6173
3639 1 40.3563 15.0347 18.1999
3640 1 38.7737 13.4521 19.7825
3641 1 40.3563 15.0347 21.3651
3642 1 38.7737 13.4521 22.9477
3643 1 40.3563 15.0347 24.5303
3644 1 38.7737 13.4521 26.1129
3645 1 40.3563 15.0347 27.6955
3646 1 38.7737 13.4521 29.2781
3647 1 40.3563 15.0347 30.8607
3648 1 38.7737 13.4521 32.4433
3649 1 40.3563 15.0347 34.0259
3650 1 38.7737 13.4521 35.6085
3651 1 40.3563 15.0347 37.1911
3652 1 38.7737 13.4521 38.7737
3653 1 40.3563 15.0347 40.3563
3654 1 38.7737 13.4521 41.9389
3655 1 40.3563 15.0347 43.5215
3656 1 38.7737 13.4521 45.1041
3657 1 40.3563 15.0347 46.6867
3658 1 38.7737 13.4521 48.2693
3659 1 40.3563 15.0347 49.8519
3660 1 38.7737 16.6173 0.7913
3661 1 40.3563 18.1999 2.3739
3662 1 38.7737 16.6173 3.9565
3663 1 40.3563 18.1999 5.5391
3664 1 38.7737 16.6173 7.1217
3665 1 40.3563 18.1999 8.7043
3666 1 38.7737 16.6173 10.2869
3667 1 40.3563 18.1999 11.8695
3668 1 38.7737 16.6173 13.4521
3669 1 40.3563 18.1999 15.0347
3670 1 38.7737 16.6173 16.6173
3671 1 40.3563 18.1999 18.1999
3672 1 38.7737 16.6173 19.7825
3673 1 40.3563 18.1999 21.3651
3674 1 38.7737 16.6173 22.9477
3675 1 40.3563 18.1999 24.5303
3676 1 38.7737 16.6173 26.1129
3677 1 40.3563 18.1999 27.6955
3678 1 38.7737 16.6173 29.2781
3679 1 40.3563 18.1999 30.8607
3680 1 38.7737 16.6173 32.4433
3681 1 40.3563 18.1999 34.0259
3682 1 38.7737 16.6173 35.6085
3683 1 40.3563 18.1999 37.1911
3684 1 38.7737 16.6173 38.7737
3685 1 40.3563 18.1999 40.3563
3686 1 38.7737 16.6173 41.9389
3687 1 40.3563 18.1999 43.5215
3688 1 38.7737 16.6173 45.1041
3689 1 40.3563 18.1999 46.6867
3690 1 38.7737 16.6173 48.2693
3691 1 40.3563 18.1999 49.8519
3692 1 38.7737 19.7825 0.7913
3693 1 40.3563 21.3651 2.3739
3694 1 38.7737 19.7825 3.9565
3695 1 40.3563 21.3651 5.5391
3696 1 38.7737 19.7825 7.1217
3697 1 40.3563 21.3651 8.7043
3698 1 38.7737 19.7825 10.2869
3699 1 40.3563 21.3651 11.8695
3700 1 38.7737 19.7825 13.4521
3701 1 40.3563 21.3651 15.0347
3702 1 38.7737 19.7825 16.6173
3703 1 40.3563 21.3651 18.1999
3704 1 38.7737 19.7825 19.7825
3705 1 40.3563 21.3651 21.3651
3706 1 38.7737 19.7825 22.9477
3707 1 40.3563 21.3651 24.5303
3708 1 38.7737 19.7825 26.1129
3709 1 40.3563 21.3651 27.6955
3710 1 38.7737 19.7825 29.2781
3711 1 40.3563 21.3651 30.8607
3712 1 38.7737 19.7825 32.4433
3713 1 40.3563 21.3651 34.0259
3714 1 38.7737 19.7825 35.6085
3715 1 40.3563 21.3651 37.1911
3716 1 38.7737 19.7825 38.7737
3717 1 40.3563 21.3651 40.3563
3718 1 38.7737 19.7825 41.9389
3719 1 40.3563 21.3651 43.5215
3720 1 38.7737 19.7825 45.1041
3721 1 40.3563 21.3651 46.6867
3722 1 38.7737 19.7825 48.2693
3723 1 40.3563 21.3651 49.8519
3724 1 38.7737 22.9477 0.7913
3725 1 40.3563 24.5303 2.3739
3726 1 38.7737 22.9477 3.9565
3727 1 40.3563 24.5303 5.5391
3728 1 38.7737 22.9477 7.1217
3729 1 40.3563 24.5303 8.7043
3730 1 38.7737 22.9477 10.2869
3731 1 40.3563 24.5303 11.8695
3732 1 38.7737 22.9477 13.4521
3733 1 40.3563 24.5303 15.0347
3734 1 38.7737 22.9477 16.6173
3735 1 40.3563 24.5303 18.1999
3736 1 38.7737 22.9477 19.7825
3737 1 40.3563 24.5303 21.3651
3738 1 38.7737 22.9477 22.9477
3739 1 40.3563 24.5303 24.5303
3740 1 38.7737 22.9477 26.1129
3741 1 40.3563 24.5303 27.6955
3742 1 38.7737 22.9477 29.2781
3743 1 40.3563 24.5303 30.8607
3744 1 38.7737 22.9477 32.4433
3745 1 40.3563 24.5303 34.0259
3746 1 38.7737 22.9477 35.6085
3747 1 40.3563 24.5303 37.1911
3748 1 38.7737 22.9477 38.7737
3749 1 40.3563 24.5303 40.3563
3750 1 38.7737 22.9477 41.9389
3751 1 40.3563 24.5303 43.5215
3752 1 38.7737 22.9477 45.1041
3753 1 40.3563 24.5303 46.6867
3754 1 38.7737 22.9477 48.2693
3755 1 40.3563 24.5303 49.8519
3756 1 38.7737 26.1129 0.7913
3757 1 40.3563 27.6955 2.3739
3758 1 38.7737 26.1129 3.9565
3759 1 40.3563 27.6955 5.5391
3760 1 38.7737 26.1129 7.1217
3761 1 40.3563 27.6955 8.7043
3762 1 38.7737 26.1129 10.2869
3763 1 40.3563 27.6955 11.8695
3764 1 38.7737 26.1129 13.4521
3765 1 40.3563 27.6955 15.0347
3766 1 38.7737 26.1129 16.6173
3767 1 40.3563 27.6955 18.1999
3768 1 38.7737 26.1129 19.7825
3769 1 40.3563 27.6955 21.3651
3770 1 38.7737 26.1129 22.9477
3771 1 40.3563 27.6955 24.5303
3772 1 38.7737 26.1129 26.1129
3773 1 40.3563 27.6955 27.6955
3774 1 38.7737 26.1129 29.2781
3775 1 40.3563 27.6955 30.8607
3776 1 38.7737 26.1129 32.4433
3777 1 40.3563 27.6955 34.0259
3778 1 38.7737 26.1129 35.6085
3779 1 40.3563 27.6955 37.1911
3780 1 38.7737 26.1129 38.7737
3781 1 40.3563 27.6955 40.3563
3782 1 38.7737 26.1129 41.9389
3783 1 40.3563 27.6955 43.5215
3784 1 38.7737 26.1129 45.1041
3785 1 40.3563 27.6955 46.6867
3786 1 38.7737 26.1129 48.2693
3787 1 40.3563 27.6955 49.8519
3788 1 38.7737 29.2781 0.7913
3789 1 40.3563 30.8607 2.3739
3790 1 38.7737 29.2781 3.9565
3791 1 40.3563 30.8607 5.5391
3792 1 38.7737 29.2781 7.1217
3793 1 40.3563 30.8607 8.7043
3794 1 38.7737 29.2781 10.2869
3795 1 40.3563 30.8607 11.8695
3796 1 38.7737 29.2781 13.4521
3797 1 40.3563 30.8607 15.0347
3798 1 38.7737 29.2781 16.6173
3799 1 40.3563 30.8607 18.1999
3800 1 38.7737 29.2781 19.7825
3801 1 40.3563 30.8607 21.3651
3802 1 38.7737 29.2781 22.9477
3803 1 40.3563 30.8607 24.5303
3804 1 38.7737 29.2781 26.1129
3805 1 40.3563 30.8607 27.6955
3806 1 38.7737 29.2781 29.2781
3807 1 40.3563 30.8607 30.8607
3808 1 38.7737 29.2781 32.4433
3809 1 40.3563 30.8607 34.0259
3810 1 38.7737 29.2781 35.6085
3811 1 40.3563 30.8607 37.1911
3812 1 38.7737 29.2781 38.7737
3813 1 40.3563 30.8607 40.3563
3814 1 38.7737 29.2781 41.9389
3815 1 40.3563 30.8607 43.5215
3816 1 38.7737 29.2781 45.1041
3817 1 40.3563 30.8607 46.6867
3818 1 38.7737 29.2781 48.2693
3819 1 40.3563 30.8607 49.8519
3820 1 38.7737 32.4433 0.7913
3821 1 40.3563 34.0259 2.3739
3822 1 38.7737 32.4433 3.9565
3823 1 40.3563 34.0259 5.5391
3824 1 38.7737 32.4433 7.1217
3825 1 40.3563 34.0259 8.7043
3826 1 38.7737 32.4433 10.2869
3827 1 40.3563 34.0259 11.8695
3828 1 38.7737 32.4433 13.4521
3829 1 40.3563 34.0259 15.0347
3830 1 38.7737 32.4433 16.6173
3831 1 40.3563 34.0259 18.1999
3832 1 38.7737 32.4433 19.7825
3833 1 40.3563 34.0259 21.3651
3834 1 38.7737 32.4433 22.9477
3835 1 40.3563 34.0259 24.5303
3836 1 38.7737 32.4433 26.1129
3837 1 40.3563 34.0259 27.6955
3838 1 38.7737 32.4433 29.2781
3839 1 40.3563 34.0259 30.8607
3840 1 38.7737 32.4433 32.4433
3841 1 40.3563 34.0259 34.0259
3842 1 38.7737 32.4433 35.6085
3843 1 40.3563 34.0259 37.1911
3844 1 38.7737 32.4433 38.7737
3845 1 40.3563 34.0259 40.3563
3846 1 38.7737 32.4433 41.9389
3847 1 40.3563 34.0259 43.5215
3848 1 38.7737 32.4433 45.1041
3849 1 40.3563 34.0259 46.6867
3850 1 38.7737 32.4433 48.2693
3851 1 40.3563 34.0259 49.8519
3852 1 38.7737 35.6085 0.7913
3853 1 40.3563 37.1911 2.3739
3854 1 38.7737 35.6085 3.9565
3855 1 40.3563 37.1911 5.5391
3856 1 38.7737 35.6085 7.1217
3857 1 40.3563 37.1911 8.7043
3858 1 38.7737 35.6085 10.2869
3859 1 40.3563 37.1911 11.8695
3860 1 38.7737 35.6085 13.4521
3861 1 40.3563 37.1911 15.0347
3862 1 38.7737 35.6085 16.6173
3863 1 40.3563 37.1911 18.1999
3864 1 38.7737 35.6085 19.7825
3865 1 40.3563 37.1911 21.3651
3866 1 38.7737 35.6085 22.9477
3867 1 40.3563 37.1911 24.5303
3868 1 38.7737 35.6085 26.1129
3869 1 40.3563 37.1911 27.6955
3870 1 38.7737 35.6085 29.2781
3871 1 40.3563 37.1911 30.8607
3872 1 38.7737 35.6085 32.4433
3873 1 40.3563 37.1911 34.0259
3874 1 38.7737 35.6085 35.6085
3875 1 40.3563 37.1911 37.1911
3876 1 38.7737 35.6085 38.7737
3877 1 40.3563 37.1911 40.3563
3878 1 38.7737 35.6085 41.9389
3879 1 40.3563 37.1911 43.5215
3880 1 38.7737 35.6085 45.1041
3881 1 40.3563 37.1911 46.6867
3882 1 38.7737 35.6085 48.2693
3883 1 40.3563 37.1911 49.8519
3884 1 38.7737 38.7737 0.7913
3885 1 40.3563 40.3563 2.3739
3886 1 38.7737 38.7737 3.9565
3887 1 40.3563 40.3563 5.5391
3888 1 38.7737 38.7737 7.1217
3889 1 40.3563 40.3563 8.7043
3890 1 38.7737 38.7737 10.2869
3891 1 40.3563 40.3563 11.8695
3892 1 38.7737 38.7737 13.4521
3893 1 40.3563 40.3563 15.0347
3894 1 38.7737 38.7737 16.6173
3895 1 40.3563 40.3563 18.1999
3896 1 38.7737 38.7737 19.7825
3897 1 40.3563 40.3563 21.3651
3898 1 38.7737 38.7737 22.9477
3899 1 40.3563 40.3563 24.5303
3900 1 38.7737 38.7737 26.1129
3901 1 40.3563 40.3563 27.6955
3902 1 38.7737 38.7737 29.2781
3903 1 40.3563 40.3563 30.8607
3904 1 38.7737 38.7737 32.4433
3905 1 40.3563 40.3563 34.0259
3906 1 38.7737 38.7737 35.6085
3907 1 40.3563 40.3563 37.1911
3908 1 38.7737 38.7737 38.7737
3909 1 40.3563 40.3563 40.3563
3910 1 38.7737 38.7737 41.9389
3911 1 40.3563 40.3563 43.5215
3912 1 38.7737 38.7737 45.1041
3913 1 40.3563 40.3563 46.6867
3914 1 38.7737 38.7737 48.2693
3915 1 40.3563 40.3563 49.8519
3916 1 38.7737 41.9389 0.7913
3917 1 40.3563 43.5215 2.3739
3918 1 38.7737 41.9389 3.9565
3919 1 40.3563 43.5215 5.5391
3920 1 38.7737 41.9389 7.1217
3921 1 40.3563 43.5215 8.7043
3922 1 38.7737 41.9389 10.2869
3923 1 40.3563 43.5215 11.8695
3924 1 38.7737 41.9389 13.4521
3925 1 40.3563 43.5215 15.0347
3926 1 38.7737 41.9389 16.6173
3927 1 40.3563 43.5215 18.1999
3928 1 38.7737 41.9389 19.7825
3929 1 40.3563 43.5215 21.3651
3930 1 38.7737 41.9389 22.9477
3931 1 40.3563 43.5215 24.5303
3932 1 38.7737 41.9389 26.1129
3933 1 40.3563 43.5215 27.6955
3934 1 38.7737 41.9389 29.2781
3935 1 40.3563 43.5215 30.8607
3936 1 38.7737 41.9389 32.4433
3937 1 40.3563 43.5215 34.0259
3938 1 38.7737 41.9389 35.6085
3939 1 40.3563 43.5215 37.1911
3940 1 38.7737 41.9389 38.7737
3941 1 40.3563 43.5215 40.3563
3942 1 38.7737 41.9389 41.9389
3943 1 40.3563 43.5215 43.5215
3944 1 38.7737 41.9389 45.1041
3945 1 40.3563 43.5215 46.6867
3946 1 38.7737 41.9389 48.2693
3947 1 40.3563 43.5215 49.8519
3948 1 38.7737 45.1041 0.7913
3949 1 40.3563 46.6867 2.3739
3950 1 38.7737 45.1041 3.9565
3951 1 40.3563 46.6867 5.5391
3952 1 38.7737 45.1041 7.1217
3953 1 40.3563 46.6867 8.7043
3954 1 38.7737 45.1041 10.2869
3955 1 40.3563 46.6867 11.8695
3956 1 38.7737 45.1041 13.4521
3957 1 40.3563 46.6867 15.0347
3958 1 38.7737 45.1041 16.6173
3959 1 40.3563 46.6867 18.1999
3960 1 38.7737 45.1041 19.7825
3961 1 40.3563 46.6867 21.3651
3962 1 38.7737 45.1041 22.9477
3963 1 40.3563 46.6867 24.5303
3964 1 38.7737 45.1041 26.1129
3965 1 40.3563 46.6867 27.6955
3966 1 38.7737 45.1041 29.2781
3967 1 40.3563 46.6867 30.8607
3968 1 38.7737 45.1041 32.4433
3969 1 40.3563 46.6867 34.0259
3970 1 38.7737 45.1041 35.6085
3971 1 40.3563 46.6867 37.1911
3972 1 38.7737 45.1041 38.7737
3973 1 40.3563 46.6867 40.3563
3974 1 38.7737 45.1041 41.9389
3975 1 40.3563 46.6867 43.5215
3976 1 38.7737 45.1041 45.1041
3977 1 40.3563 46.6867 46.6867
3978 1 38.7737 45.1041 48.2693
3979 1 40.3563 46.6867 49.8519
3980 1 38.7737 48.2693 0.7913
3981 1 40.3563 49.8519 2.3739
3982 1 38.7737 48.2693 3.9565
3983 1 40.3563 49.8519 5.5391
3984 1 38.7737 48.2693 7.1217
3985 1 40.3563 49.8519 8.7043
3986 1 38.7737 48.2693 10.2869
3987 1 40.3563 49.8519 11.8695
3988 1 38.7737 48.2693 13.4521
3989 1 40.3563 49.8519 15.0347
3990 1 38.7737 48.2693 16.6173
3991 1 40.3563 49.8519 18.1999
3992 1 38.7737 48.2693 19.7825
3993 1 40.3563 49.8519 21.3651
3994 1 38.7737 48.2693 22.9477
3995 1 40.3563 49.8519 24.5303
3996 1 38.7737 48.2693 26.1129
3997 1 40.3563 49.8519 27.6955
3998 1 38.7737 48.2693 29.2781
3999 1 40.3563 49.8519 30.8607
4000 1 38.7737 48.2693 32.4433
4001 1 40.3563 49.8519 34.0259
4002 1 38.7737 48.2693 35.6085
4003 1 40.3563 49.8519 37.1911
4004 1 38.7737 48.2693 38.7737
4005 1 40.3563 49.8519 40.3563
4006 1 38.7737 48.2693 41.9389
4007 1 40.3563 49.8519 43.5215
4008 1 38.7737 48.2693 45.1041
4009 1 40.3563 49.8519 46.6867
4010 1 38.7737 48.2693 48.2693
4011 1 40.3563 49.8519 49.8519
4012 1 41.9389 0.7913 0.7913
4013 1 43.5215 2.3739 2.3739
4014 1 41.9389 0.7913 3.9565
4015 1 43.5215 2.3739 5.5391
4016 1 41.9389 0.7913 7.1217
4017 1 43.5215 2.3739 8.7043
4018 1 41.9389 0.7913 10.2869
4019 1 43.5215 2.3739 11.8695
4020 1 41.9389 0.7913 13.4521
4021 1 43.5215 2.3739 15.0347
4022 1 41.9389 0.7913 16.6173
4023 1 43.5215 2.3739 18.1999
4024 1 41.9389 0.7913 19.7825
4025 1 43.5215 2.3739 21.3651
4026 1 41.9389 0.7913 22.9477
4027 1 43.5215 2.3739 24.5303
4028 1 41.9389 0.7913 26.1129
4029 1 43.5215 2.3739 27.6955
4030 1 41.9389 0.7913 29.2781
4031 1 43.5215 2.3739 30.8607
4032 1 41.9389 0.7913 32.4433
4033 1 43.5215 2.3739 34.0259
4034 1 41.9389 0.7913 35.6085
4035 1 43.5215 2.3739 37.1911
4036 1 41.9389 0.7913 38.7737
4037 1 43.5215 2.3739 40.3563
4038 1 41.9389 0.7913 41.9389
4039 1 43.5215 2.3739 43.5215
4040 1 41.9389 0.7913 45.1041
4041 1 43.5215 2.3739 46.6867
4042 1 41.9389 0.7913 48.2693
4043 1 43.5215 2.3739 49.8519
4044 1 41.9389 3.9565 0.7913
4045 1 43.5215 5.5391 2.3739
4046 1 41.9389 3.9565 3.9565
4047 1 43.5215 5.5391 5.5391
4048 1 41.9389 3.9565 7.1217
4049 1 43.5215 5.5391 8.7043
4050 1 41.9389 3.9565 10.2869
4051 1 43.5215 5.5391 11.8695
4052 1 41.9389 3.9565 13.4521
4053 1 43.5215 5.5391 15.0347
4054 1 41.9389 3.9565 16.6173
4055 1 43.5215 5.5391 18.1999
4056 1 41.9389 3.9565 19.7825
4057 1 43.5215 5.5391 21.3651
4058 1 41.9389 3.9565 22.9477
4059 1 43.5215 5.5391 24.5303
4060 1 41.9389 3.9565 26.1129
4061 1 43.5215 5.5391 27.6955
4062 1 41.9389 3.9565 29.2781
4063 1 43.5215 5.5391 30.8607
4064 1 41.9389 3.9565 32.4433
4065 1 43.5215 5.5391 34.0259
4066 1 41.9389 3.9565 35.6085
4067 1 43.5215 5.5391 37.1911
4068 1 41.9389 3.9565 38.7737
4069 1 43.5215 5.5391 40.3563
4070 1 41.9389 3.9565 41.9389
4071 1 43.5215 5.5391 43.5215
4072 1 41.9389 3.9565 45.1041
4073 1 43.5215 5.5391 46.6867
4074 1 41.9389 3.9565 48.2693
4075 1 43.5215 5.5391 49.8519
4076 1 41.9389 7.1217 0.7913
4077 1 43.5215 8.7043 2.3739
4078 1 41.9389 7.1217 3.9565
4079 1 43.5215 8.7043 5.5391
4080 1 41.9389 7.1217 7.1217
4081 1 43.5215 8.7043 8.7043
4082 1 41.9389 7.1217 10.2869
4083 1 43.5215 8.7043 11.8695
4084 1 41.9389 7.1217 13.4521
4085 1 43.5215 8.7043 15.0347
4086 1 41.9389 7.1217 16.6173
4087 1 43.5215 8.7043 18.1999
4088 1 41.9389 7.1217 19.7825
4089 1 43.5215 8.7043 21.3651
4090 1 41.9389 7.1217 22.9477
4091 1 43.5215 8.7043 24.5303
4092 1 41.9389 7.1217 26.1129
4093 1 43.5215 8.7043 27.6955
4094 1 41.9389 7.1217 29.2781
4095 1 43.5215 8.7043 30.8607
4096 1 41.9389 7.1217 32.4433
4097 1 43.5215 8.7043 34.0259
4098 1 41.9389 7.1217 35.6085
4099 1 43.5215 8.7043 37.1911
4100 1 41.9389 7.1217 38.7737
4101 1 43.5215 8.7043 40.3563
4102 1 41.9389 7.1217 41.9389
4103 1 43.5215 8.7043 43.5215
4104 1 41.9389 7.1217 45.1041
4105 1 43.5215 8.7043 46.6867
4106 1 41.9389 7.1217 48.2693
4107 1 43.5215 8.7043 49.8519
4108 1 41.9389 10.2869 0.7913
4109 1 43.5215 11.8695 2.3739
4110 1 41.9389 10.2869 3.9565
4111 1 43.5215 11.8695 5.5391
4112 1 41.9389 10.2869 7.1217
4113 1 43.5215 11.8695 8.7043
4114 1 41.9389 10.2869 10.2869
4115 1 43.5215 11.8695 11.8695
4116 1 41.9389 10.2869 13.4521
4117 1 43.5215 11.8695 15.0347
4118 1 41.9389 10.2869 16.6173
4119 1 43.5215 11.8695 18.1999
4120 1 41.9389 10.2869 19.7825
4121 1 43.5215 11.8695 21.3651
4122 1 41.9389 10.2869 22.9477
4123 1 43.5215 11.8695 24.5303
4124 1 41.9389 10.2869 26.1129
4125 1 43.5215 11.8695 27.6955
4126 1 41.9389 10.2869 29.2781
4127 1 43.5215 11.8695 30.8607
4128 1 41.9389 10.2869 32.4433
4129 1 43.5215 11.8695 34.0259
4130 1 41.9389 10.2869 35.6085
4131 1 43.5215 11.8695 37.1911
4132 1 41.9389 10.2869 38.7737
4133 1 43.5215 11.8695 40.3563
4134 1 41.9389 10.2869 41.9389
4135 1 43.5215 11.8695 43.5215
4136 1 41.9389 10.2869 45.1041
4137 1 43.5215 11.8695 46.6867
4138 1 41.9389 10.2869 48.2693
4139 1 43.5215 11.8695 49.8519
4140 1 41.9389 13.4521 0.7913
4141 1 43.5215 15.0347 2.3739
4142 1 41.9389 13.4521 3.9565
4143 1 43.5215 15.0347 5.5391
4144 1 41.9389 13.4521 7.1217
4145 1 43.5215 15.0347 8.7043
4146 1 41.9389 13.4521 10.2869
4147 1 43.5215 15.0347 11.8695
4148 1 41.9389 13.4521 13.4521
4149 1 43.5215 15.0347 15.0347
4150 1 41.9389 13.4521 16.6173
4151 1 43.5215 15.0347 18.1999
4152 1 41.9389 13.4521 19.7825
4153 1 43.5215 15.0347 21.3651
4154 1 41.9389 13.4521 22.9477
4155 1 43.5215 15.0347 24.5303
4156 1 41.9389 13.4521 26.1129
4157 1 43.5215 15.0347 27.6955
4158 1 41.9389 13.4521 29.2781
4159 1 43.5215 15.0347 30.8607
4160 1 41.9389 13.4521 32.4433
4161 1 43.5215 15.0347 34.0259
4162 1 41.9389 13.4521 35.6085
4163 1 43.5215 15.0347 37.1911
4164 1 41.9389 13.4521 38.7737
4165 1 43.5215 15.0347 40.3563
4166 1 41.9389 13.4521 41.9389
4167 1 43.5215 15.0347 43.5215
4168 1 41.9389 13.4521 45.1041
4169 1 43.5215 15.0347 46.6867
4170 1 41.9389 13.4521 48.2693
4171 1 43.5215 15.0347 49.8519
4172 1 41.9389 16.6173 0.7913
4173 1 43.5215 18.1999 2.3739
4174 1 41.9389 16.6173 3.9565
4175 1 43.5215 18.1999 5.5391
4176 1 41.9389 16.6173 7.1217
4177 1 43.5215 18.1999 8.7043
4178 1 41.9389 16.6173 10.2869
4179 1 43.5215 18.1999 11.8695
4180 1 41.9389 16.6173 13.4521
4181 1 43.5215 18.1999 15.0347
4182 1 41.9389 16.6173 16.6173
4183 1 43.5215 18.1999 18.1999
4184 1 41.9389 16.6173 19.7825
4185 1 43.5215 18.1999 21.3651
4186 1 41.9389 16.6173 22.9477
4187 1 43.5215 18.1999 24.5303
4188 1 41.9389 16.6173 26.1129
4189 1 43.5215 18.1999 27.6955
4190 1 41.9389 16.6173 29.2781
4191 1 43.5215 18.1999 30.8607
4192 1 41.9389 16.6173 32.4433
4193 1 43.5215 18.1999 34.0259
4194 1 41.9389 16.6173 35.6085
4195 1 43.5215 18.1999 37.1911
4196 1 41.9389 16.6173 38.7737
4197 1 43.5215 18.1999 40.3563
4198 1 41.9389 16.6173 41.9389
4199 1 43.5215 18.1999 43.5215
4200 1 41.9389 16.6173 45.1041
4201 1 43.5215 18.1999 46.6867
4202 1 41.9389 16.6173 48.2693
4203 1 43.5215 18.1999 49.8519
4204 1 41.9389 19.7825 0.7913
4205 1 43.5215 21.3651 2.3739
4206 1 41.9389 19.7825 3.9565
4207 1 43.5215 21.3651 5.5391
4208 1 41.9389 19.7825 7.1217
4209 1 43.5215 21.3651 8.7043
4210 1 41.9389 19.7825 10.2869
4211 1 43.5215 21.3651 11.8695
4212 1 41.9389 19.7825 13.4521
4213 1 43.5215 21.3651 15.0347
4214 1 41.9389 19.7825 16.6173
4215 1 43.5215 21.3651 18.1999
4216 1 41.9389 19.7825 19.7825
4217 1 43.5215 21.3651 21.3651
4218 1 41.9389 19.7825 22.9477
4219 1 43.5215 21.3651 24.5303
4220 1 41.9389 19.7825 26.1129
4221 1 43.5215 21.3651 27.6955
4222 1 41.9389 19.7825 29.2781
4223 1 43.5215 21.3651 30.8607
4224 1 41.9389 19.7825 32.4433
4225 1 43.5215 21.3651 34.0259
4226 1 41.9389 19.7825 35.6085
4227 1 43.5215 21.3651 37.1911
4228 1 41.9389 19.7825 38.7737
4229 1 43.5215 21.3651 40.3563
4230 1 41.9389 19.7825 41.9389
4231 1 43.5215 21.3651 43.5215
4232 1 41.9389 19.7825 45.1041
4233 1 43.5215 21.3651 46.6867
4234 1 41.9389 19.7825 48.2693
4235 1 43.5215 21.3651 49.8519
4236 1 41.9389 22.9477 0.7913
4237 1 43.5215 24.5303 2.3739
4238 1 41.9389 22.9477 3.9565
4239 1 43.5215 24.5303 5.5391
4240 1 41.9389 22.9477 7.1217
4241 1 43.5215 24.5303 8.7043
4242 1 41.9389 22.9477 10.2869
4243 1 43.5215 24.5303 11.8695
4244 1 41.9389 22.9477 13.4521
4245 1 43.5215 24.5303 15.0347
4246 1 41.9389 22.9477 16.6173
4247 1 43.5215 24.5303 18.1999
4248 1 41.9389 22.9477 19.7825
4249 1 43.5215 24.5303 21.3651
4250 1 41.9389 22.9477 22.9477
4251 1 43.5215 24.5303 24.5303
4252 1 41.9389 22.9477 26.1129
4253 1 43.5215 24.5303 27.6955
4254 1 41.9389 22.9477 29.2781
4255 1 43.5215 24.5303 30.8607
4256 1 41.9389 22.9477 32.4433
4257 1 43.5215 24.5303 34.0259
4258 1 41.9389 22.9477 35.6085
4259 1 43.5215 24.5303 37.1911
4260 1 41.9389 22.9477 38.7737
4261 1 43.5215 24.5303 40.3563
4262 1 41.9389 22.9477 41.9389
4263 1 43.5215 24.5303 43.5215
4264 1 41.9389 22.9477 45.1041
4265 1 43.5215 24.5303 46.6867
4266 1 41.9389 22.9477 48.2693
4267 1 43.5215 24.5303 49.8519
4268 1 41.9389 26.1129 0.7913
4269 1 43.5215 27.6955 2.3739
4270 1 41.9389 26.1129 3.9565
4271 1 43.5215 27.6955 5.5391
4272 1 41.9389 26.1129 7.1217
4273 1 43.5215 27.6955 8.7043
4274 1 41.9389 26.1129 10.2869
4275 1 43.5215 27.6955 11.8695
4276 1 41.9389 26.1129 13.4521
4277 1 43.5215 27.6955 15.0347
4278 1 41.9389 26.1129 16.6173
4279 1 43.5215 27.6955 18.1999
4280 1 41.9389 26.1129 19.7825
4281 1 43.5215 27.6955 21.3651
4282 1 41.9389 26.1129 22.9477
4283 1 43.5215 27.6955 24.5303
4284 1 41.9389 26.1129 26.1129
4285 1 43.5215 27.6955 27.6955
4286 1 41.9389 26.1129 29.2781
4287 1 43.5215 27.6955 30.8607
4288 1 41.9389 26.1129 32.4433
4289 1 43.5215 27.6955 34.0259
4290 1 41.9389 26.1129 35.6085
4291 1 43.5215 27.6955 37.1911
4292 1 41.9389 26.1129 38.7737
4293 1 43.5215 27.6955 40.3563
4294 1 41.9389 26.1129 41.9389
4295 1 43.5215 27.6955 43.5215
4296 1 41.9389 26.1129 45.1041
4297 1 43.5215 27.6955 46.6867
4298 1 41.9389 26.1129 48.2693
4299 1 43.5215 27.6955 49.8519
4300 1 41.9389 29.2781 0.7913
4301 1 43.5215 30.8607 2.3739
4302 1 41.9389 29.2781 3.9565
4303 1 43.5215 30.8607 5.5391
4304 1 41.9389 29.2781 7.1217
4305 1 43.5215 30.8607 8.7043
4306 1 41.9389 29.2781 10.2869
4307 1 43.5215 30.8607 11.8695
4308 1 41.9389 29.2781 13.4521
4309 1 43.5215 30.8607 15.0347
4310 1 41.9389 29.2781 16.6173
4311 1 43.5215 30.8607 18.1999
4312 1 41.9389 29.2781 19.7825
4313 1 43.5215 30.8607 21.3651
4314 1 41.9389 29.2781 22.9477
4315 1 43.5215 30.8607 24.5303
4316 1 41.9389 29.2781 26.1129
4317 1 43.5215 30.8607 27.6955
4318 1 41.9389 29.2781 29.2781
4319 1 43.5215 30.8607 30.8607
4320 1 41.9389 29.2781 32.4433
4321 1 43.5215 30.8607 34.0259
4322 1 41.9389 29.2781 35.6085
4323 1 43.5215 30.8607 37.1911
4324 1 41.9389 29.2781 38.7737
4325 1 43.5215 30.8607 40.3563
4326 1 41.9389 29.2781 41.9389
4327 1 43.5215 30.8607 43.5215
4328 1 41.9389 29.2781 45.1041
4329 1 43.5215 30.8607 46.6867
4330 1 41.9389 29.2781 48.2693
4331 1 43.5215 30.8607 49.8519
4332 1 41.9389 32.4433 0.7913
4333 1 43.5215 34.0259 2.3739
4334 1 41.9389 32.4433 3.9565
4335 1 43.5215 34.0259 5.5391
4336 1 41.9389 32.4433 7.1217
4337 1 43.5215 34.0259 8.7043
4338 1 41.9389 32.4433 10.2869
4339 1 43.5215 34.0259 11.8695
4340 1 41.9389 32.4433 13.4521
4341 1 43.5215 34.0259 15.0347
4342 1 41.9389 32.4433 16.6173
4343 1 43.5215 34.0259 18.1999
4344 1 41.9389 32.4433 19.7825
4345 1 43.5215 34.0259 21.3651
4346 1 41.9389 32.4433 22.9477
4347 1 43.5215 34.0259 24.5303
4348 1 41.9389 32.4433 26.1129
4349 1 43.5215 34.0259 27.6955
4350 1 41.9389 32.4433 29.2781
4351 1 43.5215 34.0259 30.8607
4352 1 41.9389 32.4433 32.4433
4353 1 43.5215 34.0259 34.0259
4354 1 41.9389 32.4433 35.6085
4355 1 43.5215 34.0259 37.1911
4356 1 41.9389 32.4433 38.7737
4357 1 43.5215 34.0259 40.3563
4358 1 41.9389 32.4433 41.9389
4359 1 43.5215 34.0259 43.5215
4360 1 41.9389 32.4433 45.1041
4361 1 43.5215 34.0259 46.6867
4362 1 41.9389 32.4433 48.2693
4363 1 43.5215 34.0259 49.8519
4364 1 41.9389 35.6085 0.7913
4365 1 43.5215 37.1911 2.3739
4366 1 41.9389 35.6085 3.9565
4367 1 43.5215 37.1911 5.5391
4368 1 41.9389 35.6085 7.1217
4369 1 43.5215 37.1911 8.7043
4370 1 41.9389 35.6085 10.2869
4371 1 43.5215 37.1911 11.8695
4372 1 41.9389 35.6085 13.4521
4373 1 43.5215 37.1911 15.0347
4374 1 41.9389 35.6085 16.6173
4375 1 43.5215 37.1911 18.1999
4376 1 41.9389 35.6085 19.7825
4377 1 43.5215 37.1911 21.3651
4378 1 41.9389 35.6085 22.9477
4379 1 43.5215 37.1911 24.5303
4380 1 41.9389 35.6085 26.1129
4381 1 43.5215 37.1911 27.6955
4382 1 41.9389 35.6085 29.2781
4383 1 43.5215 37.1911 30.8607
4384 1 41.9389 35.6085 32.4433
4385 1 43.5215 37.1911 34.0259
4386 1 41.9389 35.6085 35.6085
4387 1 43.5215 37.1911 37.1911
4388 1 41.9389 35.6085 38.7737
4389 1 43.5215 37.1911 40.3563
4390 1 41.9389 35.6085 41.9389
4391 1 43.5215 37.1911 43.5215
4392 1 41.9389 35.6085 45.1041
4393 1 43.5215 37.1911 46.6867
4394 1 41.9389 35.6085 48.2693
4395 1 43.5215 37.1911 49.8519
4396 1 41.9389 38.7737 0.7913
4397 1 43.5215 40.3563 2.3739
4398 1 41.9389 38.7737 3.9565
4399 1 43.5215 40.3563 5.5391
4400 1 41.9389 38.7737 7.1217
4401 1 43.5215 40.3563 8.7043
4402 1 41.9389 38.7737 10.2869
4403 1 43.5215 40.3563 11.8695
4404 1 41.9389 38.7737 13.4521
4405 1 43.5215 40.3563 15.0347
4406 1 41.9389 38.7737 16.6173
4407 1 43.5215 40.3563 18.1999
4408 1 41.9389 38.7737 19.7825
4409 1 43.5215 40.3563 21.3651
4410 1 41.9389 38.7737 22.9477
4411 1 43.5215 40.3563 24.5303
4412 1 41.9389 38.7737 26.1129
4413 1 43.5215 40.3563 27.6955
4414 1 41.9389 38.7737 29.2781
4415 1 43.5215 40.3563 30.8607
4416 1 41.9389 38.7737 32.4433
4417 1 43.5215 40.3563 34.0259
4418 1 41.9389 38.7737 35.6085
4419 1 43.5215 40.3563 37.1911
4420 1 41.9389 38.7737 38.7737
4421 1 43.5215 40.3563 40.3563
4422 1 41.9389 38.7737 41.9389
4423 1 43.5215 40.3563 43.5215
4424 1 41.9389 38.7737 45.1041
4425 1 43.5215 40.3563 46.6867
4426 1 41.9389 38.7737 48.2693
4427 1 43.5215 40.3563 49.8519
4428 1 41.9389 41.9389 0.7913
4429 1 43.5215 43.5215 2.3739
4430 1 41.9389 41.9389 3.9565
4431 1 43.5215 43.5215 5.5391
4432 1 41.9389 41.9389 7.1217
4433 1 43.5215 43.5215 8.7043
4434 1 41.9389 41.9389 10.2869
4435 1 43.5215 43.5215 11.8695
4436 1 41.9389 41.9389 13.4521
4437 1 43.5215 43.5215 15.0347
4438 1 41.9389 41.9389 16.6173
4439 1 43.5215 43.5215 18.1999
4440 1 41.9389 41.9389 19.7825
4441 1 43.5215 43.5215 21.3651
4442 1 41.9389 41.9389 22.9477
4443 1 43.5215 43.5215 24.5303
4444 1 41.9389 41.9389 26.1129
4445 1 43.5215 43.5215 27.6955
4446 1 41.9389 41.9389 29.2781
4447 1 43.5215 43.5215 30.8607
4448 1 41.9389 41.9389 32.4433
4449 1 43.5215 43.5215 34.0259
4450 1 41.9389 41.9389 35.6085
4451 1 43.5215 43.5215 37.1911
4452 1 41.9389 41.9389 38.7737
4453 1 43.5215 43.5215 40.3563
4454 1 41.9389 41.9389 41.9389
4455 1 43.5215 43.5215 43.5215
4456 1 41.9389 41.9389 45.1041
4457 1 43.5215 43.5215 46.6867
4458 1 41.9389 41.9389 48.2693
4459 1 43.5215 43.5215 49.8519
4460 1 41.9389 45.1041 0.7913
4461 1 43.5215 46.6867 2.3739
4462 1 41.9389 45.1041 3.9565
4463 1 43.5215 46.6867 5.5391
4464 1 41.9389 45.1041 7.1217
4465 1 43.5215 46.6867 8.7043
4466 1 41.9389 45.1041 10.2869
4467 1 43.5215 46.6867 11.8695
4468 1 41.9389 45.1041 13.4521
4469 1 43.5215 46.6867 15.0347
4470 1 41.9389 45.1041 16.6173
4471 1 43.5215 46.6867 18.1999
4472 1 41.9389 45.1041 19.7825
4473 1 43.5215 46.6867 21.3651
4474 1 41.9389 45.1041 22.9477
4475 1 43.5215 46.6867 24.5303
4476 1 41.9389 45.1041 26.1129
4477 1 43.5215 46.6867 27.6955
4478 1 41.9389 45.1041 29.2781
4479 1 43.5215 46.6867 30.8607
4480 1 41.9389 45.1041 32.4433
4481 1 43.5215 46.6867 34.0259
4482 1 41.9389 45.1041 35.6085
4483 1 43.5215 46.6867 37.1911
4484 1 41.9389 45.1041 38.7737
4485 1 43.5215 46.6867 40.3563
4486 1 41.9389 45.1041 41.9389
4487 1 43.5215 46.6867 43.5215
4488 1 41.9389 45.1041 45.1041
4489 1 43.5215 46.6867 46.6867
4490 1 41.9389 45.1041 48.2693
4491 1 43.5215 46.6867 49.8519
4492 1 41.9389 48.2693 0.7913
4493 1 43.5215 49.8519 2.3739
4494 1 41.9389 48.2693 3.9565
4495 1 43.5215 49.8519 5.5391
4496 1 41.9389 48.2693 7.1217
4497 1 43.5215 49.8519 8.7043
4498 1 41.9389 48.2693 10.2869
4499 1 43.5215 49.8519 11.8695
4500 1 41.9389 48.2693 13.4521
4501 1 43.5215 49.8519 15.0347
4502 1 41.9389 48.2693 16.6173
4503 1 43.5215 49.8519 18.1999
4504 1 41.9389 48.2693 19.7825
4505 1 43.5215 49.8519 21.3651
4506 1 41.9389 48.2693 22.9477
4507 1 43.5215 49.8519 24.5303
4508 1 41.9389 48.2693 26.1129
4509 1 43.5215 49.8519 27.6955
4510 1 41.9389 48.2693 29.2781
4511 1 43.5215 49.8519 30.8607
4512 1 41.9389 48.2693 32.4433
4513 1 43.5215 49.8519 34.0259
4514 1 41.9389 48.2693 35.6085
4515 1 43.5215 49.8519 37.1911
4516 1 41.9389 48.2693 38.7737
4517 1 43.5215 49.8519 40.3563
4518 1 41.9389 48.2693 41.9389
4519 1 43.5215 49.8519 43.5215
4520 1 41.9389 48.2693 45.1041
4521 1 43.5215 49.8519 46.6867
4522 1 41.9389 48.2693 48.2693
4523 1 43.5215 49.8519 49.8519
4524 1 45.1041 0.7913 0.7913
4525 1 46.6867 2.3739 2.3739
4526 1 45.1041 0.7913 3.9565
4527 1 46.6867 2.3739 5.5391
4528 1 45.1041 0.7913 7.1217
4529 1 46.6867 2.3739 8.7043
4530 1 45.1041 0.7913 10.2869
4531 1 46.6867 2.3739 11.8695
4532 1 45.1041 0.7913 13.4521
4533 1 46.6867 2.3739 15.0347
4534 1 45.1041 0.7913 16.6173
4535 1 46.6867 2.3739 18.1999
4536 1 45.1041 0.7913 19.7825
4537 1 46.6867 2.3739 21.3651
4538 1 45.1041 0.7913 22.9477
4539 1 46.6867 2.3739 24.5303
4540 1 45.1041 0.7913 26.1129
4541 1 46.6867 2.3739 27.6955
4542 1 45.1041 0.7913 29.2781
4543 1 46.6867 2.3739 30.8607
4544 1 45.1041 0.7913 32.4433
4545 1 46.6867 2.3739 34.0259
4546 1 45.1041 0.7913 35.6085
4547 1 46.6867 2.3739 37.1911
4548 1 45.1041 0.7913 38.7737
4549 1 46.6867 2.3739 40.3563
4550 1 45.1041 0.7913 41.9389
4551 1 46.6867 2.3739 43.5215
4552 1 45.1041 0.7913 45.1041
4553 1 46.6867 2.3739 46.6867
4554 1 45.1041 0.7913 48.2693
4555 1 46.6867 2.3739 49.8519
4556 1 45.1041 3.9565 0.7913
4557 1 46.6867 5.5391 2.3739
4558 1 45.1041 3.9565 3.9565
4559 1 46.6867 5.5391 5.5391
4560 1 45.1041 3.9565 7.1217
4561 1 46.6867 5.5391 8.7043
4562 1 45.1041 3.9565 10.2869
4563 1 46.6867 5.5391 11.8695
4564 1 45.1041 3.9565 13.4521
4565 1 46.6867 5.5391 15.0347
4566 1 45.1041 3.9565 16.6173
4567 1 46.6867 5.5391 18.1999
4568 1 45.1041 3.9565 19.7825
4569 1 46.6867 5.5391 21.3651
4570 1 45.1041 3.9565 22.9477
4571 1 46.6867 5.5391 24.5303
4572 1 45.1041 3.9565 26.1129
4573 1 46.6867 5.5391 27.6955
4574 1 45.1041 3.9565 29.2781
4575 1 46.6867 5.5391 30.8607
4576 1 45.1041 3.9565 32.4433
4577 1 46.6867 5.5391 34.0259
4578 1 45.1041 3.9565 35.6085
4579 1 46.6867 5.5391 37.1911
4580 1 45.1041 3.9565 38.7737
4581 1 46.6867 5.5391 40.3563
4582 1 45.1041 3.9565 41.9389
4583 1 46.6867 5.5391 43.5215
4584 1 45.1041 3.9565 45.1041
4585 1 46.6867 5.5391 46.6867
4586 1 45.1041 3.9565 48.2693
4587 1 46.6867 5.5391 49.8519
4588 1 45.1041 7.1217 0.7913
4589 1 46.6867 8.7043 2.3739
4590 1 45.1041 7.1217 3.9565
4591 1 46.6867 8.7043 5.5391
4592 1 45.1041 7.1217 7.1217
4593 1 46.6867 8.7043 8.7043
4594 1 45.1041 7.1217 10.2869
4595 1 46.6867 8.7043 11.8695
4596 1 45.1041 7.1217 13.4521
4597 1 46.6867 8.7043 15.0347
4598 1 45.1041 7.1217 16.6173
4599 1 46.6867 8.7043 18.1999
4600 1 45.1041 7.1217 19.7825
4601 1 46.6867 8.7043 21.3651
4602 1 45.1041 7.1217 22.9477
4603 1 46.6867 8.7043 24.5303
4604 1 45.1041 7.1217 26.1129
4605 1 46.6867 8.7043 27.6955
4606 1 45.1041 7.1217 29.2781
4607 1 46.6867 8.7043 30.8607
4608 1 45.1041 7.1217 32.4433
4609 1 46.6867 8.7043 34.0259
4610 1 45.1041 7.1217 35.6085
4611 1 46.6867 8.7043 37.1911
4612 1 45.1041 7.1217 38.7737
4613 1 46.6867 8.7043 40.3563
4614 1 45.1041 7.1217 41.9389
4615 1 46.6867 8.7043 43.5215
4616 1 45.1041 7.1217 45.1041
4617 1 46.6867 8.7043 46.6867
4618 1 45.1041 7.1217 48.2693
4619 1 46.6867 8.7043 49.8519
4620 1 45.1041 10.2869 0.7913
4621 1 46.6867 11.8695 2.3739
4622 1 45.1041 10.2869 3.9565
4623 1 46.6867 11.8695 5.5391
4624 1 45.1041 10.2869 7.1217
4625 1 46.6867 11.8695 8.7043
4626 1 45.1041 10.2869 10.2869
4627 1 46.6867 11.8695 11.8695
4628 1 45.1041 10.2869 13.4521
4629 1 46.6867 11.8695 15.0347
4630 1 45.1041 10.2869 16.6173
4631 1 46.6867 11.8695 18.1999
4632 1 45.1041 10.2869 19.7825
4633 1 46.6867 11.8695 21.3651
4634 1 45.1041 10.2869 22.9477
4635 1 46.6867 11.8695 24.5303
4636 1 45.1041 10.2869 26.1129
4637 1 46.6867 11.8695 27.6955
4638 1 45.1041 10.2869 29.2781
4639 1 46.6867 11.8695 30.8607
4640 1 45.1041 10.2869 32.4433
4641 1 46.6867 11.8695 34.0259
4642 1 45.1041 10.2869 35.6085
4643 1 46.6867 11.8695 37.1911
4644 1 45.1041 10.2869 38.7737
4645 1 46.6867 11.8695 40.3563
4646 1 45.1041 10.2869 41.9389
4647 1 46.6867 11.8695 43.5215
4648 1 45.1041 10.2869 45.1041
4649 1 46.6867 11.8695 46.6867
4650 1 45.1041 10.2869 48.2693
4651 1 46.6867 11.8695 49.8519
4652 1 45.1041 13.4521 0.7913
4653 1 46.6867 15.0347 2.3739
4654 1 45.1041 13.4521 3.9565
4655 1 46.6867 15.0347 5.5391
4656 1 45.1041 13.4521 7.1217
4657 1 46.6867 15.0347 8.7043
4658 1 45.1041 13.4521 10.2869
4659 1 46.6867 15.0347 11.8695
4660 1 45.1041 13.4521 13.4521
4661 1 46.6867 15.0347 15.0347
4662 1 45.1041 13.4521 16.6173
4663 1 46.6867 15.0347 18.1999
4664 1 45.1041 13.4521 19.7825
4665 1 46.6867 15.0347 21.3651
4666 1 45.1041 13.4521 22.9477
4667 1 46.6867 15.0347 24.5303
4668 1 45.1041 13.4521 26.1129
4669 1 46.6867 15.0347 27.6955
4670 1 45.1041 13.4521 29.2781
4671 1 46.6867 15.0347 30.8607
4672 1 45.1041 13.4521 32.4433
4673 1 46.6867 15.0347 34.0259
4674 1 45.1041 13.4521 35.6085
4675 1 46.6867 15.0347 37.1911
4676 1 45.1041 13.4521 38.7737
4677 1 46.6867 15.0347 40.3563
4678 1 45.1041 13.4521 41.9389
4679 1 46.6867 15.0347 43.5215
4680 1 45.1041 13.4521 45.1041
4681 1 46.6867 15.0347 46.6867
4682 1 45.1041 13.4521 48.2693
4683 1 46.6867 15.0347 49.8519
4684 1 45.1041 16.6173 0.7913
4685 1 46.6867 18.1999 2.3739
4686 1 45.1041 16.6173 3.9565
4687 1 46.6867 18.1999 5.5391
4688 1 45.1041 16.6173 7.1217
4689 1 46.6867 18.1999 8.7043
4690 1 45.1041 16.6173 10.2869
4691 1 46.6867 18.1999 11.8695
4692 1 45.1041 16.6173 13.4521
4693 1 46.6867 18.1999 15.0347
4694 1 45.1041 16.6173 16.6173
4695 1 46.6867 18.1999 18.1999
4696 1 45.1041 16.6173 19.7825
4697 1 46.6867 18.1999 21.3651
4698 1 45.1041 16.6173 22.9477
4699 1 46.6867 18.1999 24.5303
4700 1 45.1041 16.6173 26.1129
4701 1 46.6867 18.1999 27.6955
4702 1 45.1041 16.6173 29.2781
4703 1 46.6867 18.1999 30.8607
4704 1 45.1041 16.6173 32.4433
4705 1 46.6867 18.1999 34.0259
4706 1 45.1041 16.6173 35.6085
4707 1 46.6867 18.1999 37.1911
4708 1 45.1041 16.6173 38.7737
4709 1 46.6867 18.1999 40.3563
4710 1 45.1041 16.6173 41.9389
4711 1 46.6867 18.1999 43.5215
4712 1 45.1041 16.6173 45.1041
4713 1 46.6867 18.1999 46.6867
4714 1 45.1041 16.6173 48.2693
4715 1 46.6867 18.1999 49.8519
4716 1 45.1041 19.7825 0.7913
4717 1 46.6867 21.3651 2.3739
4718 1 45.1041 19.7825 3.9565
4719 1 46.6867 21.3651 5.5391
4720 1 45.1041 19.7825 7.1217
4721 1 46.6867 21.3651 8.7043
4722 1 45.1041 19.7825 10.2869
4723 1 46.6867 21.3651 11.8695
4724 1 45.1041 19.7825 13.4521
4725 1 46.6867 21.3651 15.0347
4726 1 45.1041 19.7825 16.6173
4727 1 46.6867 21.3651 18.1999
4728 1 45.1041 19.7825 19.7825
4729 1 46.6867 21.3651 21.3651
4730 1 45.1041 19.7825 22.9477
4731 1 46.6867 21.3651 24.5303
4732 1 45.1041 19.7825 26.1129
4733 1 46.6867 21.3651 27.6955
4734 1 45.1041 19.7825 29.2781
4735 1 46.6867 21.3651 30.8607
4736 1 45.1041 19.7825 32.4433
4737 1 46.6867 21.3651 34.0259
4738 1 45.1041 19.7825 35.6085
4739 1 46.6867 21.3651 37.1911
4740 1 45.1041 19.7825 38.7737
4741 1 46.6867 21.3651 40.3563
4742 1 45.1041 19.7825 41.9389
4743 1 46.6867 21.3651 43.5215
4744 1 45.1041 19.7825 45.1041
4745 1 46.6867 21.3651 46.6867
4746 1 45.1041 19.7825 48.2693
4747 1 46.6867 21.3651 49.8519
4748 1 45.1041 22.9477 0.7913
4749 1 46.6867 24.5303 2.3739
4750 1 45.1041 22.9477 3.9565
4751 1 46.6867 24.5303 5.5391
4752 1 45.1041 22.9477 7.1217
4753 1 46.6867 24.5303 8.7043
4754 1 45.1041 22.9477 10.2869
4755 1 46.6867 24.5303 11.8695
4756 1 45.1041 22.9477 13.4521
4757 1 46.6867 24.5303 15.0347
4758 1 45.1041 22.9477 16.6173
4759 1 46.6867 24.5303 18.1999
4760 1 45.1041 22.9477 19.7825
4761 1 46.6867 24.5303 21.3651
4762 1 45.1041 22.9477 22.9477
4763 1 46.6867 24.5303 24.5303
4764 1 45.1041 22.9477 26.1129
4765 1 46.6867 24.5303 27.6955
4766 1 45.1041 22.9477 29.2781
4767 1 46.6867 24.5303 30.8607
4768 1 45.1041 22.9477 32.4433
4769 1 46.6867 24.5303 34.0259
4770 1 45.1041 22.9477 35.6085
4771 1 46.6867 24.5303 37.1911
4772 1 45.1041 22.9477 38.7737
4773 1 46.6867 24.5303 40.3563
4774 1 45.1041 22.9477 41.9389
4775 1 46.6867 24.5303 43.5215
4776 1 45.1041 22.9477 45.1041
4777 1 46.6867 24.5303 46.6867
4778 1 45.1041 22.9477 48.2693
4779 1 46.6867 24.5303 49.8519
4780 1 45.1041 26.1129 0.7913
4781 1 46.6867 27.6955 2.3739
4782 1 45.1041 26.1129 3.9565
4783 1 46.6867 27.6955 5.5391
4784 1 45.1041 26.1129 7.1217
4785 1 46.6867 27.6955 8.7043
4786 1 45.1041 26.1129 10.2869
4787 1 46.6867 27.6955 11.8695
4788 1 45.1041 26.1129 13.4521
4789 1 46.6867 27.6955 15.0347
4790 1 45.1041 26.1129 16.6173
4791 1 46.6867 27.6955 18.1999
4792 1 45.1041 26.1129 19.7825
4793 1 46.6867 27.6955 21.3651
4794 1 45.1041 26.1129 22.9477
4795 1 46.6867 27.6955 24.5303
4796 1 45.1041 26.1129 26.1129
4797 1 46.6867 27.6955 27.6955
4798 1 45.1041 26.1129 29.2781
4799 1 46.6867 27.6955 30.8607
4800 1 45.1041 26.1129 32.4433
4801 1 46.6867 27.6955 34.0259
4802 1 45.1041 26.1129 35.6085
4803 1 46.6867 27.6955 37.1911
4804 1 45.1041 26.1129 38.7737
4805 1 46.6867 27.6955 40.3563
4806 1 45.1041 26.1129 41.9389
4807 1 46.6867 27.6955 43.5215
4808 1 45.1041 26.1129 45.1041
4809 1 46.6867 27.6955 46.6867
4810 1 45.1041 26.1129 48.2693
4811 1 46.6867 27.6955 49.8519
4812 1 45.1041 29.2781 0.7913
4813 1 46.6867 30.8607 2.3739
4814 1 45.1041 29.2781 3.9565
4815 1 46.6867 30.8607 5.5391
4816 1 45.1041 29.2781 7.1217
4817 1 46.6867 30.8607 8.7043
4818 1 45.1041 29.2781 10.2869
4819 1 46.6867 30.8607 11.8695
4820 1 45.1041 29.2781 13.4521
4821 1 46.6867 30.8607 15.0347
4822 1 45.1041 29.2781 16.6173
4823 1 46.6867 30.8607 18.1999
4824 1 45.1041 29.2781 19.7825
4825 1 46.6867 30.8607 21.3651
4826 1 45.1041 29.2781 22.9477
4827 1 46.6867 30.8607 24.5303
4828 1 45.1041 29.2781 26.1129
4829 1 46.6867 30.8607 27.6955
4830 1 45.1041 29.2781 29.2781
4831 1 46.6867 30.8607 30.8607
4832 1 45.1041 29.2781 32.4433
4833 1 46.6867 30.8607 34.0259
4834 1 45.1041 29.2781 35.6085
4835 1 46.6867 30.8607 37.1911
4836 1 45.1041 29.2781 38.7737
4837 1 46.6867 30.8607 40.3563
4838 1 45.1041 29.2781 41.9389
4839 1 46.6867 30.8607 43.5215
4840 1 45.1041 29.2781 45.1041
4841 1 46.6867 30.8607 46.6867
4842 1 45.1041 29.2781 48.2693
4843 1 46.6867 30.8607 49.8519
4844 1 45.1041 32.4433 0.7913
4845 1 46.6867 34.0259 2.3739
4846 1 45.1041 32.4433 3.9565
4847 1 46.6867 34.0259 5.5391
4848 1 45.1041 32.4433 7.1217
4849 1 46.6867 34.0259 8.7043
4850 1 45.1041 32.4433 10.2869
4851 1 46.6867 34.0259 11.8695
4852 1 45.1041 32.4433 13.4521
4853 1 46.6867 34.0259 15.0347
4854 1 45.1041 32.4433 16.6173
4855 1 46.6867 34.0259 18.1999
4856 1 45.1041 32.4433 19.7825
4857 1 46.6867 34.0259 21.3651
4858 1 45.1041 32.4433 22.9477
4859 1 46.6867 34.0259 24.5303
4860 1 45.1041 32.4433 26.1129
4861 1 46.6867 34.0259 27.6955
4862 1 45.1041 32.4433 29.2781
4863 1 46.6867 34.0259 30.8607
4864 1 45.1041 32.4433 32.4433
4865 1 46.6867 34.0259 34.0259
4866 1 45.1041 32.4433 35.6085
4867 1 46.6867 34.0259 37.1911
4868 1 45.1041 32.4433 38.7737
4869 1 46.6867 34.0259 40.3563
4870 1 45.1041 32.4433 41.9389
4871 1 46.6867 34.0259 43.5215
4872 1 45.1041 32.4433 45.1041
4873 1 46.6867 34.0259 46.6867
4874 1 45.1041 32.4433 48.2693
4875 1 46.6867 34.0259 49.8519
4876 1 45.1041 35.6085 0.7913
4877 1 46.6867 37.1911 2.3739
4878 1 45.1041 35.6085 3.9565
4879 1 46.6867 37.1911 5.5391
4880 1 45.1041 35.6085 7.1217
4881 1 46.6867 37.1911 8.7043
4882 1 45.1041 35.6085 10.2869
4883 1 46.6867 37.1911 11.8695
4884 1 45.1041 35.6085 13.4521
4885 1 46.6867 37.1911 15.0347
4886 1 45.1041 35.6085 16.6173
4887 1 46.6867 37.1911 18.1999
4888 1 45.1041 35.6085 19.7825
4889 1 46.6867 37.1911 21.3651
4890 1 45.1041 35.6085 22.9477
4891 1 46.6867 37.1911 24.5303
4892 1 45.1041 35.6085 26.1129
4893 1 46.6867 37.1911 27.6955
4894 1 45.1041 35.6085 29.2781
4895 1 46.6867 37.1911 30.8607
4896 1 45.1041 35.6085 32.4433
4897 1 46.6867 37.1911 34.0259
4898 1 45.1041 35.6085 35.6085
4899 1 46.6867 37.1911 37.1911
4900 1 45.1041 35.6085 38.7737
4901 1 46.6867 37.1911 40.3563
4902 1 45.1041 35.6085 41.9389
4903 1 46.6867 37.1911 43.5215
4904 1 45.1041 35.6085 45.1041
4905 1 46.6867 37.1911 46.6867
4906 1 45.1041 35.6085 48.2693
4907 1 46.6867 37.1911 49.8519
4908 1 45.1041 38.7737 0.7913
4909 1 46.6867 40.3563 2.3739
4910 1 45.1041 38.7737 3.9565
4911 1 46.6867 40.3563 5.5391
4912 1 45.1041 38.7737 7.1217
4913 1 46.6867 40.3563 8.7043
4914 1 45.1041 38.7737 10.2869
4915 1 46.6867 40.3563 11.8695
4916 1 45.1041 38.7737 13.4521
4917 1 46.6867 40.3563 15.0347
4918 1 45.1041 38.7737 16.6173
4919 1 46.6867 40.3563 18.1999
4920 1 45.1041 38.7737 19.7825
4921 1 46.6867 40.3563 21.3651
4922 1 45.1041 38.7737 22.9477
4923 1 46.6867 40.3563 24.5303
4924 1 45.1041 38.7737 26.1129
4925 1 46.6867 40.3563 27.6955
4926 1 45.1041 38.7737 29.2781
4927 1 46.6867 40.3563 30.8607
4928 1 45.1041 38.7737 32.4433
4929 1 46.6867 40.3563 34.0259
4930 1 45.1041 38.7737 35.6085
4931 1 46.6867 40.3563 37.1911
4932 1 45.1041 38.7737 38.7737
4933 1 46.6867 40.3563 40.3563
4934 1 45.1041 38.7737 41.9389
4935 1 46.6867 40.3563 43.5215
4936 1 45.1041 38.7737 45.1041
4937 1 46.6867 40.3563 46.6867
4938 1 45.1041 38.7737 48.2693
4939 1 46.6867 40.3563 49.8519
4940 1 45.1041 41.9389 0.7913
4941 1 46.6867 43.5215 2.3739
4942 1 45.1041 41.9389 3.9565
4943 1 46.6867 43.5215 5.5391
4944 1 45.1041 41.9389 7.1217
4945 1 46.6867 43.5215 8.7043
4946 1 45.1041 41.9389 10.2869
4947 1 46.6867 43.5215 11.8695
4948 1 45.1041 41.9389 13.4521
4949 1 46.6867 43.5215 15.0347
4950 1 45.1041 41.9389 16.6173
4951 1 46.6867 43.5215 18.1999
4952 1 45.1041 41.9389 19.7825
4953 1 46.6867 43.5215 21.3651
4954 1 45.1041 41.9389 22.9477
4955 1 46.6867 43.5215 24.5303
4956 1 45.1041 41.9389 26.1129
4957 1 46.6867 43.5215 27.6955
4958 1 45.1041 41.9389 29.2781
4959 1 46.6867 43.5215 30.8607
4960 1 45.1041 41.9389 32.4433
4961 1 46.6867 43.5215 34.0259
4962 1 45.1041 41.9389 35.6085
4963 1 46.6867 43.5215 37.1911
4964 1 45.1041 41.9389 38.7737
4965 1 46.6867 43.5215 40.3563
4966 1 45.1041 41.9389 41.9389
4967 1 46.6867 43.5215 43.5215
4968 1 45.1041 41.9389 45.1041
4969 1 46.6867 43.5215 46.6867
4970 1 45.1041 41.9389 48.2693
4971 1 46.6867 43.5215 49.8519
4972 1 45.1041 45.1041 0.7913
4973 1 46.6867 46.6867 2.3739
4974 1 45.1041 45.1041 3.9565
4975 1 46.6867 46.6867 5.5391
4976 1 45.1041 45.1041 7.1217
4977 1 46.6867 46.6867 8.7043
4978 1 45.1041 45.1041 10.2869
4979 1 46.6867 46.6867 11.8695
4980 1 45.1041 45.1041 13.4521
4981 1 46.6867 46.6867 15.0347
4982 1 45.1041 45.1041 16.6173
4983 1 46.6867 46.6867 18.1999
4984 1 45.1041 45.1041 19.7825
4985 1 46.6867 46.6867 21.3651
4986 1 45.1041 45.1041 22.9477
4987 1 46.6867 46.6867 24.5303
4988 1 45.1041 45.1041 26.1129
4989 1 46.6867 46.6867 27.6955
4990 1 45.1041 45.1041 29.2781
4991 1 46.6867 46.6867 30.8607
4992 1 45.1041 45.1041 32.4433
4993 1 46.6867 46.6867 34.0259
4994 1 45.1041 45.1041 35.6085
4995 1 46.6867 46.6867 37.1911
4996 1 45.1041 45.1041 38.7737
4997 1 46.6867 46.6867 40.3563
4998 1 45.1041 45.1041 41.9389
4999 1 46.6867 46.6867 43.5215
5000 1 45.1041 45.1041 45.1041
5001 1 46.6867 46.6867 46.6867
5002 1 45.1041 45.1041 48.2693
5003 1 46.6867 46.6867 49.8519
5004 1 45.1041 48.2693 0.7913
5005 1 46.6867 49.8519 2.3739
5006 1 45.1041 48.2693 3.9565
5007 1 46.6867 49.8519 5.5391
5008 1 45.1041 48.2693 7.1217
5009 1 46.6867 49.8519 8.7043
5010 1 45.1041 48.2693 10.2869
5011 1 46.6867 49.8519 11.8695
5012 1 45.1041 48.2693 13.4521
5013 1 46.6867 49.8519 15.0347
5014 1 45.1041 48.2693 16.6173
5015 1 46.6867 49.8519 18.1999
5016 1 45.1041 48.2693 19.7825
5017 1 46.6867 49.8519 21.3651
5018 1 45.1041 48.2693 22.9477
5019 1 46.6867 49.8519 24.5303
5020 1 45.1041 48.2693 26.1129
5021 1 46.6867 49.8519 27.6955
5022 1 45.1041 48.2693 29.2781
5023 1 46.6867 49.8519 30.8607
5024 1 45.1041 48.2693 32.4433
5025 1 46.6867 49.8519 34.0259
5026 1 45.1041 48.2693 35.6085
5027 1 46.6867 49.8519 37.1911
5028 1 45.1041 48.2693 38.7737
5029 1 46.6867 49.8519 40.3563
5030 1 45.1041 48.2693 41.9389
5031 1 46.6867 49.8519 43.5215
5032 1 45.1041 48.2693 45.1041
5033 1 46.6867 49.8519 46.6867
5034 1 45.1041 48.2693 48.2693
5035 1 46.6867 49.8519 49.8519
5036 1 48.2693 0.7913 0.7913
5037 1 49.8519 2.3739 2.3739
5038 1 48.2693 0.7913 3.9565
5039 1 49.8519 2.3739 5.5391
5040 1 48.2693 0.7913 7.1217
5041 1 49.8519 2.3739 8.7043
5042 1 48.2693 0.7913 10.2869
5043 1 49.8519 2.3739 11.8695
5044 1 48.2693 0.7913 13.4521
5045 1 49.8519 2.3739 15.0347
5046 1 48.2693 0.7913 16.6173
5047 1 49.8519 2.3739 18.1999
5048 1 48.2693 0.7913 19.7825
5049 1 49.8519 2.3739 21.3651
5050 1 48.2693 0.7913 22.9477
5051 1 49.8519 2.3739 24.5303
5052 1 48.2693 0.7913 26.1129
5053 1 49.8519 2.3739 27.6955
5054 1 48.2693 0.7913 29.2781
5055 1 49.8519 2.3739 30.8607
5056 1 48.2693 0.7913 32.4433
5057 1 49.8519 2.3739 34.0259
5058 1 48.2693 0.7913 35.6085
5059 1 49.8519 2.3739 37.1911
5060 1 48.2693 0.7913 38.7737
5061 1 49.8519 2.3739 40.3563
5062 1 48.2693 0.7913 41.9389
5063 1 49.8519 2.3739 43.5215
5064 1 48.2693 0.7913 45.1041
5065 1 49.8519 2.3739 46.6867
5066 1 48.2693 0.7913 48.2693
5067 1 49.8519 2.3739 49.8519
5068 1 48.2693 3.9565 0.7913
5069 1 49.8519 5.5391 2.3739
5070 1 48.2693 3.9565 3.9565
5071 1 49.8519 5.5391 5.5391
5072 1 48.2693 3.9565 7.1217
5073 1 49.8519 5.5391 8.7043
5074 1 48.2693 3.9565 10.2869
5075 1 49.8519 5.5391 11.8695
5076 1 48.2693 3.9565 13.4521
5077 1 49.8519 5.5391 15.0347
5078 1 48.2693 3.9565 16.6173
5079 1 49.8519 5.5391 18.1999
5080 1 48.2693 3.9565 19.7825
5081 1 49.8519 5.5391 21.3651
5082 1 48.2693 3.9565 22.9477
5083 1 49.8519 5.5391 24.5303
5084 1 48.2693 3.9565 26.1129
5085 1 49.8519 5.5391 27.6955
5086 1 48.2693 3.9565 29.2781
5087 1 49.8519 5.5391 30.8607
5088 1 48.2693 3.9565 32.4433
5089 1 49.8519 5.5391 34.0259
5090 1 48.2693 3.9565 35.6085
5091 1 49.8519 5.5391 37.1911
5092 1 48.2693 3.9565 38.7737
5093 1 49.8519 5.5391 40.3563
5094 1 48.2693 3.9565 41.9389
5095 1 49.8519 5.5391 43.5215
5096 1 48.2693 3.9565 45.1041
5097 1 49.8519 5.5391 46.6867
5098 1 48.2693 3.9565 48.2693
5099 1 49.8519 5.5391 49.8519
5100 1 48.2693 7.1217 0.7913
5101 1 49.8519 8.7043 2.3739
5102 1 48.2693 7.1217 3.9565
5103 1 49.8519 8.7043 5.5391
5104 1 48.2693 7.1217 7.1217
5105 1 49.8519 8.7043 8.7043
5106 1 48.2693 7.1217 10.2869
5107 1 49.8519 8.7043 11.8695
5108 1 48.2693 7.1217 13.4521
5109 1 49.8519 8.7043 15.0347
5110 1 48.2693 7.1217 16.6173
5111 1 49.8519 8.7043 18.1999
5112 1 48.2693 7.1217 19.7825
5113 1 49.8519 8.7043 21.3651
5114 1 48.2693 7.1217 22.9477
5115 1 49.8519 8.7043 24.5303
5116 1 48.2693 7.1217 26.1129
5117 1 49.8519 8.7043 27.6955
5118 1 48.2693 7.1217 29.2781
5119 1 49.8519 8.7043 30.8607
5120 1 48.2693 7.1217 32.4433
5121 1 49.8519 8.7043 34.0259
5122 1 48.2693 7.1217 35.6085
5123 1 49.8519 8.7043 37.1911
5124 1 48.2693 7.1217 38.7737
5125 1 49.8519 8.7043 40.3563
5126 1 48.2693 7.1217 41.9389
5127 1 49.8519 8.7043 43.5215
5128 1 48.2693 7.1217 45.1041
5129 1 49.8519 8.7043 46.6867
5130 1 48.2693 7.1217 48.2693
5131 1 49.8519 8.7043 49.8519
5132 1 48.2693 10.2869 0.7913
5133 1 49.8519 11.8695 2.3739
5134 1 48.2693 10.2869 3.9565
5135 1 49.8519 11.8695 5.5391
5136 1 48.2693 10.2869 7.1217
5137 1 49.8519 11.8695 8.7043
5138 1 48.2693 10.2869 10.2869
5139 1 49.8519 11.8695 11.8695
5140 1 48.2693 10.2869 13.4521
5141 1 49.8519 11.8695 15.0347
5142 1 48.2693 10.2869 16.6173
5143 1 49.8519 11.8695 18.1999
5144 1 48.2693 10.2869 19.7825
5145 1 49.8519 11.8695 21.3651
5146 1 48.2693 10.2869 22.9477
5147 1 49.8519 11.8695 24.5303
5148 1 48.2693 10.2869 26.1129
5149 1 49.8519 11.8695 27.6955
5150 1 48.2693 10.2869 29.2781
5151 1 49.8519 11.8695 30.8607
5152 1 48.2693 10.2869 32.4433
5153 1 49.8519 11.8695 34.0259
5154 1 48.2693 10.2869 35.6085
5155 1 49.8519 11.8695 37.1911
5156 1 48.2693 10.2869 38.7737
5157 1 49.8519 11.8695 40.3563
5158 1 48.2693 10.2869 41.9389
5159 1 49.8519 11.8695 43.5215
5160 1 48.2693 10.2869 45.1041
5161 1 49.8519 11.8695 46.6867
5162 1 48.2693 10.2869 48.2693
5163 1 49.8519 11.8695 49.8519
5164 1 48.2693 13.4521 0.7913
5165 1 49.8519 15.0347 2.3739
5166 1 48.2693 13.4521 3.9565
5167 1 49.8519 15.0347 5.5391
5168 1 48.2693 13.4521 7.1217
5169 1 49.8519 15.0347 8.7043
5170 1 48.2693 13.4521 10.2869
5171 1 49.8519 15.0347 11.8695
5172 1 48.2693 13.4521 13.4521
5173 1 49.8519 15.0347 15.0347
5174 1 48.2693 13.4521 16.6173
5175 1 49.8519 15.0347 18.1999
5176 1 48.2693 13.4521 19.7825
5177 1 49.8519 15.0347 21.3651
5178 1 48.2693 13.4521 22.9477
5179 1 49.8519 15.0347 24.5303
5180 1 48.2693 13.4521 26.1129
5181 1 49.8519 15.0347 27.6955
5182 1 48.2693 13.4521 29.2781
5183 1 49.8519 15.0347 30.8607
5184 1 48.2693 13.4521 32.4433
5185 1 49.8519 15.0347 34.0259
5186 1 48.2693 13.4521 35.6085
5187 1 49.8519 15.0347 37.1911
5188 1 48.2693 13.4521 38.7737
5189 1 49.8519 15.0347 40.3563
5190 1 48.2693 13.4521 41.9389
5191 1 49.8519 15.0347 43.5215
5192 1 48.2693 13.4521 45.1041
5193 1 49.8519 15.0347 46.6867
5194 1 48.2693 13.4521 48.2693
5195 1 49.8519 15.0347 49.8519
5196 1 48.2693 16.6173 0.7913
5197 1 49.8519 18.1999 2.3739
5198 1 48.2693 16.6173 3.9565
5199 1 49.8519 18.1999 5.5391
5200 1 48.2693 16.6173 7.1217
5201 1 49.8519 18.1999 8.7043
5202 1 48.2693 16.6173 10.2869
5203 1 49.8519 18.1999 11.8695
5204 1 48.2693 16.6173 13.4521
5205 1 49.8519 18.1999 15.0347
5206 1 48.2693 16.6173 16.6173
5207 1 49.8519 18.1999 18.1999
5208 1 48.2693 16.6173 19.7825
5209 1 49.8519 18.1999 21.3651
5210 1 48.2693 16.6173 22.9477
5211 1 49.8519 18.1999 24.5303
5212 1 48.2693 16.6173 26.1129
5213 1 49.8519 18.1999 27.6955
5214 1 48.2693 16.6173 29.2781
5215 1 49.8519 18.1999 30.8607
5216 1 48.2693 16.6173 32.4433
5217 1 49.8519 18.1999 34.0259
5218 1 48.2693 16.6173 35.6085
5219 1 49.8519 18.1999 37.1911
5220 1 48.2693 16.6173 38.7737
5221 1 49.8519 18.1999 40.3563
5222 1 48.2693 16.6173 41.9389
5223 1 49.8519 18.1999 43.5215
5224 1 48.2693 16.6173 45.1041
5225 1 49.8519 18.1999 46.6867
5226 1 48.2693 16.6173 48.2693
5227 1 49.8519 18.1999 49.8519
5228 1 48.2693 19.7825 0.7913
5229 1 49.8519 21.3651 2.3739
5230 1 48.2693 19.7825 3.9565
5231 1 49.8519 21.3651 5.5391
5232 1 48.2693 19.7825 7.1217
5233 1 49.8519 21.3651 8.7043
5234 1 48.2693 19.7825 10.2869
5235 1 49.8519 21.3651 11.8695
5236 1 48.2693 19.7825 13.4521
5237 1 49.8519 21.3651 15.0347
5238 1 48.2693 19.7825 16.6173
5239 1 49.8519 21.3651 18.1999
5240 1 48.2693 19.7825 19.7825
5241 1 49.8519 21.3651 21.3651
5242 1 48.2693 19.7825 22.9477
5243 1 49.8519 21.3651 24.5303
5244 1 48.2693 19.7825 26.1129
5245 1 49.8519 21.3651 27.6955
5246 1 48.2693 19.7825 29.2781
5247 1 49.8519 21.3651 30.8607
5248 1 48.2693 19.7825 32.4433
5249 1 49.8519 21.3651 34.0259
5250 1 48.2693 19.7825 35.6085
5251 1 49.8519 21.3651 37.1911
5252 1 48.2693 19.7825 38.7737
5253 1 49.8519 21.3651 40.3563
5254 1 48.2693 19.7825 41.9389
5255 1 49.8519 21.3651 43.5215
5256 1 48.2693 19.7825 45.1041
5257 1 49.8519 21.3651 46.6867
5258 1 48.2693 19.7825 48.2693
5259 1 49.8519 21.3651 49.8519
5260 1 48.2693 22.9477 0.7913
5261 1 49.8519 24.5303 2.3739
5262 1 48.2693 22.9477 3.9565
5263 1 49.8519 24.5303 5.5391
5264 1 48.2693 22.9477 7.1217
5265 1 49.8519 24.5303 8.7043
5266 1 48.2693 22.9477 10.2869
5267 1 49.8519 24.5303 11.8695
5268 1 48.2693 22.9477 13.4521
5269 1 49.8519 24.5303 15.0347
5270 1 48.2693 22.9477 16.6173
5271 1 49.8519 24.5303 18.1999
5272 1 48.2693 22.9477 19.7825
5273 1 49.8519 24.5303 21.3651
5274 1 48.2693 22.9477 22.9477
5275 1 49.8519 24.5303 24.5303
5276 1 48.2693 22.9477 26.1129
5277 1 49.8519 24.5303 27.6955
5278 1 48.2693 22.9477 29.2781
5279 1 49.8519 24.5303 30.8607
5280 1 48.2693 22.9477 32.4433
5281 1 49.8519 24.5303 34.0259
5282 1 48.2693 22.9477 35.6085
5283 1 49.8519 24.5303 37.1911
5284 1 48.2693 22.9477 38.7737
5285 1 49.8519 24.5303 40.3563
5286 1 48.2693 22.9477 41.9389
5287 1 49.8519 24.5303 43.5215
5288 1 48.2693 22.9477 45.1041
5289 1 49.8519 24.5303 46.6867
5290 1 48.2693 22.9477 48.2693
5291 1 49.8519 24.5303 49.8519
5292 1 48.2693 26.1129 0.7913
5293 1 49.8519 27.6955 2.3739
5294 1 48.2693 26.1129 3.9565
5295 1 49.8519 27.6955 5.5391
5296 1 48.2693 26.1129 7.1217
5297 1 49.8519 27.6955 8.7043
5298 1 48.2693 26.1129 10.2869
5299 1 49.8519 27.6955 11.8695
5300 1 48.2693 26.1129 13.4521
5301 1 49.8519 27.6955 15.0347
5302 1 48.2693 26.1129 16.6173
5303 1 49.8519 27.6955 18.1999
5304 1 48.2693 26.1129 19.7825
5305 1 49.8519 27.6955 21.3651
5306 1 48.2693 26.1129 22.9477
5307 1 49.8519 27.6955 24.5303
5308 1 48.2693 26.1129 26.1129
5309 1 49.8519 27.6955 27.6955
5310 1 48.2693 26.1129 29.2781
5311 1 49.8519 27.6955 30.8607
5312 1 48.2693 26.1129 32.4433
5313 1 49.8519 27.6955 34.0259
5314 1 48.2693 26.1129 35.6085
5315 1 49.8519 27.6955 37.1911
5316 1 48.2693 26.1129 38.7737
5317 1 49.8519 27.6955 40.3563
5318 1 48.2693 26.1129 41.9389
5319 1 49.8519 27.6955 43.5215
5320 1 48.2693 26.1129 45.1041
5321 1 49.8519 27.6955 46.6867
5322 1 48.2693 26.1129 48.2693
5323 1 49.8519 27.6955 49.8519
5324 1 48.2693 29.2781 0.7913
5325 1 49.8519 30.8607 2.3739
5326 1 48.2693 29.2781 3.9565
5327 1 49.8519 30.8607 5.5391
5328 1 48.2693 29.2781 7.1217
5329 1 49.8519 30.8607 8.7043
5330 1 48.2693 29.2781 10.2869
5331 1 49.8519 30.8607 11.8695
5332 1 48.2693 29.2781 13.4521
5333 1 49.8519 30.8607 15.0347
5334 1 48.2693 29.2781 16.6173
5335 1 49.8519 30.8607 18.1999
5336 1 48.2693 29.2781 19.7825
5337 1 49.8519 30.8607 21.3651
5338 1 48.2693 29.2781 22.9477
5339 1 49.8519 30.8607 24.5303
5340 1 48.2693 29.2781 26.1129
5341 1 49.8519 30.8607 27.6955
5342 1 48.2693 29.2781 29.2781
5343 1 49.8519 30.8607 30.8607
5344 1 48.2693 29.2781 32.4433
5345 1 49.8519 30.8607 34.0259
5346 1 48.2693 29.2781 35.6085
5347 1 49.8519 30.8607 37.1911
5348 1 48.2693 29.2781 38.7737
5349 1 49.8519 30.8607 40.3563
5350 1 48.2693 29.2781 41.9389
5351 1 49.8519 30.8607 43.5215
5352 1 48.2693 29.2781 45.1041
5353 1 49.8519 30.8607 46.6867
5354 1 48.2693 29.2781 48.2693
5355 1 49.8519 30.8607 49.8519
5356 1 48.2693 32.4433 0.7913
5357 1 49.8519 34.0259 2.3739
5358 1 48.2693 32.4433 3.9565
5359 1 49.8519 34.0259 5.5391
5360 1 48.2693 32.4433 7.1217
5361 1 49.8519 34.0259 8.7043
5362 1 48.2693 32.4433 10.2869
5363 1 49.8519 34.0259 11.8695
5364 1 48.2693 32.4433 13.4521
5365 1 49.8519 34.0259 15.0347
5366 1 48.2693 32.4433 16.6173
5367 1 49.8519 34.0259 18.1999
5368 1 48.2693 32.4433 19.7825
5369 1 49.8519 34.0259 21.3651
5370 1 48.2693 32.4433 22.9477
5371 1 49.8519 34.0259 24.5303
5372 1 48.2693 32.4433 26.1129
5373 1 49.8519 34.0259 27.6955
5374 1 48.2693 32.4433 29.2781
5375 1 49.8519 34.0259 30.8607
5376 1 48.2693 32.4433 32.4433
5377 1 49.8519 34.0259 34.0259
5378 1 48.2693 32.4433 35.6085
5379 1 49.8519 34.0259 37.1911
5380 1 48.2693 32.4433 38.7737
5381 1 49.8519 34.0259 40.3563
5382 1 48.2693 32.4433 41.9389
5383 1 49.8519 34.0259 43.5215
5384 1 48.2693 32.4433 45.1041
5385 1 49.8519 34.0259 46.6867
5386 1 48.2693 32.4433 48.2693
5387 1 49.8519 34.0259 49.8519
5388 1 48.2693 35.6085 0.7913
5389 1 49.8519 37.1911 2.3739
5390 1 48.2693 35.6085 3.9565
5391 1 49.8519 37.1911 5.5391
5392 1 48.2693 35.6085 7.1217
5393 1 49.8519 37.1911 8.7043
5394 1 48.2693 35.6085 10.2869
5395 1 49.8519 37.1911 11.8695
5396 1 48.2693 35.6085 13.4521
5397 1 49.8519 37.1911 15.0347
5398 1 48.2693 35.6085 16.6173
5399 1 49.8519 37.1911 18.1999
5400 1 48.2693 35.6085 19.7825
5401 1 49.8519 37.1911 21.3651
5402 1 48.2693 35.6085 22.9477
5403 1 49.8519 37.1911 24.5303
5404 1 48.2693 35.6085 26.1129
5405 1 49.8519 37.1911 27.6955
5406 1 48.2693 35.6085 29.2781
5407 1 49.8519 37.1911 30.8607
5408 1 48.2693 35.6085 32.4433
5409 1 49.8519 37.1911 34.0259
5410 1 48.2693 35.6085 35.6085
5411 1 49.8519 37.1911 37.1911
5412 1 48.2693 35.6085 38.7737
5413 1 49.8519 37.1911 40.3563
5414 1 48.2693 35.6085 41.9389
5415 1 49.8519 37.1911 43.5215
5416 1 48.2693 35.6085 45.1041
5417 1 49.8519 37.1911 46.6867
5418 1 48.2693 35.6085 48.2693
5419 1 49.8519 37.1911 49.8519
5420 1 48.2693 38.7737 0.7913
5421 1 49.8519 40.3563 2.3739
5422 1 48.2693 38.7737 3.9565
5423 1 49.8519 40.3563 5.5391
5424 1 48.2693 38.7737 7.1217
5425 1 49.8519 40.3563 8.7043
5426 1 48.2693 38.7737 10.2869
5427 1 49.8519 40.3563 11.8695
5428 1 48.2693 38.7737 13.4521
5429 1 49.8519 40.3563 15.0347
5430 1 48.2693 38.7737 16.6173
5431 1 49.8519 40.3563 18.1999
5432 1 48.2693 38.7737 19.7825
5433 1 49.8519 40.3563 21.3651
5434 1 48.2693 38.7737 22.9477
5435 1 49.8519 40.3563 24.5303
5436 1 48.2693 38.7737 26.1129
5437 1 49.8519 40.3563 27.6955
5438 1 48.2693 38.7737 29.2781
5439 1 49.8519 40.3563 30.8607
5440 1 48.2693 38.7737 32.4433
5441 1 49.8519 40.3563 34.0259
5442 1 48.2693 38.7737 35.6085
5443 1 49.8519 40.3563 37.1911
5444 1 48.2693 38.7737 38.7737
5445 1 49.8519 40.3563 40.3563
5446 1 48.2693 38.7737 41.9389
5447 1 49.8519 40.3563 43.5215
5448 1 48.2693 38.7737 45.1041
5449 1 49.8519 40.3563 46.6867
5450 1 48.2693 38.7737 48.2693
5451 1 49.8519 40.3563 49.8519
5452 1 48.2693 41.9389 0.7913
5453 1 49.8519 43.5215 2.3739
5454 1 48.2693 41.9389 3.9565
5455 1 49.8519 43.5215 5.5391
5456 1 48.2693 41.9389 7.1217
5457 1 49.8519 43.5215 8.7043
5458 1 48.2693 41.9389 10.2869
5459 1 49.8519 43.5215 11.8695
5460 1 48.2693 41.9389 13.4521
5461 1 49.8519 43.5215 15.0347
5462 1 48.2693 41.9389 16.6173
5463 1 49.8519 43.5215 18.1999
5464 1 48.2693 41.9389 19.7825
5465 1 49.8519 43.5215 21.3651
5466 1 48.2693 41.9389 22.9477
5467 1 49.8519 43.5215 24.5303
5468 1 48.2693 41.9389 26.1129
5469 1 49.8519 43.5215 27.6955
5470 1 48.2693 41.9389 29.2781
5471 1 49.8519 43.5215 30.8607
5472 1 48.2693 41.9389 32.4433
5473 1 49.8519 43.5215 34.0259
5474 1 48.2693 41.9389 35.6085
5475 1 49.8519 43.5215 37.1911
5476 1 48.2693 41.9389 38.7737
5477 1 49.8519 43.5215 40.3563
5478 1 48.2693 41.9389 41.9389
5479 1 49.8519 43.5215 43.5215
5480 1 48.2693 41.9389 45.1041
5481 1 49.8519 43.5215 46.6867
5482 1 48.2693 41.9389 48.2693
5483 1 49.8519 43.5215 49.8519
5484 1 48.2693 45.1041 0.7913
5485 1 49.8519 46.6867 2.3739
5486 1 48.2693 45.1041 3.9565
5487 1 49.8519 46.6867 5.5391
5488 1 48.2693 45.1041 7.1217
5489 1 49.8519 46.6867 8.7043
5490 1 48.2693 45.1041 10.2869
5491 1 49.8519 46.6867 11.8695
5492 1 48.2693 45.1041 13.4521
5493 1 49.8519 46.6867 15.0347
5494 1 48.2693 45.1041 16.6173
5495 1 49.8519 46.6867 18.1999
5496 1 48.2693 45.1041 19.7825
5497 1 49.8519 46.6867 21.3651
5498 1 48.2693 45.1041 22.9477
5499 1 49.8519 46.6867 24.5303
5500 1 48.2693 45.1041 26.1129
5501 1 49.8519 46.6867 27.6955
5502 1 48.2693 45.1041 29.2781
5503 1 49.8519 46.6867 30.8607
5504 1 48.2693 45.1041 32.4433
5505 1 49.8519 46.6867 34.0259
5506 1 48.2693 45.1041 35.6085
5507 1 49.8519 46.6867 37.1911
5508 1 48.2693 45.1041 38.7737
5509 1 49.8519 46.6867 40.3563
5510 1 48.2693 45.1041 41.9389
5511 1 49.8519 46.6867 43.5215
5512 1 48.2693 45.1041 45.1041
5513 1 49.8519 46.6867 46.6867
5514 1 48.2693 45.1041 48.2693
5515 1 49.8519 46.6867 49.8519
5516 1 48.2693 48.2693 0.7913
5517 1 49.8519 49.8519 2.3739
5518 1 48.2693 48.2693 3.9565
5519 1 49.8519 49.8519 5.5391
5520 1 48.2693 48.2693 7.1217
5521 1 49.8519 49.8519 8.7043
5522 1 48.2693 48.2693 10.2869
5523 1 49.8519 49.8519 11.8695
5524 1 48.2693 48.2693 13.4521
5525 1 49.8519 49.8519 15.0347
5526 1 48.2693 48.2693 16.6173
5527 1 49.8519 49.8519 18.1999
5528 1 48.2693 48.2693 19.7825
5529 1 49.8519 49.8519 21.3651
5530 1 48.2693 48.2693 22.9477
5531 1 49.8519 49.8519 24.5303
5532 1 48.2693 48.2693 26.1129
5533 1 49.8519 49.8519 27.6955
5534 1 48.2693 48.2693 29.2781
5535 1 49.8519 49.8519 30.8607
5536 1 48.2693 48.2693 32.4433
5537 1 49.8519 49.8519 34.0259
5538 1 48.2693 48.2693 35.6085
5539 1 49.8519 49.8519 37.1911
5540 1 48.2693 48.2693 38.7737
5541 1 49.8519 49.8519 40.3563
5542 1 48.2693 48.2693 41.9389
5543 1 49.8519 49.8519 43.5215
5544 1 48.2693 48.2693 45.1041
5545 1 49.8519 49.8519 46.6867
5546 1 48.2693 48.2693 48.2693
5547 1 49.8519 49.8519 49.8519
5548 1 16.6173 0.7913 0.7913
5549 1 18.1999 2.3739 2.3739
5550 1 16.6173 0.7913 3.9565
5551 1 18.1999 2.3739 5.5391
5552 1 16.6173 0.7913 7.1217
5553 1 18.1999 2.3739 8.7043
5554 1 16.6173 0.7913 10.2869
5555 1 18.1999 2.3739 11.8695
5556 1 16.6173 0.7913 13.4521
5557 1 18.1999 2.3739 15.0347
5558 1 16.6173 3.9565 0.7913
5559 1 18.1999 5.5391 2.3739
5560 1 16.6173 3.9565 3.9565
5561 1 18.1999 5.5391 5.5391
5562 1 16.6173 3.9565 7.1217
5563 1 18.1999 5.5391 8.7043
5564 1 16.6173 3.9565 10.2869
5565 1 18.1999 5.5391 11.8695
5566 1 16.6173 3.9565 13.4521
5567 1 18.1999 5.5391 15.0347
5568 1 16.6173 7.1217 0.7913
5569 1 18.1999 8.7043 2.3739
5570 1 16.6173 7.1217 3.9565
5571 1 18.1999 8.7043 5.5391
5572 1 16.6173 7.1217 7.1217
5573 1 18.1999 8.7043 8.7043
5574 1 16.6173 7.1217 10.2869
5575 1 18.1999 8.7043 11.8695
5576 1 16.6173 7.1217 13.4521
5577 1 18.1999 8.7043 15.0347
5578 1 16.6173 10.2869 0.7913
5579 1 18.1999 11.8695 2.3739
5580 1 16.6173 10.2869 3.9565
5581 1 18.1999 11.8695 5.5391
5582 1 16.6173 10.2869 7.1217
5583 1 18.1999 11.8695 8.7043
5584 1 16.6173 10.2869 10.2869
5585 1 18.1999 11.8695 11.8695
5586 1 16.6173 10.2869 13.4521
5587 1 18.1999 11.8695 15.0347
5588 1 16.6173 13.4521 0.7913
5589 1 18.1999 15.0347 2.3739
5590 1 16.6173 13.4521 3.9565
5591 1 18.1999 15.0347 5.5391
5592 1 16.6173 13.4521 7.1217
5593 1 18.1999 15.0347 8.7043
5594 1 16.6173 13.4521 10.2869
5595 1 18.1999 15.0347 11.8695
5596 1 16.6173 13.4521 13.4521
5597 1 18.1999 15.0347 15.0347
5598 1 16.6173 16.6173 0.7913
5599 1 18.1999 18.1999 2.3739
5600 1 16.6173 16.6173 3.9565
5601 1 18.1999 18.1999 5.5391
5602 1 16.6173 16.6173 7.1217
5603 1 18.1999 18.1999 8.7043
5604 1 16.6173 16.6173 10.2869
5605 1 18.1999 18.1999 11.8695
5606 1 16.6173 16.6173 13.4521
5607 1 18.1999 18.1999 15.0347
5608 1 16.6173 19.7825 0.7913
5609 1 18.1999 21.3651 2.3739
5610 1 16.6173 19.7825 3.9565
5611 1 18.1999 21.3651 5.5391
5612 1 16.6173 19.7825 7.1217
5613 1 18.1999 21.3651 8.7043
5614 1 16.6173 19.7825 10.2869
5615 1 18.1999 21.3651 11.8695
5616 1 16.6173 19.7825 13.4521
5617 1 18.1999 21.3651 15.0347
5618 1 16.6173 22.9477 0.7913
5619 1 18.1999 24.5303 2.3739
5620 1 16.6173 22.9477 3.9565
5621 1 18.1999 24.5303 5.5391
5622 1 16.6173 22.9477 7.1217
5623 1 18.1999 24.5303 8.7043
5624 1 16.6173 22.9477 10.2869
5625 1 18.1999 24.5303 11.8695
5626 1 16.6173 22.9477 13.4521
5627 1 18.1999 24.5303 15.0347
5628 1 16.6173 26.1129 0.7913
5629 1 18.1999 27.6955 2.3739
5630 1 16.6173 26.1129 3.9565
5631 1 18.1999 27.6955 5.5391
5632 1 16.6173 26.1129 7.1217
5633 1 18.1999 27.6955 8.7043
5634 1 16.6173 26.1129 10.2869
5635 1 18.1999 27.6955 11.8695
5636 1 16.6173 26.1129 13.4521
5637 1 18.1999 27.6955 15.0347
5638 1 16.6173 29.2781 0.7913
5639 1 18.1999 30.8607 2.3739
5640 1 16.6173 29.2781 3.9565
5641 1 18.1999 30.8607 5.5391
5642 1 16.6173 29.2781 7.1217
5643 1 18.1999 30.8607 8.7043
5644 1 16.6173 29.2781 10.2869
5645 1 18.1999 30.8607 11.8695
5646 1 16.6173 29.2781 13.4521
5647 1 18.1999 30.8607 15.0347
5648 1 16.6173 32.4433 0.7913
5649 1 18.1999 34.0259 2.3739
5650 1 16.6173 32.4433 3.9565
5651 1 18.1999 34.0259 5.5391
5652 1 16.6173 32.4433 7.1217
5653 1 18.1999 34.0259 8.7043
5654 1 16.6173 32.4433 10.2869
5655 1 18.1999 34.0259 11.8695
5656 1 16.6173 32.4433 13.4521
5657 1 18.1999 34.0259 15.0347
5658 1 16.6173 35.6085 0.7913
5659 1 18.1999 37.1911 2.3739
5660 1 16.6173 35.6085 3.9565
5661 1 18.1999 37.1911 5.5391
5662 1 16.6173 35.6085 7.1217
5663 1 18.1999 37.1911 8.7043
5664 1 16.6173 35.6085 10.2869
5665 1 18.1999 37.1911 11.8695
5666 1 16.6173 35.6085 13.4521
5667 1 18.1999 37.1911 15.0347
5668 1 16.6173 38.7737 0.7913
5669 1 18.1999 40.3563 2.3739
5670 1 16.6173 38.7737 3.9565
5671 1 18.1999 40.3563 5.5391
5672 1 16.6173 38.7737 7.1217
5673 1 18.1999 40.3563 8.7043
5674 1 16.6173 38.7737 10.2869
5675 1 18.1999 40.3563 11.8695
5676 1 16.6173 38.7737 13.4521
5677 1 18.1999 40.3563 15.0347
5678 1 16.6173 41.9389 0.7913
5679 1 18.1999 43.5215 2.3739
5680 1 16.6173 41.9389 3.9565
5681 1 18.1999 43.5215 5.5391
5682 1 16.6173 41.9389 7.1217
5683 1 18.1999 43.5215 8.7043
5684 1 16.6173 41.9389 10.2869
5685 1 18.1999 43.5215 11.8695
5686 1 16.6173 41.9389 13.4521
5687 1 18.1999 43.5215 15.0347
5688 1 16.6173 45.1041 0.7913
5689 1 18.1999 46.6867 2.3739
5690 1 16.6173 45.1041 3.9565
5691 1 18.1999 46.6867 5.5391
5692 1 16.6173 45.1041 7.1217
5693 1 18.1999 46.6867 8.7043
5694 1 16.6173 45.1041 10.2869
5695 1 18.1999 46.6867 11.8695
5696 1 16.6173 45.1041 13.4521
5697 1 18.1999 46.6867 15.0347
5698 1 16.6173 48.2693 0.7913
5699 1 18.1999 49.8519 2.3739
5700 1 16.6173 48.2693 3.9565
5701 1 18.1999 49.8519 5.5391
5702 1 16.6173 48.2693 7.1217
5703 1 18.1999 49.8519 8.7043
5704 1 16.6173 48.2693 10.2869
5705 1 18.1999 49.8519 11.8695
5706 1 16.6173 48.2693 13.4521
5707 1 18.1999 49.8519 15.0347
5708 1 19.7825 0.7913 0.7913
5709 1 21.3651 2.3739 2.3739
5710 1 19.7825 0.7913 3.9565
5711 1 21.3651 2.3739 5.5391
5712 1 19.7825 0.7913 7.1217
5713 1 21.3651 2.3739 8.7043
5714 1 19.7825 0.7913 10.2869
5715 1 21.3651 2.3739 11.8695
5716 1 19.7825 0.7913 13.4521
5717 1 21.3651 2.3739 15.0347
5718 1 19.7825 3.9565 0.7913
5719 1 21.3651 5.5391 2.3739
5720 1 19.7825 3.9565 3.9565
5721 1 21.3651 5.5391 5.5391
5722 1 19.7825 3.9565 7.1217
5723 1 21.3651 5.5391 8.7043
5724 1 19.7825 3.9565 10.2869
5725 1 21.3651 5.5391 11.8695
5726 1 19.7825 3.9565 13.4521
5727 1 21.3651 5.5391 15.0347
5728 1 19.7825 7.1217 0.7913
5729 1 21.3651 8.7043 2.3739
5730 1 19.7825 7.1217 3.9565
5731 1 21.3651 8.7043 5.5391
5732 1 19.7825 7.1217 7.1217
5733 1 21.3651 8.7043 8.7043
5734 1 19.7825 7.1217 10.2869
5735 1 21.3651 8.7043 11.8695
5736 1 19.7825 7.1217 13.4521
5737 1 21.3651 8.7043 15.0347
5738 1 19.7825 10.2869 0.7913
5739 1 21.3651 11.8695 2.3739
5740 1 19.7825 10.2869 3.9565
5741 1 21.3651 11.8695 5.5391
5742 1 19.7825 10.2869 7.1217
5743 1 21.3651 11.8695 8.7043
5744 1 19.7825 10.2869 10.2869
5745 1 21.3651 11.8695 11.8695
5746 1 19.7825 10.2869 13.4521
5747 1 21.3651 11.8695 15.0347
5748 1 19.7825 13.4521 0.7913
5749 1 21.3651 15.0347 2.3739
5750 1 19.7825 13.4521 3.9565
5751 1 21.3651 15.0347 5.5391
5752 1 19.7825 13.4521 7.1217
5753 1 21.3651 15.0347 8.7043
5754 1 19.7825 13.4521 10.2869
5755 1 21.3651 15.0347 11.8695
5756 1 19.7825 13.4521 13.4521
5757 1 21.3651 15.0347 15.0347
5758 1 19.7825 16.6173 0.7913
5759 1 21.3651 18.1999 2.3739
5760 1 19.7825 16.6173 3.9565
5761 1 21.3651 18.1999 5.5391
5762 1 19.7825 16.6173 7.1217
5763 1 21.3651 18.1999 8.7043
5764 1 19.7825 16.6173 10.2869
5765 1 21.3651 18.1999 11.8695
5766 1 19.7825 16.6173 13.4521
5767 1 21.3651 18.1999 15.0347
5768 1 19.7825 19.7825 0.7913
5769 1 21.3651 21.3651 2.3739
5770 1 19.7825 19.7825 3.9565
5771 1 21.3651 21.3651 5.5391
5772 1 19.7825 19.7825 7.1217
5773 1 21.3651 21.3651 8.7043
5774 1 19.7825 19.7825 10.2869
5775 1 21.3651 21.3651 11.8695
5776 1 19.7825 19.7825 13.4521
5777 1 21.3651 21.3651 15.0347
5778 1 19.7825 22.9477 0.7913
5779 1 21.3651 24.5303 2.3739
5780 1 19.7825 22.9477 3.9565
5781 1 21.3651 24.5303 5.5391
5782 1 19.7825 22.9477 7.1217
5783 1 21.3651 24.5303 8.7043
5784 1 19.7825 22.9477 10.2869
5785 1 21.3651 24.5303 11.8695
5786 1 19.7825 22.9477 13.4521
5787 1 21.3651 24.5303 15.0347
5788 1 19.7825 26.1129 0.7913
5789 1 21.3651 27.6955 2.3739
5790 1 19.7825 26.1129 3.9565
5791 1 21.3651 27.6955 5.5391
5792 1 19.7825 26.1129 7.1217
5793 1 21.3651 27.6955 8.7043
5794 1 19.7825 26.1129 10.2869
5795 1 21.3651 27.6955 11.8695
5796 1 19.7825 26.1129 13.4521
5797 1 21.3651 27.6955 15.0347
5798 1 19.7825 29.2781 0.7913
5799 1 21.3651 30.8607 2.3739
5800 1 19.7825 29.2781 3.9565
5801 1 21.3651 30.8607 5.5391
5802 1 19.7825 29.2781 7.1217
5803 1 21.3651 30.8607 8.7043
5804 1 19.7825 29.2781 10.2869
5805 1 21.3651 30.8607 11.8695
5806 1 19.7825 29.2781 13.4521
5807 1 21.3651 30.8607 15.0347
5808 1 19.7825 32.4433 0.7913
5809 1 21.3651 34.0259 2.3739
5810 1 19.7825 32.4433 3.9565
5811 1 21.3651 34.0259 5.5391
5812 1 19.7825 32.4433 7.1217
5813 1 21.3651 34.0259 8.7043
5814 1 19.7825 32.4433 10.2869
5815 1 21.3651 34.0259 11.8695
5816 1 19.7825 32.4433 13.4521
5817 1 21.3651 34.0259 15.0347
5818 1 19.7825 35.6085 0.7913
5819 1 21.3651 37.1911 2.3739
5820 1 19.7825 35.6085 3.9565
5821 1 21.3651 37.1911 5.5391
5822 1 19.7825 35.6085 7.1217
5823 1 21.3651 37.1911 8.7043
5824 1 19.7825 35.6085 10.2869
5825 1 21.3651 37.1911 11.8695
5826 1 19.7825 35.6085 13.4521
5827 1 21.3651 37.1911 15.0347
5828 1 19.7825 38.7737 0.7913
5829 1 21.3651 40.3563 2.3739
5830 1 19.7825 38.7737 3.9565
5831 1 21.3651 40.3563 5.5391
5832 1 19.7825 38.7737 7.1217
5833 1 21.3651 40.3563 8.7043
5834 1 19.7825 38.7737 10.2869
5835 1 21.3651 40.3563 11.8695
5836 1 19.7825 38.7737 13.4521
5837 1 21.3651 40.3563 15.0347
5838 1 19.7825 41.9389 0.7913
5839 1 21.3651 43.5215 2.3739
5840 1 19.7825 41.9389 3.9565
5841 1 21.3651 43.5215 5.5391
5842 1 19.7825 41.9389 7.1217
5843 1 21.3651 43.5215 8.7043
5844 1 19.7825 41.9389 10.2869
5845 1 21.3651 43.5215 11.8695
5846 1 19.7825 41.9389 13.4521
5847 1 21.3651 43.5215 15.0347
5848 1 19.7825 45.1041 0.7913
5849 1 21.3651 46.6867 2.3739
5850 1 19.7825 45.1041 3.9565
5851 1 21.3651 46.6867 5.5391
5852 1 19.7825 45.1041 7.1217
5853 1 21.3651 46.6867 8.7043
5854 1 19.7825 45.1041 10.2869
5855 1 21.3651 46.6867 11.8695
5856 1 19.7825 45.1041 13.4521
5857 1 21.3651 46.6867 15.0347
5858 1 19.7825 48.2693 0.7913
5859 1 21.3651 49.8519 2.3739
5860 1 19.7825 48.2693 3.9565
5861 1 21.3651 49.8519 5.5391
5862 1 19.7825 48.2693 7.1217
5863 1 21.3651 49.8519 8.7043
5864 1 19.7825 48.2693 10.2869
5865 1 21.3651 49.8519 11.8695
5866 1 19.7825 48.2693 13.4521
5867 1 21.3651 49.8519 15.0347
5868 1 22.9477 0.7913 0.7913
5869 1 24.5303 2.3739 2.3739
5870 1 22.9477 0.7913 3.9565
5871 1 24.5303 2.3739 5.5391
5872 1 22.9477 0.7913 7.1217
5873 1 24.5303 2.3739 8.7043
5874 1 22.9477 0.7913 10.2869
5875 1 24.5303 2.3739 11.8695
5876 1 22.9477 0.7913 13.4521
5877 1 24.5303 2.3739 15.0347
5878 1 22.9477 3.9565 0.7913
5879 1 24.5303 5.5391 2.3739
5880 1 22.9477 3.9565 3.9565
5881 1 24.5303 5.5391 5.5391
5882 1 22.9477 3.9565 7.1217
5883 1 24.5303 5.5391 8.7043
5884 1 22.9477 3.9565 10.2869
5885 1 24.5303 5.5391 11.8695
5886 1 22.9477 3.9565 13.4521
5887 1 24.5303 5.5391 15.0347
5888 1 22.9477 7.1217 0.7913
5889 1 24.5303 8.7043 2.3739
5890 1 22.9477 7.1217 3.9565
5891 1 24.5303 8.7043 5.5391
5892 1 22.9477 7.1217 7.1217
5893 1 24.5303 8.7043 8.7043
5894 1 22.9477 7.1217 10.2869
5895 1 24.5303 8.7043 11.8695
5896 1 22.9477 7.1217 13.4521
5897 1 24.5303 8.7043 15.0347
5898 1 22.9477 10.2869 0.7913
5899 1 24.5303 11.8695 2.3739
5900 1 22.9477 10.2869 3.9565
5901 1 24.5303 11.8695 5.5391
5902 1 22.9477 10.2869 7.1217
5903 1 24.5303 11.8695 8.7043
5904 1 22.9477 10.2869 10.2869
5905 1 24.5303 11.8695 11.8695
5906 1 22.9477 10.2869 13.4521
5907 1 24.5303 11.8695 15.0347
5908 1 22.9477 13.4521 0.7913
5909 1 24.5303 15.0347 2.3739
5910 1 22.9477 13.4521 3.9565
5911 1 24.5303 15.0347 5.5391
5912 1 22.9477 13.4521 7.1217
5913 1 24.5303 15.0347 8.7043
5914 1 22.9477 13.4521 10.2869
5915 1 24.5303 15.0347 11.8695
5916 1 22.9477 13.4521 13.4521
5917 1 24.5303 15.0347 15.0347
5918 1 22.9477 16.6173 0.7913
5919 1 24.5303 18.1999 2.3739
5920 1 22.9477 16.6173 3.9565
5921 1 24.5303 18.1999 5.5391
5922 1 22.9477 16.6173 7.1217
5923 1 24.5303 18.1999 8.7043
5924 1 22.9477 16.6173 10.2869
5925 1 24.5303 18.1999 11.8695
5926 1 22.9477 16.6173 13.4521
5927 1 24.5303 18.1999 15.0347
5928 1 22.9477 19.7825 0.7913
5929 1 24.5303 21.3651 2.3739
5930 1 22.9477 19.7825 3.9565
5931 1 24.5303 21.3651 5.5391
5932 1 22.9477 19.7825 7.1217
5933 1 24.5303 21.3651 8.7043
5934 1 22.9477 19.7825 10.2869
5935 1 24.5303 21.3651 11.8695
5936 1 22.9477 19.7825 13.4521
5937 1 24.5303 21.3651 15.0347
5938 1 22.9477 22.9477 0.7913
5939 1 24.5303 24.5303 2.3739
5940 1 22.9477 22.9477 3.9565
5941 1 24.5303 24.5303 5.5391
5942 1 22.9477 22.9477 7.1217
5943 1 24.5303 24.5303 8.7043
5944 1 22.9477 22.9477 10.2869
5945 1 24.5303 24.5303 11.8695
5946 1 22.9477 22.9477 13.4521
5947 1 24.5303 24.5303 15.0347
5948 1 22.9477 26.1129 0.7913
5949 1 24.5303 27.6955 2.3739
5950 1 22.9477 26.1129 3.9565
5951 1 24.5303 27.6955 5.5391
5952 1 22.9477 26.1129 7.1217
5953 1 24.5303 27.6955 8.7043
5954 1 22.9477 26.1129 10.2869
5955 1 24.5303 27.6955 11.8695
5956 1 22.9477 26.1129 13.4521
5957 1 24.5303 27.6955 15.0347
5958 1 22.9477 29.2781 0.7913
5959 1 24.5303 30.8607 2.3739
5960 1 22.9477 29.2781 3.9565
5961 1 24.5303 30.8607 5.5391
5962 1 22.9477 29.2781 7.1217
5963 1 24.5303 30.8607 8.7043
5964 1 22.9477 29.2781 10.2869
5965 1 24.5303 30.8607 11.8695
5966 1 22.9477 29.2781 13.4521
5967 1 24.5303 30.8607 15.0347
5968 1 22.9477 32.4433 0.7913
5969 1 24.5303 34.0259 2.3739
5970 1 22.9477 32.4433 3.9565
5971 1 24.5303 34.0259 5.5391
5972 1 22.9477 32.4433 7.1217
5973 1 24.5303 34.0259 8.7043
5974 1 22.9477 32.4433 10.2869
5975 1 24.5303 34.0259 11.8695
5976 1 22.9477 32.4433 13.4521
5977 1 24.5303 34.0259 15.0347
5978 1 22.9477 35.6085 0.7913
5979 1 24.5303 37.1911 2.3739
5980 1 22.9477 35.6085 3.9565
5981 1 24.5303 37.1911 5.5391
5982 1 22.9477 35.6085 7.1217
5983 1 24.5303 37.1911 8.7043
5984 1 22.9477 35.6085 10.2869
5985 1 24.5303 37.1911 11.8695
5986 1 22.9477 35.6085 13.4521
5987 1 24.5303 37.1911 15.0347
5988 1 22.9477 38.7737 0.7913
5989 1 24.5303 40.3563 2.3739
5990 1 22.9477 38.7737 3.9565
5991 1 24.5303 40.3563 5.5391
5992 1 22.9477 38.7737 7.1217
5993 1 24.5303 40.3563 8.7043
5994 1 22.9477 38.7737 10.2869
5995 1 24.5303 40.3563 11.8695
5996 1 22.9477 38.7737 13.4521
5997 1 24.5303 40.3563 15.0347
5998 1 22.9477 41.9389 0.7913
5999 1 24.5303 43.5215 2.3739
6000 1 22.9477 41.9389 3.9565
6001 1 24.5303 43.5215 5.5391
6002 1 22.9477 41.9389 7.1217
6003 1 24.5303 43.5215 8.7043
6004 1 22.9477 41.9389 10.2869
6005 1 24.5303 43.5215 11.8695
6006 1 22.9477 41.9389 13.4521
6007 1 24.5303 43.5215 15.0347
6008 1 22.9477 45.1041 0.7913
6009 1 24.5303 46.6867 2.3739
6010 1 22.9477 45.1041 3.9565
6011 1 24.5303 46.6867 5.5391
6012 1 22.9477 45.1041 7.1217
6013 1 24.5303 46.6867 8.7043
6014 1 22.9477 45.1041 10.2869
6015 1 24.5303 46.6867 11.8695
6016 1 22.9477 45.1041 13.4521
6017 1 24.5303 46.6867 15.0347
6018 1 22.9477 48.2693 0.7913
6019 1 24.5303 49.8519 2.3739
6020 1 22.9477 48.2693 3.9565
6021 1 24.5303 49.8519 5.5391
6022 1 22.9477 48.2693 7.1217
6023 1 24.5303 49.8519 8.7043
6024 1 22.9477 48.2693 10.2869
6025 1 24.5303 49.8519 11.8695
6026 1 22.9477 48.2693 13.4521
6027 1 24.5303 49.8519 15.0347
6028 1 26.1129 0.7913 0.7913
6029 1 27.6955 2.3739 2.3739
6030 1 26.1129 0.7913 3.9565
6031 1 27.6955 2.3739 5.5391
6032 1 26.1129 0.7913 7.1217
6033 1 27.6955 2.3739 8.7043
6034 1 26.1129 0.7913 10.2869
6035 1 27.6955 2.3739 11.8695
6036 1 26.1129 0.7913 13.4521
6037 1 27.6955 2.3739 15.0347
6038 1 26.1129 3.9565 0.7913
6039 1 27.6955 5.5391 2.3739
6040 1 26.1129 3.9565 3.9565
6041 1 27.6955 5.5391 5.5391
6042 1 26.1129 3.9565 7.1217
6043 1 27.6955 5.5391 8.7043
6044 1 26.1129 3.9565 10.2869
6045 1 27.6955 5.5391 11.8695
6046 1 26.1129 3.9565 13.4521
6047 1 27.6955 5.5391 15.0347
6048 1 26.1129 7.1217 0.7913
6049 1 27.6955 8.7043 2.3739
6050 1 26.1129 7.1217 3.9565
6051 1 27.6955 8.7043 5.5391
6052 1 26.1129 7.1217 7.1217
6053 1 27.6955 8.7043 8.7043
6054 1 26.1129 7.1217 10.2869
6055 1 27.6955 8.7043 11.8695
6056 1 26.1129 7.1217 13.4521
6057 1 27.6955 8.7043 15.0347
6058 1 26.1129 10.2869 0.7913
6059 1 27.6955 11.8695 2.3739
6060 1 26.1129 10.2869 3.9565
6061 1 27.6955 11.8695 5.5391
6062 1 26.1129 10.2869 7.1217
6063 1 27.6955 11.8695 8.7043
6064 1 26.1129 10.2869 10.2869
6065 1 27.6955 11.8695 11.8695
6066 1 26.1129 10.2869 13.4521
6067 1 27.6955 11.8695 15.0347
6068 1 26.1129 13.4521 0.7913
6069 1 27.6955 15.0347 2.3739
6070 1 26.1129 13.4521 3.9565
6071 1 27.6955 15.0347 5.5391
6072 1 26.1129 13.4521 7.1217
6073 1 27.6955 15.0347 8.7043
6074 1 26.1129 13.4521 10.2869
6075 1 27.6955 15.0347 11.8695
6076 1 26.1129 13.4521 13.4521
6077 1 27.6955 15.0347 15.0347
6078 1 26.1129 16.6173 0.7913
6079 1 27.6955 18.1999 2.3739
6080 1 26.1129 16.6173 3.9565
6081 1 27.6955 18.1999 5.5391
6082 1 26.1129 16.6173 7.1217
6083 1 27.6955 18.1999 8.7043
6084 1 26.1129 16.6173 10.2869
6085 1 27.6955 18.1999 11.8695
6086 1 26.1129 16.6173 13.4521
6087 1 27.6955 18.1999 15.0347
6088 1 26.1129 19.7825 0.7913
6089 1 27.6955 21.3651 2.3739
6090 1 26.1129 19.7825 3.9565
6091 1 27.6955 21.3651 5.5391
6092 1 26.1129 19.7825 7.1217
6093 1 27.6955 21.3651 8.7043
6094 1 26.1129 19.7825 10.2869
6095 1 27.6955 21.3651 11.8695
6096 1 26.1129 19.7825 13.4521
6097 1 27.6955 21.3651 15.0347
6098 1 26.1129 22.9477 0.7913
6099 1 27.6955 24.5303 2.3739
6100 1 26.1129 22.9477 3.9565
6101 1 27.6955 24.5303 5.5391
6102 1 26.1129 22.9477 7.1217
6103 1 27.6955 24.5303 8.7043
6104 1 26.1129 22.9477 10.2869
6105 1 27.6955 24.5303 11.8695
6106 1 26.1129 22.9477 13.4521
6107 1 27.6955 24.5303 15.0347
6108 1 26.1129 26.1129 0.7913
6109 1 27.6955 27.6955 2.3739
6110 1 26.1129 26.1129 3.9565
6111 1 27.6955 27.6955 5.5391
6112 1 26.1129 26.1129 7.1217
6113 1 27.6955 27.6955 8.7043
6114 1 26.1129 26.1129 10.2869
6115 1 27.6955 27.6955 11.8695
6116 1 26.1129 26.1129 13.4521
6117 1 27.6955 27.6955 15.0347
6118 1 26.1129 29.2781 0.7913
6119 1 27.6955 30.8607 2.3739
6120 1 26.1129 29.2781 3.9565
6121 1 27.6955 30.8607 5.5391
6122 1 26.1129 29.2781 7.1217
6123 1 27.6955 30.8607 8.7043
6124 1 26.1129 29.2781 10.2869
6125 1 27.6955 30.8607 11.8695
6126 1 26.1129 29.2781 13.4521
6127 1 27.6955 30.8607 15.0347
6128 1 26.1129 32.4433 0.7913
6129 1 27.6955 34.0259 2.3739
6130 1 26.1129 32.4433 3.9565
6131 1 27.6955 34.0259 5.5391
6132 1 26.1129 32.4433 7.1217
6133 1 27.6955 34.0259 8.7043
6134 1 26.1129 32.4433 10.2869
6135 1 27.6955 34.0259 11.8695
6136 1 26.1129 32.4433 13.4521
6137 1 27.6955 34.0259 15.0347
6138 1 26.1129 35.6085 0.7913
6139 1 27.6955 37.1911 2.3739
6140 1 26.1129 35.6085 3.9565
6141 1 27.6955 37.1911 5.5391
6142 1 26.1129 35.6085 7.1217
6143 1 27.6955 37.1911 8.7043
6144 1 26.1129 35.6085 10.2869
6145 1 27.6955 37.1911 11.8695
6146 1 26.1129 35.6085 13.4521
6147 1 27.6955 37.1911 15.0347
6148 1 26.1129 38.7737 0.7913
6149 1 27.6955 40.3563 2.3739
6150 1 26.1129 38.7737 3.9565
6151 1 27.6955 40.3563 5.5391
6152 1 26.1129 38.7737 7.1217
6153 1 27.6955 40.3563 8.7043
6154 1 26.1129 38.7737 10.2869
6155 1 27.6955 40.3563 11.8695
6156 1 26.1129 38.7737 13.4521
6157 1 27.6955 40.3563 15.0347
6158 1 26.1129 41.9389 0.7913
6159 1 27.6955 43.5215 2.3739
6160 1 26.1129 41.9389 3.9565
6161 1 27.6955 43.5215 5.5391
6162 1 26.1129 41.9389 7.1217
6163 1 27.6955 43.5215 8.7043
6164 1 26.1129 41.9389 10.2869
6165 1 27.6955 43.5215 11.8695
6166 1 26.1129 41.9389 13.4521
6167 1 27.6955 43.5215 15.0347
6168 1 26.1129 45.1041 0.7913
6169 1 27.6955 46.6867 2.3739
6170 1 26.1129 45.1041 3.9565
6171 1 27.6955 46.6867 5.5391
6172 1 26.1129 45.1041 7.1217
6173 1 27.6955 46.6867 8.7043
6174 1 26.1129 45.1041 10.2869
6175 1 27.6955 46.6867 11.8695
6176 1 26.1129 45.1041 13.4521
6177 1 27.6955 46.6867 15.0347
6178 1 26.1129 48.2693 0.7913
6179 1 27.6955 49.8519 2.3739
6180 1 26.1129 48.2693 3.9565
6181 1 27.6955 49.8519 5.5391
6182 1 26.1129 48.2693 7.1217
6183 1 27.6955 49.8519 8.7043
6184 1 26.1129 48.2693 10.2869
6185 1 27.6955 49.8519 11.8695
6186 1 26.1129 48.2693 13.4521
6187 1 27.6955 49.8519 15.0347
6188 1 29.2781 0.7913 0.7913
6189 1 30.8607 2.3739 2.3739
6190 1 29.2781 0.7913 3.9565
6191 1 30.8607 2.3739 5.5391
6192 1 29.2781 0.7913 7.1217
6193 1 30.8607 2.3739 8.7043
6194 1 29.2781 0.7913 10.2869
6195 1 30.8607 2.3739 11.8695
6196 1 29.2781 0.7913 13.4521
6197 1 30.8607 2.3739 15.0347
6198 1 29.2781 3.9565 0.7913
6199 1 30.8607 5.5391 2.3739
6200 1 29.2781 3.9565 3.9565
6201 1 30.8607 5.5391 5.5391
6202 1 29.2781 3.9565 7.1217
6203 1 30.8607 5.5391 8.7043
6204 1 29.2781 3.9565 10.2869
6205 1 30.8607 5.5391 11.8695
6206 1 29.2781 3.9565 13.4521
6207 1 30.8607 5.5391 15.0347
6208 1 29.2781 7.1217 0.7913
6209 1 30.8607 8.7043 2.3739
6210 1 29.2781 7.1217 3.9565
6211 1 30.8607 8.7043 5.5391
6212 1 29.2781 7.1217 7.1217
6213 1 30.8607 8.7043 8.7043
6214 1 29.2781 7.1217 10.2869
6215 1 30.8607 8.7043 11.8695
6216 1 29.2781 7.1217 13.4521
6217 1 30.8607 8.7043 15.0347
6218 1 29.2781 10.2869 0.7913
6219 1 30.8607 11.8695 2.3739
6220 1 29.2781 10.2869 3.9565
6221 1 30.8607 11.8695 5.5391
6222 1 29.2781 10.2869 7.1217
6223 1 30.8607 11.8695 8.7043
6224 1 29.2781 10.2869 10.2869
6225 1 30.8607 11.8695 11.8695
6226 1 29.2781 10.2869 13.4521
6227 1 30.8607 11.8695 15.0347
6228 1 29.2781 13.4521 0.7913
6229 1 30.8607 15.0347 2.3739
6230 1 29.2781 13.4521 3.9565
6231 1 30.8607 15.0347 5.5391
6232 1 29.2781 13.4521 7.1217
6233 1 30.8607 15.0347 8.7043
6234 1 29.2781 13.4521 10.2869
6235 1 30.8607 15.0347 11.8695
6236 1 29.2781 13.4521 13.4521
6237 1 30.8607 15.0347 15.0347
6238 1 29.2781 16.6173 0.7913
6239 1 30.8607 18.1999 2.3739
6240 1 29.2781 16.6173 3.9565
6241 1 30.8607 18.1999 5.5391
6242 1 29.2781 16.6173 7.1217
6243 1 30.8607 18.1999 8.7043
6244 1 29.2781 16.6173 10.2869
6245 1 30.8607 18.1999 11.8695
6246 1 29.2781 16.6173 13.4521
6247 1 30.8607 18.1999 15.0347
6248 1 29.2781 19.7825 0.7913
6249 1 30.8607 21.3651 2.3739
6250 1 29.2781 19.7825 3.9565
6251 1 30.8607 21.3651 5.5391
6252 1 29.2781 19.7825 7.1217
6253 1 30.8607 21.3651 8.7043
6254 1 29.2781 19.7825 10.2869
6255 1 30.8607 21.3651 11.8695
6256 1 29.2781 19.7825 13.4521
6257 1 30.8607 21.3651 15.0347
6258 1 29.2781 22.9477 0.7913
6259 1 30.8607 24.5303 2.3739
6260 1 29.2781 22.9477 3.9565
6261 1 30.8607 24.5303 5.5391
6262 1 29.2781 22.9477 7.1217
6263 1 30.8607 24.5303 8.7043
6264 1 29.2781 22.9477 10.2869
6265 1 30.8607 24.5303 11.8695
6266 1 29.2781 22.9477 13.4521
6267 1 30.8607 24.5303 15.0347
6268 1 29.2781 26.1129 0.7913
6269 1 30.8607 27.6955 2.3739
6270 1 29.2781 26.1129 3.9565
6271 1 30.8607 27.6955 5.5391
6272 1 29.2781 26.1129 7.1217
6273 1 30.8607 27.6955 8.7043
6274 1 29.2781 26.1129 10.2869
6275 1 30.8607 27.6955 11.8695
6276 1 29.2781 26.1129 13.4521
6277 1 30.8607 27.6955 15.0347
6278 1 29.2781 29.2781 0.7913
6279 1 30.8607 30.8607 2.3739
6280 1 29.2781 29.2781 3.9565
6281 1 30.8607 30.8607 5.5391
6282 1 29.2781 29.2781 7.1217
6283 1 30.8607 30.8607 8.7043
6284 1 29.2781 29.2781 10.2869
6285 1 30.8607 30.8607 11.8695
6286 1 29.2781 29.2781 13.4521
6287 1 30.8607 30.8607 15.0347
6288 1 29.2781 32.4433 0.7913
6289 1 30.8607 34.0259 2.3739
6290 1 29.2781 32.4433 3.9565
6291 1 30.8607 34.0259 5.5391
6292 1 29.2781 32.4433 7.1217
6293 1 30.8607 34.0259 8.7043
6294 1 29.2781 32.4433 10.2869
6295 1 30.8607 34.0259 11.8695
6296 1 29.2781 32.4433 13.4521
6297 1 30.8607 34.0259 15.0347
6298 1 29.2781 35.6085 0.7913
6299 1 30.8607 37.1911 2.3739
6300 1 29.2781 35.6085 3.9565
6301 1 30.8607 37.1911 5.5391
6302 1 29.2781 35.6085 7.1217
6303 1 30.8607 37.1911 8.7043
6304 1 29.2781 35.6085 10.2869
6305 1 30.8607 37.1911 11.8695
6306 1 29.2781 35.6085 13.4521
6307 1 30.8607 37.1911 15.0347
6308 1 29.2781 38.7737 0.7913
6309 1 30.8607 40.3563 2.3739
6310 1 29.2781 38.7737 3.9565
6311 1 30.8607 40.3563 5.5391
6312 1 29.2781 38.7737 7.1217
6313 1 30.8607 40.3563 8.7043
6314 1 29.2781 38.7737 10.2869
6315 1 30.8607 40.3563 11.8695
6316 1 29.2781 38.7737 13.4521
6317 1 30.8607 40.3563 15.0347
6318 1 29.2781 41.9389 0.7913
6319 1 30.8607 43.5215 2.3739
6320 1 29.2781 41.9389 3.9565
6321 1 30.8607 43.5215 5.5391
6322 1 29.2781 41.9389 7.1217
6323 1 30.8607 43.5215 8.7043
6324 1 29.2781 41.9389 10.2869
6325 1 30.8607 43.5215 11.8695
6326 1 29.2781 41.9389 13.4521
6327 1 30.8607 43.5215 15.0347
6328 1 29.2781 45.1041 0.7913
6329 1 30.8607 46.6867 2.3739
6330 1 29.2781 45.1041 3.9565
6331 1 30.8607 46.6867 5.5391
6332 1 29.2781 45.1041 7.1217
6333 1 30.8607 46.6867 8.7043
6334 1 29.2781 45.1041 10.2869
6335 1 30.8607 46.6867 11.8695
6336 1 29.2781 45.1041 13.4521
6337 1 30.8607 46.6867 15.0347
6338 1 29.2781 48.2693 0.7913
6339 1 30.8607 49.8519 2.3739
6340 1 29.2781 48.2693 3.9565
6341 1 30.8607 49.8519 5.5391
6342 1 29.2781 48.2693 7.1217
6343 1 30.8607 49.8519 8.7043
6344 1 29.2781 48.2693 10.2869
6345 1 30.8607 49.8519 11.8695
6346 1 29.2781 48.2693 13.4521
6347 1 30.8607 49.8519 15.0347
6348 1 32.4433 0.7913 0.7913
6349 1 34.0259 2.3739 2.3739
6350 1 32.4433 0.7913 3.9565
6351 1 34.0259 2.3739 5.5391
6352 1 32.4433 0.7913 7.1217
6353 1 34.0259 2.3739 8.7043
6354 1 32.4433 0.7913 10.2869
6355 1 34.0259 2.3739 11.8695
6356 1 32.4433 0.7913 13.4521
6357 1 34.0259 2.3739 15.0347
6358 1 32.4433 3.9565 0.7913
6359 1 34.0259 5.5391 2.3739
6360 1 32.4433 3.9565 3.9565
6361 1 34.0259 5.5391 5.5391
6362 1 32.4433 3.9565 7.1217
6363 1 34.0259 5.5391 8.7043
6364 1 32.4433 3.9565 10.2869
6365 1 34.0259 5.5391 11.8695
6366 1 32.4433 3.9565 13.4521
6367 1 34.0259 5.5391 15.0347
6368 1 32.4433 7.1217 0.7913
6369 1 34.0259 8.7043 2.3739
6370 1 32.4433 7.1217 3.9565
6371 1 34.0259 8.7043 5.5391
6372 1 32.4433 7.1217 7.1217
6373 1 34.0259 8.7043 8.7043
6374 1 32.4433 7.1217 10.2869
6375 1 34.0259 8.7043 11.8695
6376 1 32.4433 7.1217 13.4521
6377 1 34.0259 8.7043 15.0347
6378 1 32.4433 10.2869 0.7913
6379 1 34.0259 11.8695 2.3739
6380 1 32.4433 10.2869 3.9565
6381 1 34.0259 11.8695 5.5391
6382 1 32.4433 10.2869 7.1217
6383 1 34.0259 11.8695 8.7043
6384 1 32.4433 10.2869 10.2869
6385 1 34.0259 11.8695 11.8695
6386 1 32.4433 10.2869 13.4521
6387 1 34.0259 11.8695 15.0347
6388 1 32.4433 13.4521 0.7913
6389 1 34.0259 15.0347 2.3739
6390 1 32.4433 13.4521 3.9565
6391 1 34.0259 15.0347 5.5391
6392 1 32.4433 13.4521 7.1217
6393 1 34.0259 15.0347 8.7043
6394 1 32.4433 13.4521 10.2869
6395 1 34.0259 15.0347 11.8695
6396 1 32.4433 13.4521 13.4521
6397 1 34.0259 15.0347 15.0347
6398 1 32.4433 16.6173 0.7913
6399 1 34.0259 18.1999 2.3739
6400 1 32.4433 16.6173 3.9565
6401 1 34.0259 18.1999 5.5391
6402 1 32.4433 16.6173 7.1217
6403 1 34.0259 18.1999 8.7043
6404 1 32.4433 16.6173 10.2869
6405 1 34.0259 18.1999 11.8695
6406 1 32.4433 16.6173 13.4521
6407 1 34.0259 18.1999 15.0347
6408 1 32.4433 19.7825 0.7913
6409 1 34.0259 21.3651 2.3739
6410 1 32.4433 19.7825 3.9565
6411 1 34.0259 21.3651 5.5391
6412 1 32.4433 19.7825 7.1217
6413 1 34.0259 21.3651 8.7043
6414 1 32.4433 19.7825 10.2869
6415 1 34.0259 21.3651 11.8695
6416 1 32.4433 19.7825 13.4521
6417 1 34.0259 21.3651 15.0347
6418 1 32.4433 22.9477 0.7913
6419 1 34.0259 24.5303 2.3739
6420 1 32.4433 22.9477 3.9565
6421 1 34.0259 24.5303 5.5391
6422 1 32.4433 22.9477 7.1217
6423 1 34.0259 24.5303 8.7043
6424 1 32.4433 22.9477 10.2869
6425 1 34.0259 24.5303 11.8695
6426 1 32.4433 22.9477 13.4521
6427 1 34.0259 24.5303 15.0347
6428 1 32.4433 26.1129 0.7913
6429 1 34.0259 27.6955 2.3739
6430 1 32.4433 26.1129 3.9565
6431 1 34.0259 27.6955 5.5391
6432 1 32.4433 26.1129 7.1217
6433 1 34.0259 27.6955 8.7043
6434 1 32.4433 26.1129 10.2869
6435 1 34.0259 27.6955 11.8695
6436 1 32.4433 26.1129 13.4521
6437 1 34.0259 27.6955 15.0347
6438 1 32.4433 29.2781 0.7913
6439 1 34.0259 30.8607 2.3739
6440 1 32.4433 29.2781 3.9565
6441 1 34.0259 30.8607 5.5391
6442 1 32.4433 29.2781 7.1217
6443 1 34.0259 30.8607 8.7043
6444 1 32.4433 29.2781 10.2869
6445 1 34.0259 30.8607 11.8695
6446 1 32.4433 29.2781 13.4521
6447 1 34.0259 30.8607 15.0347
6448 1 32.4433 32.4433 0.7913
6449 1 34.0259 34.0259 2.3739
6450 1 32.4433 32.4433 3.9565
6451 1 34.0259 34.0259 5.5391
6452 1 32.4433 32.4433 7.1217
6453 1 34.0259 34.0259 8.7043
6454 1 32.4433 32.4433 10.2869
6455 1 34.0259 34.0259 11.8695
6456 1 32.4433 32.4433 13.4521
6457 1 34.0259 34.0259 15.0347
6458 1 32.4433 35.6085 0.7913
6459 1 34.0259 37.1911 2.3739
6460 1 32.4433 35.6085 3.9565
6461 1 34.0259 37.1911 5.5391
6462 1 32.4433 35.6085 7.1217
6463 1 34.0259 37.1911 8.7043
6464 1 32.4433 35.6085 10.2869
6465 1 34.0259 37.1911 11.8695
6466 1 32.4433 35.6085 13.4521
6467 1 34.0259 37.1911 15.0347
6468 1 32.4433 38.7737 0.7913
6469 1 34.0259 40.3563 2.3739
6470 1 32.4433 38.7737 3.9565
6471 1 34.0259 40.3563 5.5391
6472 1 32.4433 38.7737 7.1217
6473 1 34.0259 40.3563 8.7043
6474 1 32.4433 38.7737 10.2869
6475 1 34.0259 40.3563 11.8695
6476 1 32.4433 38.7737 13.4521
6477 1 34.0259 40.3563 15.0347
6478 1 32.4433 41.9389 0.7913
6479 1 34.0259 43.5215 2.3739
6480 1 32.4433 41.9389 3.9565
6481 1 34.0259 43.5215 5.5391
6482 1 32.4433 41.9389 7.1217
6483 1 34.0259 43.5215 8.7043
6484 1 32.4433 41.9389 10.2869
6485 1 34.0259 43.5215 11.8695
6486 1 32.4433 41.9389 13.4521
6487 1 34.0259 43.5215 15.0347
6488 1 32.4433 45.1041 0.7913
6489 1 34.0259 46.6867 2.3739
6490 1 32.4433 45.1041 3.9565
6491 1 34.0259 46.6867 5.5391
6492 1 32.4433 45.1041 7.1217
6493 1 34.0259 46.6867 8.7043
6494 1 32.4433 45.1041 10.2869
6495 1 34.0259 46.6867 11.8695
6496 1 32.4433 45.1041 13.4521
6497 1 34.0259 46.6867 15.0347
6498 1 32.4433 48.2693 0.7913
6499 1 34.0259 49.8519 2.3739
6500 1 32.4433 48.2693 3.9565
6501 1 34.0259 49.8519 5.5391
6502 1 32.4433 48.2693 7.1217
6503 1 34.0259 49.8519 8.7043
6504 1 32.4433 48.2693 10.2869
6505 1 34.0259 49.8519 11.8695
6506 1 32.4433 48.2693 13.4521
6507 1 34.0259 49.8519 15.0347
6508 1 16.6173 0.7913 32.4433
6509 1 18.1999 2.3739 34.0259
6510 1 16.6173 0.7913 35.6085
6511 1 18.1999 2.3739 37.1911
6512 1 16.6173 0.7913 38.7737
6513 1 18.1999 2.3739 40.3563
6514 1 16.6173 0.7913 41.9389
6515 1 18.1999 2.3739 43.5215
6516 1 16.6173 0.7913 45.1041
6517 1 18.1999 2.3739 46.6867
6518 1 16.6173 0.7913 48.2693
6519 1 18.1999 2.3739 49.8519
6520 1 16.6173 3.9565 32.4433
6521 1 18.1999 5.5391 34.0259
6522 1 16.6173 3.9565 35.6085
6523 1 18.1999 5.5391 37.1911
6524 1 16.6173 3.9565 38.7737
6525 1 18.1999 5.5391 40.3563
6526 1 16.6173 3.9565 41.9389
6527 1 18.1999 5.5391 43.5215
6528 1 16.6173 3.9565 45.1041
6529 1 18.1999 5.5391 46.6867
6530 1 16.6173 3.9565 48.2693
6531 1 18.1999 5.5391 49.8519
6532 1 16.6173 7.1217 32.4433
6533 1 18.1999 8.7043 34.0259
6534 1 16.6173 7.1217 35.6085
6535 1 18.1999 8.7043 37.1911
6536 1 16.6173 7.1217 38.7737
6537 1 18.1999 8.7043 40.3563
6538 1 16.6173 7.1217 41.9389
6539 1 18.1999 8.7043 43.5215
6540 1 16.6173 7.1217 45.1041
6541 1 18.1999 8.7043 46.6867
6542 1 16.6173 7.1217 48.2693
6543 1 18.1999 8.7043 49.8519
6544 1 16.6173 10.2869 32.4433
6545 1 18.1999 11.8695 34.0259
6546 1 16.6173 10.2869 35.6085
6547 1 18.1999 11.8695 37.1911
6548 1 16.6173 10.2869 38.7737
6549 1 18.1999 11.8695 40.3563
6550 1 16.6173 10.2869 41.9389
6551 1 18.1999 11.8695 43.5215
6552 1 16.6173 10.2869 45.1041
6553 1 18.1999 11.8695 46.6867
6554 1 16.6173 10.2869 48.2693
6555 1 18.1999 11.8695 49.8519
6556 1 16.6173 13.4521 32.4433
6557 1 18.1999 15.0347 34.0259
6558 1 16.6173 13.4521 35.6085
6559 1 18.1999 15.0347 37.1911
6560 1 16.6173 13.4521 38.7737
6561 1 18.1999 15.0347 40.3563
6562 1 16.6173 13.4521 41.9389
6563 1 18.1999 15.0347 43.5215
6564 1 16.6173 13.4521 45.1041
6565 1 18.1999 15.0347 46.6867
6566 1 16.6173 13.4521 48.2693
6567 1 18.1999 15.0347 49.8519
6568 1 16.6173 16.6173 32.4433
6569 1 18.1999 18.1999 34.0259
6570 1 16.6173 16.6173 35.6085
6571 1 18.1999 18.1999 37.1911
6572 1 16.6173 16.6173 38.7737
6573 1 18.1999 18.1999 40.3563
6574 1 16.6173 16.6173 41.9389
6575 1 18.1999 18.1999 43.5215
6576 1 16.6173 16.6173 45.1041
6577 1 18.1999 18.1999 46.6867
6578 1 16.6173 16.6173 48.2693
6579 1 18.1999 18.1999 49.8519
6580 1 16.6173 19.7825 32.4433
6581 1 18.1999 21.3651 34.0259
6582 1 16.6173 19.7825 35.6085
6583 1 18.1999 21.3651 37.1911
6584 1 16.6173 19.7825 38.7737
6585 1 18.1999 21.3651 40.3563
6586 1 16.6173 19.7825 41.9389
6587 1 18.1999 21.3651 43.5215
6588 1 16.6173 19.7825 45.1041
6589 1 18.1999 21.3651 46.6867
6590 1 16.6173 19.7825 48.2693
6591 1 18.1999 21.3651 49.8519
6592 1 16.6173 22.9477 32.4433
6593 1 18.1999 24.5303 34.0259
6594 1 16.6173 22.9477 35.6085
6595 1 18.1999 24.5303 37.1911
6596 1 16.6173 22.9477 38.7737
6597 1 18.1999 24.5303 40.3563
6598 1 16.6173 22.9477 41.9389
6599 1 18.1999 24.5303 43.5215
6600 1 16.6173 22.9477 45.1041
6601 1 18.1999 24.5303 46.6867
6602 1 16.6173 22.9477 48.2693
6603 1 18.1999 24.5303 49.8519
6604 1 16.6173 26.1129 32.4433
6605 1 18.1999 27.6955 34.0259
6606 1 16.6173 26.1129 35.6085
6607 1 18.1999 27.6955 37.1911
6608 1 16.6173 26.1129 38.7737
6609 1 18.1999 27.6955 40.3563
6610 1 16.6173 26.1129 41.9389
6611 1 18.1999 27.6955 43.5215
6612 1 16.6173 26.1129 45.1041
6613 1 18.1999 27.6955 46.6867
6614 1 16.6173 26.1129 48.2693
6615 1 18.1999 27.6955 49.8519
6616 1 16.6173 29.2781 32.4433
6617 1 18.1999 30.8607 34.0259
6618 1 16.6173 29.2781 35.6085
6619 1 18.1999 30.8607 37.1911
6620 1 16.6173 29.2781 38.7737
6621 1 18.1999 30.8607 40.3563
6622 1 16.6173 29.2781 41.9389
6623 1 18.1999 30.8607 43.5215
6624 1 16.6173 29.2781 45.1041
6625 1 18.1999 30.8607 46.6867
6626 1 16.6173 29.2781 48.2693
6627 1 18.1999 30.8607 49.8519
6628 1 16.6173 32.4433 32.4433
6629 1 18.1999 34.0259 34.0259
6630 1 16.6173 32.4433 35.6085
6631 1 18.1999 34.0259 37.1911
6632 1 16.6173 32.4433 38.7737
6633 1 18.1999 34.0259 40.3563
6634 1 16.6173 32.4433 41.9389
6635 1 18.1999 34.0259 43.5215
6636 1 16.6173 32.4433 45.1041
6637 1 18.1999 34.0259 46.6867
6638 1 16.6173 32.4433 48.2693
6639 1 18.1999 34.0259 49.8519
6640 1 16.6173 35.6085 32.4433
6641 1 18.1999 37.1911 34.0259
6642 1 16.6173 35.6085 35.6085
6643 1 18.1999 37.1911 37.1911
6644 1 16.6173 35.6085 38.7737
6645 1 18.1999 37.1911 40.3563
6646 1 16.6173 35.6085 41.9389
6647 1 18.1999 37.1911 43.5215
6648 1 16.6173 35.6085 45.1041
6649 1 18.1999 37.1911 46.6867
6650 1 16.6173 35.6085 48.2693
6651 1 18.1999 37.1911 49.8519
6652 1 16.6173 38.7737 32.4433
6653 1 18.1999 40.3563 34.0259
6654 1 16.6173 38.7737 35.6085
6655 1 18.1999 40.3563 37.1911
6656 1 16.6173 38.7737 38.7737
6657 1 18.1999 40.3563 40.3563
6658 1 16.6173 38.7737 41.9389
6659 1 18.1999 40.3563 43.5215
6660 1 16.6173 38.7737 45.1041
6661 1 18.1999 40.3563 46.6867
6662 1 16.6173 38.7737 48.2693
6663 1 18.1999 40.3563 49.8519
6664 1 16.6173 41.9389 32.4433
6665 1 18.1999 43.5215 34.0259
6666 1 16.6173 41.9389 35.6085
6667 1 18.1999 43.5215 37.1911
6668 1 16.6173 41.9389 38.7737
6669 1 18.1999 43.5215 40.3563
6670 1 16.6173 41.9389 41.9389
6671 1 18.1999 43.5215 43.5215
6672 1 16.6173 41.9389 45.1041
6673 1 18.1999 43.5215 46.6867
6674 1 16.6173 41.9389 48.2693
6675 1 18.1999 43.5215 49.8519
6676 1 16.6173 45.1041 32.4433
6677 1 18.1999 46.6867 34.0259
6678 1 16.6173 45.1041 35.6085
6679 1 18.1999 46.6867 37.1911
6680 1 16.6173 45.1041 38.7737
6681 1 18.1999 46.6867 40.3563
6682 1 16.6173 45.1041 41.9389
6683 1 18.1999 46.6867 43.5215
6684 1 16.6173 45.1041 45.1041
6685 1 18.1999 46.6867 46.6867
6686 1 16.6173 45.1041 48.2693
6687 1 18.1999 46.6867 49.8519
6688 1 16.6173 48.2693 32.4433
6689 1 18.1999 49.8519 34.0259
6690 1 16.6173 48.2693 35.6085
6691 1 18.1999 49.8519 37.1911
6692 1 16.6173 48.2693 38.7737
6693 1 18.1999 49.8519 40.3563
6694 1 16.6173 48.2693 41.9389
6695 1 18.1999 49.8519 43.5215
6696 1 16.6173 48.2693 45.1041
6697 1 18.1999 49.8519 46.6867
6698 1 16.6173 48.2693 48.2693
6699 1 18.1999 49.8519 49.8519
6700 1 19.7825 0.7913 32.4433
6701 1 21.3651 2.3739 34.0259
6702 1 19.7825 0.7913 35.6085
6703 1 21.3651 2.3739 37.1911
6704 1 19.7825 0.7913 38.7737
6705 1 21.3651 2.3739 40.3563
6706 1 19.7825 0.7913 41.9389
6707 1 21.3651 2.3739 43.5215
6708 1 19.7825 0.7913 45.1041
6709 1 21.3651 2.3739 46.6867
6710 1 19.7825 0.7913 48.2693
6711 1 21.3651 2.3739 49.8519
6712 1 19.7825 3.9565 32.4433
6713 1 21.3651 5.5391 34.0259
6714 1 19.7825 3.9565 35.6085
6715 1 21.3651 5.5391 37.1911
6716 1 19.7825 3.9565 38.7737
6717 1 21.3651 5.5391 40.3563
6718 1 19.7825 3.9565 41.9389
6719 1 21.3651 5.5391 43.5215
6720 1 19.7825 3.9565 45.1041
6721 1 21.3651 5.5391 46.6867
6722 1 19.7825 3.9565 48.2693
6723 1 21.3651 5.5391 49.8519
6724 1 19.7825 7.1217 32.4433
6725 1 21.3651 8.7043 34.0259
6726 1 19.7825 7.1217 35.6085
6727 1 21.3651 8.7043 37.1911
6728 1 19.7825 7.1217 38.7737
6729 1 21.3651 8.7043 40.3563
6730 1 19.7825 7.1217 41.9389
6731 1 21.3651 8.7043 43.5215
6732 1 19.7825 7.1217 45.1041
6733 1 21.3651 8.7043 46.6867
6734 1 19.7825 7.1217 48.2693
6735 1 21.3651 8.7043 49.8519
6736 1 19.7825 10.2869 32.4433
6737 1 21.3651 11.8695 34.0259
6738 1 19.7825 10.2869 35.6085
6739 1 21.3651 11.8695 37.1911
6740 1 19.7825 10.2869 38.7737
6741 1 21.3651 11.8695 40.3563
6742 1 19.7825 10.2869 41.9389
6743 1 21.3651 11.8695 43.5215
6744 1 19.7825 10.2869 45.1041
6745 1 21.3651 11.8695 46.6867
6746 1 19.7825 10.2869 48.2693
6747 1 21.3651 11.8695 49.8519
6748 1 19.7825 13.4521 32.4433
6749 1 21.3651 15.0347 34.0259
6750 1 19.7825 13.4521 35.6085
6751 1 21.3651 15.0347 37.1911
6752 1 19.7825 13.4521 38.7737
6753 1 21.3651 15.0347 40.3563
6754 1 19.7825 13.4521 41.9389
6755 1 21.3651 15.0347 43.5215
6756 1 19.7825 13.4521 45.1041
6757 1 21.3651 15.0347 46.6867
6758 1 19.7825 13.4521 48.2693
6759 1 21.3651 15.0347 49.8519
6760 1 19.7825 16.6173 32.4433
6761 1 21.3651 18.1999 34.0259
6762 1 19.7825 16.6173 35.6085
6763 1 21.3651 18.1999 37.1911
6764 1 19.7825 16.6173 38.7737
6765 1 21.3651 18.1999 40.3563
6766 1 19.7825 16.6173 41.9389
6767 1 21.3651 18.1999 43.5215
6768 1 19.7825 16.6173 45.1041
6769 1 21.3651 18.1999 46.6867
6770 1 19.7825 16.6173 48.2693
6771 1 21.3651 18.1999 49.8519
6772 1 19.7825 19.7825 32.4433
6773 1 21.3651 21.3651 34.0259
6774 1 19.7825 19.7825 35.6085
6775 1 21.3651 21.3651 37.1911
6776 1 19.7825 19.7825 38.7737
6777 1 21.3651 21.3651 40.3563
6778 1 19.7825 19.7825 41.9389
6779 1 21.3651 21.3651 43.5215
6780 1 19.7825 19.7825 45.1041
6781 1 21.3651 21.3651 46.6867
6782 1 19.7825 19.7825 48.2693
6783 1 21.3651 21.3651 49.8519
6784 1 19.7825 22.9477 32.4433
6785 1 21.3651 24.5303 34.0259
6786 1 19.7825 22.9477 35.6085
6787 1 21.3651 24.5303 37.1911
6788 1 19.7825 22.9477 38.7737
6789 1 21.3651 24.5303 40.3563
6790 1 19.7825 22.9477 41.9389
6791 1 21.3651 24.5303 43.5215
6792 1 19.7825 22.9477 45.1041
6793 1 21.3651 24.5303 46.6867
6794 1 19.7825 22.9477 48.2693
6795 1 21.3651 24.5303 49.8519
6796 1 19.7825 26.1129 32.4433
6797 1 21.3651 27.6955 34.0259
6798 1 19.7825 26.1129 35.6085
6799 1 21.3651 27.6955 37.1911
6800 1 19.7825 26.1129 38.7737
6801 1 21.3651 27.6955 40.3563
6802 1 19.7825 26.1129 41.9389
6803 1 21.3651 27.6955 43.5215
6804 1 19.7825 26.1129 45.1041
6805 1 21.3651 27.6955 46.6867
6806 1 19.7825 26.1129 48.2693
6807 1 21.3651 27.6955 49.8519
6808 1 19.7825 29.2781 32.4433
6809 1 21.3651 30.8607 34.0259
6810 1 19.7825 29.2781 35.6085
6811 1 21.3651 30.8607 37.1911
6812 1 19.7825 29.2781 38.7737
6813 1 21.3651 30.8607 40.3563
6814 1 19.7825 29.2781 41.9389
6815 1 21.3651 30.8607 43.5215
6816 1 19.7825 29.2781 45.1041
6817 1 21.3651 30.8607 46.6867
6818 1 19.7825 29.2781 48.2693
6819 1 21.3651 30.8607 49.8519
6820 1 19.7825 32.4433 32.4433
6821 1 21.3651 34.0259 34.0259
6822 1 19.7825 32.4433 35.6085
6823 1 21.3651 34.0259 37.1911
6824 1 19.7825 32.4433 38.7737
6825 1 21.3651 34.0259 40.3563
6826 1 19.7825 32.4433 41.9389
6827 1 21.3651 34.0259 43.5215
6828 1 19.7825 32.4433 45.1041
6829 1 21.3651 34.0259 46.6867
6830 1 19.7825 32.4433 48.2693
6831 1 21.3651 34.0259 49.8519
6832 1 19.7825 35.6085 32.4433
6833 1 21.3651 37.1911 34.0259
6834 1 19.7825 35.6085 35.6085
6835 1 21.3651 37.1911 37.1911
6836 1 19.7825 35.6085 38.7737
6837 1 21.3651 37.1911 40.3563
6838 1 19.7825 35.6085 41.9389
6839 1 21.3651 37.1911 43.5215
6840 1 19.7825 35.6085 45.1041
6841 1 21.3651 37.1911 46.6867
6842 1 19.7825 35.6085 48.2693
6843 1 21.3651 37.1911 49.8519
6844 1 19.7825 38.7737 32.4433
6845 1 21.3651 40.3563 34.0259
6846 1 19.7825 38.7737 35.6085
6847 1 21.3651 40.3563 37.1911
6848 1 19.7825 38.7737 38.7737
6849 1 21.3651 40.3563 40.3563
6850 1 19.7825 38.7737 41.9389
6851 1 21.3651 40.3563 43.5215
6852 1 19.7825 38.7737 45.1041
6853 1 21.3651 40.3563 46.6867
6854 1 19.7825 38.7737 48.2693
6855 1 21.3651 40.3563 49.8519
6856 1 19.7825 41.9389 32.4433
6857 1 21.3651 43.5215 34.0259
6858 1 19.7825 41.9389 35.6085
6859 1 21.3651 43.5215 37.1911
6860 1 19.7825 41.9389 38.7737
6861 1 21.3651 43.5215 40.3563
6862 1 19.7825 41.9389 41.9389
6863 1 21.3651 43.5215 43.5215
6864 1 19.7825 41.9389 45.1041
6865 1 21.3651 43.5215 46.6867
6866 1 19.7825 41.9389 48.2693
6867 1 21.3651 43.5215 49.8519
6868 1 19.7825 45.1041 32.4433
6869 1 21.3651 46.6867 34.0259
6870 1 19.7825 45.1041 35.6085
6871 1 21.3651 46.6867 37.1911
6872 1 19.7825 45.1041 38.7737
6873 1 21.3651 46.6867 40.3563
6874 1 19.7825 45.1041 41.9389
6875 1 21.3651 46.6867 43.5215
6876 1 19.7825 45.1041 45.1041
6877 1 21.3651 46.6867 46.6867
6878 1 19.7825 45.1041 48.2693
6879 1 21.3651 46.6867 49.8519
6880 1 19.7825 48.2693 32.4433
6881 1 21.3651 49.8519 34.0259
6882 1 19.7825 48.2693 35.6085
6883 1 21.3651 49.8519 37.1911
6884 1 19.7825 48.2693 38.7737
6885 1 21.3651 49.8519 40.3563
6886 1 19.7825 48.2693 41.9389
6887 1 21.3651 49.8519 43.5215
6888 1 19.7825 48.2693 45.1041
6889 1 21.3651 49.8519 46.6867
6890 1 19.7825 48.2693 48.2693
6891 1 21.3651 49.8519 49.8519
6892 1 22.9477 0.7913 32.4433
6893 1 24.5303 2.3739 34.0259
6894 1 22.9477 0.7913 35.6085
6895 1 24.5303 2.3739 37.1911
6896 1 22.9477 0.7913 38.7737
6897 1 24.5303 2.3739 40.3563
6898 1 22.9477 0.7913 41.9389
6899 1 24.5303 2.3739 43.5215
6900 1 22.9477 0.7913 45.1041
6901 1 24.5303 2.3739 46.6867
6902 1 22.9477 0.7913 48.2693
6903 1 24.5303 2.3739 49.8519
6904 1 22.9477 3.9565 32.4433
6905 1 24.5303 5.5391 34.0259
6906 1 22.9477 3.9565 35.6085
6907 1 24.5303 5.5391 37.1911
6908 1 22.9477 3.9565 38.7737
6909 1 24.5303 5.5391 40.3563
6910 1 22.9477 3.9565 41.9389
6911 1 24.5303 5.5391 43.5215
6912 1 22.9477 3.9565 45.1041
6913 1 24.5303 5.5391 46.6867
6914 1 22.9477 3.9565 48.2693
6915 1 24.5303 5.5391 49.8519
6916 1 22.9477 7.1217 32.4433
6917 1 24.5303 8.7043 34.0259
6918 1 22.9477 7.1217 35.6085
6919 1 24.5303 8.7043 37.1911
6920 1 22.9477 7.1217 38.7737
6921 1 24.5303 8.7043 40.3563
6922 1 22.9477 7.1217 41.9389
6923 1 24.5303 8.7043 43.5215
6924 1 22.9477 7.1217 45.1041
6925 1 24.5303 8.7043 46.6867
6926 1 22.9477 7.1217 48.2693
6927 1 24.5303 8.7043 49.8519
6928 1 22.9477 10.2869 32.4433
6929 1 24.5303 11.8695 34.0259
6930 1 22.9477 10.2869 35.6085
6931 1 24.5303 11.8695 37.1911
6932 1 22.9477 10.2869 38.7737
6933 1 24.5303 11.8695 40.3563
6934 1 22.9477 10.2869 41.9389
6935 1 24.5303 11.8695 43.5215
6936 1 22.9477 10.2869 45.1041
6937 1 24.5303 11.8695 46.6867
6938 1 22.9477 10.2869 48.2693
6939 1 24.5303 11.8695 49.8519
6940 1 22.9477 13.4521 32.4433
6941 1 24.5303 15.0347 34.0259
6942 1 22.9477 13.4521 35.6085
6943 1 24.5303 15.0347 37.1911
6944 1 22.9477 13.4521 38.7737
6945 1 24.5303 15.0347 40.3563
6946 1 22.9477 13.4521 41.9389
6947 1 24.5303 15.0347 43.5215
6948 1 22.9477 13.4521 45.1041
6949 1 24.5303 15.0347 46.6867
6950 1 22.9477 13.4521 48.2693
6951 1 24.5303 15.0347 49.8519
6952 1 22.9477 16.6173 32.4433
6953 1 24.5303 18.1999 34.0259
6954 1 22.9477 16.6173 35.6085
6955 1 24.5303 18.1999 37.1911
6956 1 22.9477 16.6173 38.7737
6957 1 24.5303 18.1999 40.3563
6958 1 22.9477 16.6173 41.9389
6959 1 24.5303 18.1999 43.5215
6960 1 22.9477 16.6173 45.1041
6961 1 24.5303 18.1999 46.6867
6962 1 22.9477 16.6173 48.2693
6963 1 24.5303 18.1999 49.8519
6964 1 22.9477 19.7825 32.4433
6965 1 24.5303 21.3651 34.0259
6966 1 22.9477 19.7825 35.6085
6967 1 24.5303 21.3651 37.1911
6968 1 22.9477 19.7825 38.7737
6969 1 24.5303 21.3651 40.3563
6970 1 22.9477 19.7825 41.9389
6971 1 24.5303 21.3651 43.5215
6972 1 22.9477 19.7825 45.1041
6973 1 24.5303 21.3651 46.6867
6974 1 22.9477 19.7825 48.2693
6975 1 24.5303 21.3651 49.8519
6976 1 22.9477 22.9477 32.4433
6977 1 24.5303 24.5303 34.0259
6978 1 22.9477 22.9477 35.6085
6979 1 24.5303 24.5303 37.1911
6980 1 22.9477 22.9477 38.7737
6981 1 24.5303 24.5303 40.3563
6982 1 22.9477 22.9477 41.9389
6983 1 24.5303 24.5303 43.5215
6984 1 22.9477 22.9477 45.1041
6985 1 24.5303 24.5303 46.6867
6986 1 22.9477 22.9477 48.2693
6987 1 24.5303 24.5303 49.8519
6988 1 22.9477 26.1129 32.4433
6989 1 24.5303 27.6955 34.0259
6990 1 22.9477 26.1129 35.6085
6991 1 24.5303 27.6955 37.1911
6992 1 22.9477 26.1129 38.7737
6993 1 24.5303 27.6955 40.3563
6994 1 22.9477 26.1129 41.9389
6995 1 24.5303 27.6955 43.5215
6996 1 22.9477 26.1129 45.1041
6997 1 24.5303 27.6955 46.6867
6998 1 22.9477 26.1129 48.2693
6999 1 24.5303 27.6955 49.8519
7000 1 22.9477 29.2781 32.4433
7001 1 24.5303 30.8607 34.0259
7002 1 22.9477 29.2781 35.6085
7003 1 24.5303 30.8607 37.1911
7004 1 22.9477 29.2781 38.7737
7005 1 24.5303 30.8607 40.3563
7006 1 22.9477 29.2781 41.9389
7007 1 24.5303 30.8607 43.5215
7008 1 22.9477 29.2781 45.1041
7009 1 24.5303 30.8607 46.6867
7010 1 22.9477 29.2781 48.2693
7011 1 24.5303 30.8607 49.8519
7012 1 22.9477 32.4433 32.4433
7013 1 24.5303 34.0259 34.0259
7014 1 22.9477 32.4433 35.6085
7015 1 24.5303 34.0259 37.1911
7016 1 22.9477 32.4433 38.7737
7017 1 24.5303 34.0259 40.3563
7018 1 22.9477 32.4433 41.9389
7019 1 24.5303 34.0259 43.5215
7020 1 22.9477 32.4433 45.1041
7021 1 24.5303 34.0259 46.6867
7022 1 22.9477 32.4433 48.2693
7023 1 24.5303 34.0259 49.8519
7024 1 22.9477 35.6085 32.4433
7025 1 24.5303 37.1911 34.0259
7026 1 22.9477 35.6085 35.6085
7027 1 24.5303 37.1911 37.1911
7028 1 22.9477 35.6085 38.7737
7029 1 24.5303 37.1911 40.3563
7030 1 22.9477 35.6085 41.9389
7031 1 24.5303 37.1911 43.5215
7032 1 22.9477 35.6085 45.1041
7033 1 24.5303 37.1911 46.6867
7034 1 22.9477 35.6085 48.2693
7035 1 24.5303 37.1911 49.8519
7036 1 22.9477 38.7737 32.4433
7037 1 24.5303 40.3563 34.0259
7038 1 22.9477 38.7737 35.6085
7039 1 24.5303 40.3563 37.1911
7040 1 22.9477 38.7737 38.7737
7041 1 24.5303 40.3563 40.3563
7042 1 22.9477 38.7737 41.9389
7043 1 24.5303 40.3563 43.5215
7044 1 22.9477 38.7737 45.1041
7045 1 24.5303 40.3563 46.6867
7046 1 22.9477 38.7737 48.2693
7047 1 24.5303 40.3563 49.8519
7048 1 22.9477 41.9389 32.4433
7049 1 24.5303 43.5215 34.0259
7050 1 22.9477 41.9389 35.6085
7051 1 24.5303 43.5215 37.1911
7052 1 22.9477 41.9389 38.7737
7053 1 24.5303 43.5215 40.3563
7054 1 22.9477 41.9389 41.9389
7055 1 24.5303 43.5215 43.5215
7056 1 22.9477 41.9389 45.1041
7057 1 24.5303 43.5215 46.6867
7058 1 22.9477 41.9389 48.2693
7059 1 24.5303 43.5215 49.8519
7060 1 22.9477 45.1041 32.4433
7061 1 24.5303 46.6867 34.0259
7062 1 22.9477 45.1041 35.6085
7063 1 24.5303 46.6867 37.1911
7064 1 22.9477 45.1041 38.7737
7065 1 24.5303 46.6867 40.3563
7066 1 22.9477 45.1041 41.9389
7067 1 24.5303 46.6867 43.5215
7068 1 22.9477 45.1041 45.1041
7069 1 24.5303 46.6867 46.6867
7070 1 22.9477 45.1041 48.2693
7071 1 24.5303 46.6867 49.8519
7072 1 22.9477 48.2693 32.4433
7073 1 24.5303 49.8519 34.0259
7074 1 22.9477 48.2693 35.6085
7075 1 24.5303 49.8519 37.1911
7076 1 22.9477 48.2693 38.7737
7077 1 24.5303 49.8519 40.3563
7078 1 22.9477 48.2693 41.9389
7079 1 24.5303 49.8519 43.5215
7080 1 22.9477 48.2693 45.1041
7081 1 24.5303 49.8519 46.6867
7082 1 22.9477 48.2693 48.2693
7083 1 24.5303 49.8519 49.8519
7084 1 26.1129 0.7913 32.4433
7085 1 27.6955 2.3739 34.0259
7086 1 26.1129 0.7913 35.6085
7087 1 27.6955 2.3739 37.1911
7088 1 26.1129 0.7913 38.7737
7089 1 27.6955 2.3739 40.3563
7090 1 26.1129 0.7913 41.9389
7091 1 27.6955 2.3739 43.5215
7092 1 26.1129 0.7913 45.1041
7093 1 27.6955 2.3739 46.6867
7094 1 26.1129 0.7913 48.2693
7095 1 27.6955 2.3739 49.8519
7096 1 26.1129 3.9565 32.4433
7097 1 27.6955 5.5391 34.0259
7098 1 26.1129 3.9565 35.6085
7099 1 27.6955 5.5391 37.1911
7100 1 26.1129 3.9565 38.7737
7101 1 27.6955 5.5391 40.3563
7102 1 26.1129 3.9565 41.9389
7103 1 27.6955 5.5391 43.5215
7104 1 26.1129 3.9565 45.1041
7105 1 27.6955 5.5391 46.6867
7106 1 26.1129 3.9565 48.2693
7107 1 27.6955 5.5391 49.8519
7108 1 26.1129 7.1217 32.4433
7109 1 27.6955 8.7043 34.0259
7110 1 26.1129 7.1217 35.6085
7111 1 27.6955 8.7043 37.1911
7112 1 26.1129 7.1217 38.7737
7113 1 27.6955 8.7043 40.3563
7114 1 26.1129 7.1217 41.9389
7115 1 27.6955 8.7043 43.5215
7116 1 26.1129 7.1217 45.1041
7117 1 27.6955 8.7043 46.6867
7118 1 26.1129 7.1217 48.2693
7119 1 27.6955 8.7043 49.8519
7120 1 26.1129 10.2869 32.4433
7121 1 27.6955 11.8695 34.0259
7122 1 26.1129 10.2869 35.6085
7123 1 27.6955 11.8695 37.1911
7124 1 26.1129 10.2869 38.7737
7125 1 27.6955 11.8695 40.3563
7126 1 26.1129 10.2869 41.9389
7127 1 27.6955 11.8695 43.5215
7128 1 26.1129 10.2869 45.1041
7129 1 27.6955 11.8695 46.6867
7130 1 26.1129 10.2869 48.2693
7131 1 27.6955 11.8695 49.8519
7132 1 26.1129 13.4521 32.4433
7133 1 27.6955 15.0347 34.0259
7134 1 26.1129 13.4521 35.6085
7135 1 27.6955 15.0347 37.1911
7136 1 26.1129 13.4521 38.7737
7137 1 27.6955 15.0347 40.3563
7138 1 26.1129 13.4521 41.9389
7139 1 27.6955 15.0347 43.5215
7140 1 26.1129 13.4521 45.1041
7141 1 27.6955 15.0347 46.6867
7142 1 26.1129 13.4521 48.2693
7143 1 27.6955 15.0347 49.8519
7144 1 26.1129 16.6173 32.4433
7145 1 27.6955 18.1999 34.0259
7146 1 26.1129 16.6173 35.6085
7147 1 27.6955 18.1999 37.1911
7148 1 26.1129 16.6173 38.7737
7149 1 27.6955 18.1999 40.3563
7150 1 26.1129 16.6173 41.9389
7151 1 27.6955 18.1999 43.5215
7152 1 26.1129 16.6173 45.1041
7153 1 27.6955 18.1999 46.6867
7154 1 26.1129 16.6173 48.2693
7155 1 27.6955 18.1999 49.8519
7156 1 26.1129 19.7825 32.4433
7157 1 27.6955 21.3651 34.0259
7158 1 26.1129 19.7825 35.6085
7159 1 27.6955 21.3651 37.1911
7160 1 26.1129 19.7825 38.7737
7161 1 27.6955 21.3651 40.3563
7162 1 26.1129 19.7825 41.9389
7163 1 27.6955 21.3651 43.5215
7164 1 26.1129 19.7825 45.1041
7165 1 27.6955 21.3651 46.6867
7166 1 26.1129 19.7825 48.2693
7167 1 27.6955 21.3651 49.8519
7168 1 26.1129 22.9477 32.4433
7169 1 27.6955 24.5303 34.0259
7170 1 26.1129 22.9477 35.6085
7171 1 27.6955 24.5303 37.1911
7172 1 26.1129 22.9477 38.7737
7173 1 27.6955 24.5303 40.3563
7174 1 26.1129 22.9477 41.9389
7175 1 27.6955 24.5303 43.5215
7176 1 26.1129 22.9477 45.1041
7177 1 27.6955 24.5303 46.6867
7178 1 26.1129 22.9477 48.2693
7179 1 27.6955 24.5303 49.8519
7180 1 26.1129 26.1129 32.4433
7181 1 27.6955 27.6955 34.0259
7182 1 26.1129 26.1129 35.6085
7183 1 27.6955 27.6955 37.1911
7184 1 26.1129 26.1129 38.7737
7185 1 27.6955 27.6955 40.3563
7186 1 26.1129 26.1129 41.9389
7187 1 27.6955 27.6955 43.5215
7188 1 26.1129 26.1129 45.1041
7189 1 27.6955 27.6955 46.6867
7190 1 26.1129 26.1129 48.2693
7191 1 27.6955 27.6955 49.8519
7192 1 26.1129 29.2781 32.4433
7193 1 27.6955 30.8607 34.0259
7194 1 26.1129 29.2781 35.6085
7195 1 27.6955 30.8607 37.1911
7196 1 26.1129 29.2781 38.7737
7197 1 27.6955 30.8607 40.3563
7198 1 26.1129 29.2781 41.9389
7199 1 27.6955 30.8607 43.5215
7200 1 26.1129 29.2781 45.1041
7201 1 27.6955 30.8607 46.6867
7202 1 26.1129 29.2781 48.2693
7203 1 27.6955 30.8607 49.8519
7204 1 26.1129 32.4433 32.4433
7205 1 27.6955 34.0259 34.0259
7206 1 26.1129 32.4433 35.6085
7207 1 27.6955 34.0259 37.1911
7208 1 26.1129 32.4433 38.7737
7209 1 27.6955 34.0259 40.3563
7210 1 26.1129 32.4433 41.9389
7211 1 27.6955 34.0259 43.5215
7212 1 26.1129 32.4433 45.1041
7213 1 27.6955 34.0259 46.6867
7214 1 26.1129 32.4433 48.2693
7215 1 27.6955 34.0259 49.8519
7216 1 26.1129 35.6085 32.4433
7217 1 27.6955 37.1911 34.0259
7218 1 26.1129 35.6085 35.6085
7219 1 27.6955 37.1911 37.1911
7220 1 26.1129 35.6085 38.7737
7221 1 27.6955 37.1911 40.3563
7222 1 26.1129 35.6085 41.9389
7223 1 27.6955 37.1911 43.5215
7224 1 26.1129 35.6085 45.1041
7225 1 27.6955 37.1911 46.6867
7226 1 26.1129 35.6085 48.2693
7227 1 27.6955 37.1911 49.8519
7228 1 26.1129 38.7737 32.4433
7229 1 27.6955 40.3563 34.0259
7230 1 26.1129 38.7737 35.6085
7231 1 27.6955 40.3563 37.1911
7232 1 26.1129 38.7737 38.7737
7233 1 27.6955 40.3563 40.3563
7234 1 26.1129 38.7737 41.9389
7235 1 27.6955 40.3563 43.5215
7236 1 26.1129 38.7737 45.1041
7237 1 27.6955 40.3563 46.6867
7238 1 26.1129 38.7737 48.2693
7239 1 27.6955 40.3563 49.8519
7240 1 26.1129 41.9389 32.4433
7241 1 27.6955 43.5215 34.0259
7242 1 26.1129 41.9389 35.6085
7243 1 27.6955 43.5215 37.1911
7244 1 26.1129 41.9389 38.7737
7245 1 27.6955 43.5215 40.3563
7246 1 26.1129 41.9389 41.9389
7247 1 27.6955 43.5215 43.5215
7248 1 26.1129 41.9389 45.1041
7249 1 27.6955 43.5215 46.6867
7250 1 26.1129 41.9389 48.2693
7251 1 27.6955 43.5215 49.8519
7252 1 26.1129 45.1041 32.4433
7253 1 27.6955 46.6867 34.0259
7254 1 26.1129 45.1041 35.6085
7255 1 27.6955 46.6867 37.1911
7256 1 26.1129 45.1041 38.7737
7257 1 27.6955 46.6867 40.3563
7258 1 26.1129 45.1041 41.9389
7259 1 27.6955 46.6867 43.5215
7260 1 26.1129 45.1041 45.1041
7261 1 27.6955 46.6867 46.6867
7262 1 26.1129 45.1041 48.2693
7263 1 27.6955 46.6867 49.8519
7264 1 26.1129 48.2693 32.4433
7265 1 27.6955 49.8519 34.0259
7266 1 26.1129 48.2693 35.6085
7267 1 27.6955 49.8519 37.1911
7268 1 26.1129 48.2693 38.7737
7269 1 27.6955 49.8519 40.3563
7270 1 26.1129 48.2693 41.9389
7271 1 27.6955 49.8519 43.5215
7272 1 26.1129 48.2693 45.1041
7273 1 27.6955 49.8519 46.6867
7274 1 26.1129 48.2693 48.2693
7275 1 27.6955 49.8519 49.8519
7276 1 29.2781 0.7913 32.4433
7277 1 30.8607 2.3739 34.0259
7278 1 29.2781 0.7913 35.6085
7279 1 30.8607 2.3739 37.1911
7280 1 29.2781 0.7913 38.7737
7281 1 30.8607 2.3739 40.3563
7282 1 29.2781 0.7913 41.9389
7283 1 30.8607 2.3739 43.5215
7284 1 29.2781 0.7913 45.1041
7285 1 30.8607 2.3739 46.6867
7286 1 29.2781 0.7913 48.2693
7287 1 30.8607 2.3739 49.8519
7288 1 29.2781 3.9565 32.4433
7289 1 30.8607 5.5391 34.0259
7290 1 29.2781 3.9565 35.6085
7291 1 30.8607 5.5391 37.1911
7292 1 29.2781 3.9565 38.7737
7293 1 30.8607 5.5391 40.3563
7294 1 29.2781 3.9565 41.9389
7295 1 30.8607 5.5391 43.5215
7296 1 29.2781 3.9565 45.1041
7297 1 30.8607 5.5391 46.6867
7298 1 29.2781 3.9565 48.2693
7299 1 30.8607 5.5391 49.8519
7300 1 29.2781 7.1217 32.4433
7301 1 30.8607 8.7043 34.0259
7302 1 29.2781 7.1217 35.6085
7303 1 30.8607 8.7043 37.1911
7304 1 29.2781 7.1217 38.7737
7305 1 30.8607 8.7043 40.3563
7306 1 29.2781 7.1217 41.9389
7307 1 30.8607 8.7043 43.5215
7308 1 29.2781 7.1217 45.1041
7309 1 30.8607 8.7043 46.6867
7310 1 29.2781 7.1217 48.2693
7311 1 30.8607 8.7043 49.8519
7312 1 29.2781 10.2869 32.4433
7313 1 30.8607 11.8695 34.0259
7314 1 29.2781 10.2869 35.6085
7315 1 30.8607 11.8695 37.1911
7316 1 29.2781 10.2869 38.7737
7317 1 30.8607 11.8695 40.3563
7318 1 29.2781 10.2869 41.9389
7319 1 30.8607 11.8695 43.5215
7320 1 29.2781 10.2869 45.1041
7321 1 30.8607 11.8695 46.6867
7322 1 29.2781 10.2869 48.2693
7323 1 30.8607 11.8695 49.8519
7324 1 29.2781 13.4521 32.4433
7325 1 30.8607 15.0347 34.0259
7326 1 29.2781 13.4521 35.6085
7327 1 30.8607 15.0347 37.1911
7328 1 29.2781 13.4521 38.7737
7329 1 30.8607 15.0347 40.3563
7330 1 29.2781 13.4521 41.9389
7331 1 30.8607 15.0347 43.5215
7332 1 29.2781 13.4521 45.1041
7333 1 30.8607 15.0347 46.6867
7334 1 29.2781 13.4521 48.2693
7335 1 30.8607 15.0347 49.8519
7336 1 29.2781 16.6173 32.4433
7337 1 30.8607 18.1999 34.0259
7338 1 29.2781 16.6173 35.6085
7339 1 30.8607 18.1999 37.1911
7340 1 29.2781 16.6173 38.7737
7341 1 30.8607 18.1999 40.3563
7342 1 29.2781 16.6173 41.9389
7343 1 30.8607 18.1999 43.5215
7344 1 29.2781 16.6173 45.1041
7345 1 30.8607 18.1999 46.6867
7346 1 29.2781 16.6173 48.2693
7347 1 30.8607 18.1999 49.8519
7348 1 29.2781 19.7825 32.4433
7349 1 30.8607 21.3651 34.0259
7350 1 29.2781 19.7825 35.6085
7351 1 30.8607 21.3651 37.1911
7352 1 29.2781 19.7825 38.7737
7353 1 30.8607 21.3651 40.3563
7354 1 29.2781 19.7825 41.9389
7355 1 30.8607 21.3651 43.5215
7356 1 29.2781 19.7825 45.1041
7357 1 30.8607 21.3651 46.6867
7358 1 29.2781 19.7825 48.2693
7359 1 30.8607 21.3651 49.8519
7360 1 29.2781 22.9477 32.4433
7361 1 30.8607 24.5303 34.0259
7362 1 29.2781 22.9477 35.6085
7363 1 30.8607 24.5303 37.1911
7364 1 29.2781 22.9477 38.7737
7365 1 30.8607 24.5303 40.3563
7366 1 29.2781 22.9477 41.9389
7367 1 30.8607 24.5303 43.5215
7368 1 29.2781 22.9477 45.1041
7369 1 30.8607 24.5303 46.6867
7370 1 29.2781 22.9477 48.2693
7371 1 30.8607 24.5303 49.8519
7372 1 29.2781 26.1129 32.4433
7373 1 30.8607 27.6955 34.0259
7374 1 29.2781 26.1129 35.6085
7375 1 30.8607 27.6955 37.1911
7376 1 29.2781 26.1129 38.7737
7377 1 30.8607 27.6955 40.3563
7378 1 29.2781 26.1129 41.9389
7379 1 30.8607 27.6955 43.5215
7380 1 29.2781 26.1129 45.1041
7381 1 30.8607 27.6955 46.6867
7382 1 29.2781 26.1129 48.2693
7383 1 30.8607 27.6955 49.8519
7384 1 29.2781 29.2781 32.4433
7385 1 30.8607 30.8607 34.0259
7386 1 29.2781 29.2781 35.6085
7387 1 30.8607 30.8607 37.1911
7388 1 29.2781 29.2781 38.7737
7389 1 30.8607 30.8607 40.3563
7390 1 29.2781 29.2781 41.9389
7391 1 30.8607 30.8607 43.5215
7392 1 29.2781 29.2781 45.1041
7393 1 30.8607 30.8607 46.6867
7394 1 29.2781 29.2781 48.2693
7395 1 30.8607 30.8607 49.8519
7396 1 29.2781 32.4433 32.4433
7397 1 30.8607 34.0259 34.0259
7398 1 29.2781 32.4433 35.6085
7399 1 30.8607 34.0259 37.1911
7400 1 29.2781 32.4433 38.7737
7401 1 30.8607 34.0259 40.3563
7402 1 29.2781 32.4433 41.9389
7403 1 30.8607 34.0259 43.5215
7404 1 29.2781 32.4433 45.1041
7405 1 30.8607 34.0259 46.6867
7406 1 29.2781 32.4433 48.2693
7407 1 30.8607 34.0259 49.8519
7408 1 29.2781 35.6085 32.4433
7409 1 30.8607 37.1911 34.0259
7410 1 29.2781 35.6085 35.6085
7411 1 30.8607 37.1911 37.1911
7412 1 29.2781 35.6085 38.7737
7413 1 30.8607 37.1911 40.3563
7414 1 29.2781 35.6085 41.9389
7415 1 30.8607 37.1911 43.5215
7416 1 29.2781 35.6085 45.1041
7417 1 30.8607 37.1911 46.6867
7418 1 29.2781 35.6085 48.2693
7419 1 30.8607 37.1911 49.8519
7420 1 29.2781 38.7737 32.4433
7421 1 30.8607 40.3563 34.0259
7422 1 29.2781 38.7737 35.6085
7423 1 30.8607 40.3563 37.1911
7424 1 29.2781 38.7737 38.7737
7425 1 30.8607 40.3563 40.3563
7426 1 29.2781 38.7737 41.9389
7427 1 30.8607 40.3563 43.5215
7428 1 29.2781 38.7737 45.1041
7429 1 30.8607 40.3563 46.6867
7430 1 29.2781 38.7737 48.2693
7431 1 30.8607 40.3563 49.8519
7432 1 29.2781 41.9389 32.4433
7433 1 30.8607 43.5215 34.0259
7434 1 29.2781 41.9389 35.6085
7435 1 30.8607 43.5215 37.1911
7436 1 29.2781 41.9389 38.7737
7437 1 30.8607 43.5215 40.3563
7438 1 29.2781 41.9389 41.9389
7439 1 30.8607 43.5215 43.5215
7440 1 29.2781 41.9389 45.1041
7441 1 30.8607 43.5215 46.6867
7442 1 29.2781 41.9389 48.2693
7443 1 30.8607 43.5215 49.8519
7444 1 29.2781 45.1041 32.4433
7445 1 30.8607 46.6867 34.0259
7446 1 29.2781 45.1041 35.6085
7447 1 30.8607 46.6867 37.1911
7448 1 29.2781 45.1041 38.7737
7449 1 30.8607 46.6867 40.3563
7450 1 29.2781 45.1041 41.9389
7451 1 30.8607 46.6867 43.5215
7452 1 29.2781 45.1041 45.1041
7453 1 30.8607 46.6867 46.6867
7454 1 29.2781 45.1041 48.2693
7455 1 30.8607 46.6867 49.8519
7456 1 29.2781 48.2693 32.4433
7457 1 30.8607 49.8519 34.0259
7458 1 29.2781 48.2693 35.6085
7459 1 30.8607 49.8519 37.1911
7460 1 29.2781 48.2693 38.7737
7461 1 30.8607 49.8519 40.3563
7462 1 29.2781 48.2693 41.9389
7463 1 30.8607 49.8519 43.5215
7464 1 29.2781 48.2693 45.1041
7465 1 30.8607 49.8519 46.6867
7466 1 29.2781 48.2693 48.2693
7467 1 30.8607 49.8519 49.8519
7468 1 32.4433 0.7913 32.4433
7469 1 34.0259 2.3739 34.0259
7470 1 32.4433 0.7913 35.6085
7471 1 34.0259 2.3739 37.1911
7472 1 32.4433 0.7913 38.7737
7473 1 34.0259 2.3739 40.3563
7474 1 32.4433 0.7913 41.9389
7475 1 34.0259 2.3739 43.5215
7476 1 32.4433 0.7913 45.1041
7477 1 34.0259 2.3739 46.6867
7478 1 32.4433 0.7913 48.2693
7479 1 34.0259 2.3739 49.8519
7480 1 32.4433 3.9565 32.4433
7481 1 34.0259 5.5391 34.0259
7482 1 32.4433 3.9565 35.6085
7483 1 34.0259 5.5391 37.1911
7484 1 32.4433 3.9565 38.7737
7485 1 34.0259 5.5391 40.3563
7486 1 32.4433 3.9565 41.9389
7487 1 34.0259 5.5391 43.5215
7488 1 32.4433 3.9565 45.1041
7489 1 34.0259 5.5391 46.6867
7490 1 32.4433 3.9565 48.2693
7491 1 34.0259 5.5391 49.8519
7492 1 32.4433 7.1217 32.4433
7493 1 34.0259 8.7043 34.0259
7494 1 32.4433 7.1217 35.6085
7495 1 34.0259 8.7043 37.1911
7496 1 32.4433 7.1217 38.7737
7497 1 34.0259 8.7043 40.3563
7498 1 32.4433 7.1217 41.9389
7499 1 34.0259 8.7043 43.5215
7500 1 32.4433 7.1217 45.1041
7501 1 34.0259 8.7043 46.6867
7502 1 32.4433 7.1217 48.2693
7503 1 34.0259 8.7043 49.8519
7504 1 32.4433 10.2869 32.4433
7505 1 34.0259 11.8695 34.0259
7506 1 32.4433 10.2869 35.6085
7507 1 34.0259 11.8695 37.1911
7508 1 32.4433 10.2869 38.7737
7509 1 34.0259 11.8695 40.3563
7510 1 32.4433 10.2869 41.9389
7511 1 34.0259 11.8695 43.5215
7512 1 32.4433 10.2869 45.1041
7513 1 34.0259 11.8695 46.6867
7514 1 32.4433 10.2869 48.2693
7515 1 34.0259 11.8695 49.8519
7516 1 32.4433 13.4521 32.4433
7517 1 34.0259 15.0347 34.0259
7518 1 32.4433 13.4521 35.6085
7519 1 34.0259 15.0347 37.1911
7520 1 32.4433 13.4521 38.7737
7521 1 34.0259 15.0347 40.3563
7522 1 32.4433 13.4521 41.9389
7523 1 34.0259 15.0347 43.5215
7524 1 32.4433 13.4521 45.1041
7525 1 34.0259 15.0347 46.6867
7526 1 32.4433 13.4521 48.2693
7527 1 34.0259 15.0347 49.8519
7528 1 32.4433 16.6173 32.4433
7529 1 34.0259 18.1999 34.0259
7530 1 32.4433 16.6173 35.6085
7531 1 34.0259 18.1999 37.1911
7532 1 32.4433 16.6173 38.7737
7533 1 34.0259 18.1999 40.3563
7534 1 32.4433 16.6173 41.9389
7535 1 34.0259 18.1999 43.5215
7536 1 32.4433 16.6173 45.1041
7537 1 34.0259 18.1999 46.6867
7538 1 32.4433 16.6173 48.2693
7539 1 34.0259 18.1999 49.8519
7540 1 32.4433 19.7825 32.4433
7541 1 34.0259 21.3651 34.0259
7542 1 32.4433 19.7825 35.6085
7543 1 34.0259 21.3651 37.1911
7544 1 32.4433 19.7825 38.7737
7545 1 34.0259 21.3651 40.3563
7546 1 32.4433 19.7825 41.9389
7547 1 34.0259 21.3651 43.5215
7548 1 32.4433 19.7825 45.1041
7549 1 34.0259 21.3651 46.6867
7550 1 32.4433 19.7825 48.2693
7551 1 34.0259 21.3651 49.8519
7552 1 32.4433 22.9477 32.4433
7553 1 34.0259 24.5303 34.0259
7554 1 32.4433 22.9477 35.6085
7555 1 34.0259 24.5303 37.1911
7556 1 32.4433 22.9477 38.7737
7557 1 34.0259 24.5303 40.3563
7558 1 32.4433 22.9477 41.9389
7559 1 34.0259 24.5303 43.5215
7560 1 32.4433 22.9477 45.1041
7561 1 34.0259 24.5303 46.6867
7562 1 32.4433 22.9477 48.2693
7563 1 34.0259 24.5303 49.8519
7564 1 32.4433 26.1129 32.4433
7565 1 34.0259 27.6955 34.0259
7566 1 32.4433 26.1129 35.6085
7567 1 34.0259 27.6955 37.1911
7568 1 32.4433 26.1129 38.7737
7569 1 34.0259 27.6955 40.3563
7570 1 32.4433 26.1129 41.9389
7571 1 34.0259 27.6955 43.5215
7572 1 32.4433 26.1129 45.1041
7573 1 34.0259 27.6955 46.6867
7574 1 32.4433 26.1129 48.2693
7575 1 34.0259 27.6955 49.8519
7576 1 32.4433 29.2781 32.4433
7577 1 34.0259 30.8607 34.0259
7578 1 32.4433 29.2781 35.6085
7579 1 34.0259 30.8607 37.1911
7580 1 32.4433 29.2781 38.7737
7581 1 34.0259 30.8607 40.3563
7582 1 32.4433 29.2781 41.9389
7583 1 34.0259 30.8607 43.5215
7584 1 32.4433 29.2781 45.1041
7585 1 34.0259 30.8607 46.6867
7586 1 32.4433 29.2781 48.2693
7587 1 34.0259 30.8607 49.8519
7588 1 32.4433 32.4433 32.4433
7589 1 34.0259 34.0259 34.0259
7590 1 32.4433 32.4433 35.6085
7591 1 34.0259 34.0259 37.1911
7592 1 32.4433 32.4433 38.7737
7593 1 34.0259 34.0259 40.3563
7594 1 32.4433 32.4433 41.9389
7595 1 34.0259 34.0259 43.5215
7596 1 32.4433 32.4433 45.1041
7597 1 34.0259 34.0259 46.6867
7598 1 32.4433 32.4433 48.2693
7599 1 34.0259 34.0259 49.8519
7600 1 32.4433 35.6085 32.4433
7601 1 34.0259 37.1911 34.0259
7602 1 32.4433 35.6085 35.6085
7603 1 34.0259 37.1911 37.1911
7604 1 32.4433 35.6085 38.7737
7605 1 34.0259 37.1911 40.3563
7606 1 32.4433 35.6085 41.9389
7607 1 34.0259 37.1911 43.5215
7608 1 32.4433 35.6085 45.1041
7609 1 34.0259 37.1911 46.6867
7610 1 32.4433 35.6085 48.2693
7611 1 34.0259 37.1911 49.8519
7612 1 32.4433 38.7737 32.4433
7613 1 34.0259 40.3563 34.0259
7614 1 32.4433 38.7737 35.6085
7615 1 34.0259 40.3563 37.1911
7616 1 32.4433 38.7737 38.7737
7617 1 34.0259 40.3563 40.3563
7618 1 32.4433 38.7737 41.9389
7619 1 34.0259 40.3563 43.5215
7620 1 32.4433 38.7737 45.1041
7621 1 34.0259 40.3563 46.6867
7622 1 32.4433 38.7737 48.2693
7623 1 34.0259 40.3563 49.8519
7624 1 32.4433 41.9389 32.4433
7625 1 34.0259 43.5215 34.0259
7626 1 32.4433 41.9389 35.6085
7627 1 34.0259 43.5215 37.1911
7628 1 32.4433 41.9389 38.7737
7629 1 34.0259 43.5215 40.3563
7630 1 32.4433 41.9389 41.9389
7631 1 34.0259 43.5215 43.5215
7632 1 32.4433 41.9389 45.1041
7633 1 34.0259 43.5215 46.6867
7634 1 32.4433 41.9389 48.2693
7635 1 34.0259 43.5215 49.8519
7636 1 32.4433 45.1041 32.4433
7637 1 34.0259 46.6867 34.0259
7638 1 32.4433 45.1041 35.6085
7639 1 34.0259 46.6867 37.1911
7640 1 32.4433 45.1041 38.7737
7641 1 34.0259 46.6867 40.3563
7642 1 32.4433 45.1041 41.9389
7643 1 34.0259 46.6867 43.5215
7644 1 32.4433 45.1041 45.1041
7645 1 34.0259 46.6867 46.6867
7646 1 32.4433 45.1041 48.2693
7647 1 34.0259 46.6867 49.8519
7648 1 32.4433 48.2693 32.4433
7649 1 34.0259 49.8519 34.0259
7650 1 32.4433 48.2693 35.6085
7651 1 34.0259 49.8519 37.1911
7652 1 32.4433 48.2693 38.7737
7653 1 34.0259 49.8519 40.3563
7654 1 32.4433 48.2693 41.9389
7655 1 34.0259 49.8519 43.5215
7656 1 32.4433 48.2693 45.1041
7657 1 34.0259 49.8519 46.6867
7658 1 32.4433 48.2693 48.2693
7659 1 34.0259 49.8519 49.8519
7660 1 16.6173 0.7913 16.6173
7661 1 18.1999 2.3739 18.1999
7662 1 16.6173 0.7913 19.7825
7663 1 18.1999 2.3739 21.3651
7664 1 16.6173 0.7913 22.9477
7665 1 18.1999 2.3739 24.5303
7666 1 16.6173 0.7913 26.1129
7667 1 18.1999 2.3739 27.6955
7668 1 16.6173 0.7913 29.2781
7669 1 18.1999 2.3739 30.8607
7670 1 16.6173 3.9565 16.6173
7671 1 18.1999 5.5391 18.1999
7672 1 16.6173 3.9565 19.7825
7673 1 18.1999 5.5391 21.3651
7674 1 16.6173 3.9565 22.9477
7675 1 18.1999 5.5391 24.5303
7676 1 16.6173 3.9565 26.1129
7677 1 18.1999 5.5391 27.6955
7678 1 16.6173 3.9565 29.2781
7679 1 18.1999 5.5391 30.8607
7680 1 16.6173 7.1217 16.6173
7681 1 18.1999 8.7043 18.1999
7682 1 16.6173 7.1217 19.7825
7683 1 18.1999 8.7043 21.3651
7684 1 16.6173 7.1217 22.9477
7685 1 18.1999 8.7043 24.5303
7686 1 16.6173 7.1217 26.1129
7687 1 18.1999 8.7043 27.6955
7688 1 16.6173 7.1217 29.2781
7689 1 18.1999 8.7043 30.8607
7690 1 16.6173 10.2869 16.6173
7691 1 18.1999 11.8695 18.1999
7692 1 16.6173 10.2869 19.7825
7693 1 18.1999 11.8695 21.3651
7694 1 16.6173 10.2869 22.9477
7695 1 18.1999 11.8695 24.5303
7696 1 16.6173 10.2869 26.1129
7697 1 18.1999 11.8695 27.6955
7698 1 16.6173 10.2869 29.2781
7699 1 18.1999 11.8695 30.8607
7700 1 19.7825 0.7913 16.6173
7701 1 21.3651 2.3739 18.1999
7702 1 19.7825 0.7913 19.7825
7703 1 21.3651 2.3739 21.3651
7704 1 19.7825 0.7913 22.9477
7705 1 21.3651 2.3739 24.5303
7706 1 19.7825 0.7913 26.1129
7707 1 21.3651 2.3739 27.6955
7708 1 19.7825 0.7913 29.2781
7709 1 21.3651 2.3739 30.8607
7710 1 19.7825 3.9565 16.6173
7711 1 21.3651 5.5391 18.1999
7712 1 19.7825 3.9565 19.7825
7713 1 21.3651 5.5391 21.3651
7714 1 19.7825 3.9565 22.9477
7715 1 21.3651 5.5391 24.5303
7716 1 19.7825 3.9565 26.1129
7717 1 21.3651 5.5391 27.6955
7718 1 19.7825 3.9565 29.2781
7719 1 21.3651 5.5391 30.8607
7720 1 19.7825 7.1217 16.6173
7721 1 21.3651 8.7043 18.1999
7722 1 19.7825 7.1217 19.7825
7723 1 21.3651 8.7043 21.3651
7724 1 19.7825 7.1217 22.9477
7725 1 21.3651 8.7043 24.5303
7726 1 19.7825 7.1217 26.1129
7727 1 21.3651 8.7043 27.6955
7728 1 19.7825 7.1217 29.2781
7729 1 21.3651 8.7043 30.8607
7730 1 19.7825 10.2869 16.6173
7731 1 21.3651 11.8695 18.1999
7732 1 19.7825 10.2869 19.7825
7733 1 21.3651 11.8695 21.3651
7734 1 19.7825 10.2869 22.9477
7735 1 21.3651 11.8695 24.5303
7736 1 19.7825 10.2869 26.1129
7737 1 21.3651 11.8695 27.6955
7738 1 19.7825 10.2869 29.2781
7739 1 21.3651 11.8695 30.8607
7740 1 22.9477 0.7913 16.6173
7741 1 24.5303 2.3739 18.1999
7742 1 22.9477 0.7913 19.7825
7743 1 24.5303 2.3739 21.3651
7744 1 22.9477 0.7913 22.9477
7745 1 24.5303 2.3739 24.5303
7746 1 22.9477 0.7913 26.1129
7747 1 24.5303 2.3739 27.6955
7748 1 22.9477 0.7913 29.2781
7749 1 24.5303 2.3739 30.8607
7750 1 22.9477 3.9565 16.6173
7751 1 24.5303 5.5391 18.1999
7752 1 22.9477 3.9565 19.7825
7753 1 24.5303 5.5391 21.3651
7754 1 22.9477 3.9565 22.9477
7755 1 24.5303 5.5391 24.5303
7756 1 22.9477 3.9565 26.1129
7757 1 24.5303 5.5391 27.6955
7758 1 22.9477 3.9565 29.2781
7759 1 24.5303 5.5391 30.8607
7760 1 22.9477 7.1217 16.6173
7761 1 24.5303 8.7043 18.1999
7762 1 22.9477 7.1217 19.7825
7763 1 24.5303 8.7043 21.3651
7764 1 22.9477 7.1217 22.9477
7765 1 24.5303 8.7043 24.5303
7766 1 22.9477 7.1217 26.1129
7767 1 24.5303 8.7043 27.6955
7768 1 22.9477 7.1217 29.2781
7769 1 24.5303 8.7043 30.8607
7770 1 22.9477 10.2869 16.6173
7771 1 24.5303 11.8695 18.1999
7772 1 22.9477 10.2869 19.7825
7773 1 24.5303 11.8695 21.3651
7774 1 22.9477 10.2869 22.9477
7775 1 24.5303 11.8695 24.5303
7776 1 22.9477 10.2869 26.1129
7777 1 24.5303 11.8695 27.6955
7778 1 22.9477 10.2869 29.2781
7779 1 24.5303 11.8695 30.8607
7780 1 26.1129 0.7913 16.6173
7781 1 27.6955 2.3739 18.1999
7782 1 26.1129 0.7913 19.7825
7783 1 27.6955 2.3739 21.3651
7784 1 26.1129 0.7913 22.9477
7785 1 27.6955 2.3739 24.5303
7786 1 26.1129 0.7913 26.1129
7787 1 27.6955 2.3739 27.6955
7788 1 26.1129 0.7913 29.2781
7789 1 27.6955 2.3739 30.8607
7790 1 26.1129 3.9565 16.6173
7791 1 27.6955 5.5391 18.1999
7792 1 26.1129 3.9565 19.7825
7793 1 27.6955 5.5391 21.3651
7794 1 26.1129 3.9565 22.9477
7795 1 27.6955 5.5391 24.5303
7796 1 26.1129 3.9565 26.1129
7797 1 27.6955 5.5391 27.6955
7798 1 26.1129 3.9565 29.2781
7799 1 27.6955 5.5391 30.8607
7800 1 26.1129 7.1217 16.6173
7801 1 27.6955 8.7043 18.1999
7802 1 26.1129 7.1217 19.7825
7803 1 27.6955 8.7043 21.3651
7804 1 26.1129 7.1217 22.9477
7805 1 27.6955 8.7043 24.5303
7806 1 26.1129 7.1217 26.1129
7807 1 27.6955 8.7043 27.6955
7808 1 26.1129 7.1217 29.2781
7809 1 27.6955 8.7043 30.8607
7810 1 26.1129 10.2869 16.6173
7811 1 27.6955 11.8695 18.1999
7812 1 26.1129 10.2869 19.7825
7813 1 27.6955 11.8695 21.3651
7814 1 26.1129 10.2869 22.9477
7815 1 27.6955 11.8695 24.5303
7816 1 26.1129 10.2869 26.1129
7817 1 27.6955 11.8695 27.6955
7818 1 26.1129 10.2869 29.2781
7819 1 27.6955 11.8695 30.8607
7820 1 29.2781 0.7913 16.6173
7821 1 30.8607 2.3739 18.1999
7822 1 29.2781 0.7913 19.7825
7823 1 30.8607 2.3739 21.3651
7824 1 29.2781 0.7913 22.9477
7825 1 30.8607 2.3739 24.5303
7826 1 29.2781 0.7913 26.1129
7827 1 30.8607 2.3739 27.6955
7828 1 29.2781 0.7913 29.2781
7829 1 30.8607 2.3739 30.8607
7830 1 29.2781 3.9565 16.6173
7831 1 30.8607 5.5391 18.1999
7832 1 29.2781 3.9565 19.7825
7833 1 30.8607 5.5391 21.3651
7834 1 29.2781 3.9565 22.9477
7835 1 30.8607 5.5391 24.5303
7836 1 29.2781 3.9565 26.1129
7837 1 30.8607 5.5391 27.6955
7838 1 29.2781 3.9565 29.2781
7839 1 30.8607 5.5391 30.8607
7840 1 29.2781 7.1217 16.6173
7841 1 30.8607 8.7043 18.1999
7842 1 29.2781 7.1217 19.7825
7843 1 30.8607 8.7043 21.3651
7844 1 29.2781 7.1217 22.9477
7845 1 30.8607 8.7043 24.5303
7846 1 29.2781 7.1217 26.1129
7847 1 30.8607 8.7043 27.6955
7848 1 29.2781 7.1217 29.2781
7849 1 30.8607 8.7043 30.8607
7850 1 29.2781 10.2869 16.6173
7851 1 30.8607 11.8695 18.1999
7852 1 29.2781 10.2869 19.7825
7853 1 30.8607 11.8695 21.3651
7854 1 29.2781 10.2869 22.9477
7855 1 30.8607 11.8695 24.5303
7856 1 29.2781 10.2869 26.1129
7857 1 30.8607 11.8695 27.6955
7858 1 29.2781 10.2869 29.2781
7859 1 30.8607 11.8695 30.8607
7860 1 32.4433 0.7913 16.6173
7861 1 34.0259 2.3739 18.1999
7862 1 32.4433 0.7913 19.7825
7863 1 34.0259 2.3739 21.3651
7864 1 32.4433 0.7913 22.9477
7865 1 34.0259 2.3739 24.5303
7866 1 32.4433 0.7913 26.1129
7867 1 34.0259 2.3739 27.6955
7868 1 32.4433 0.7913 29.2781
7869 1 34.0259 2.3739 30.8607
7870 1 32.4433 3.9565 16.6173
7871 1 34.0259 5.5391 18.1999
7872 1 32.4433 3.9565 19.7825
7873 1 34.0259 5.5391 21.3651
7874 1 32.4433 3.9565 22.9477
7875 1 34.0259 5.5391 24.5303
7876 1 32.4433 3.9565 26.1129
7877 1 34.0259 5.5391 27.6955
7878 1 32.4433 3.9565 29.2781
7879 1 34.0259 5.5391 30.8607
7880 1 32.4433 7.1217 16.6173
7881 1 34.0259 8.7043 18.1999
7882 1 32.4433 7.1217 19.7825
7883 1 34.0259 8.7043 21.3651
7884 1 32.4433 7.1217 22.9477
7885 1 34.0259 8.7043 24.5303
7886 1 32.4433 7.1217 26.1129
7887 1 34.0259 8.7043 27.6955
7888 1 32.4433 7.1217 29.2781
7889 1 34.0259 8.7043 30.8607
7890 1 32.4433 10.2869 16.6173
7891 1 34.0259 11.8695 18.1999
7892 1 32.4433 10.2869 19.7825
7893 1 34.0259 11.8695 21.3651
7894 1 32.4433 10.2869 22.9477
7895 1 34.0259 11.8695 24.5303
7896 1 32.4433 10.2869 26.1129
7897 1 34.0259 11.8695 27.6955
7898 1 32.4433 10.2869 29.2781
7899 1 34.0259 11.8695 30.8607
7900 1 16.6173 35.6085 16.6173
7901 1 18.1999 37.1911 18.1999
7902 1 16.6173 35.6085 19.7825
7903 1 18.1999 37.1911 21.3651
7904 1 16.6173 35.6085 22.9477
7905 1 18.1999 37.1911 24.5303
7906 1 16.6173 35.6085 26.1129
7907 1 18.1999 37.1911 27.6955
7908 1 16.6173 35.6085 29.2781
7909 1 18.1999 37.1911 30.8607
7910 1 16.6173 38.7737 16.6173
7911 1 18.1999 40.3563 18.1999
7912 1 16.6173 38.7737 19.7825
7913 1 18.1999 40.3563 21.3651
7914 1 16.6173 38.7737 22.9477
7915 1 18.1999 40.3563 24.5303
7916 1 16.6173 38.7737 26.1129
7917 1 18.1999 40.3563 27.6955
7918 1 16.6173 38.7737 29.2781
7919 1 18.1999 40.3563 30.8607
7920 1 16.6173 41.9389 16.6173
7921 1 18.1999 43.5215 18.1999
7922 1 16.6173 41.9389 19.7825
7923 1 18.1999 43.5215 21.3651
7924 1 16.6173 41.9389 22.9477
7925 1 18.1999 43.5215 24.5303
7926 1 16.6173 41.9389 26.1129
7927 1 18.1999 43.5215 27.6955
7928 1 16.6173 41.9389 29.2781
7929 1 18.1999 43.5215 30.8607
7930 1 16.6173 45.1041 16.6173
7931 1 18.1999 46.6867 18.1999
7932 1 16.6173 45.1041 19.7825
7933 1 18.1999 46.6867 21.3651
7934 1 16.6173 45.1041 22.9477
7935 1 18.1999 46.6867 24.5303
7936 1 16.6173 45.1041 26.1129
7937 1 18.1999 46.6867 27.6955
7938 1 16.6173 45.1041 29.2781
7939 1 18.1999 46.6867 30.8607
7940 1 16.6173 48.2693 16.6173
7941 1 18.1999 49.8519 18.1999
7942 1 16.6173 48.2693 19.7825
7943 1 18.1999 49.8519 21.3651
7944 1 16.6173 48.2693 22.9477
7945 1 18.1999 49.8519 24.5303
7946 1 16.6173 48.2693 26.1129
7947 1 18.1999 49.8519 27.6955
7948 1 16.6173 48.2693 29.2781
7949 1 18.1999 49.8519 30.8607
7950 1 19.7825 35.6085 16.6173
7951 1 21.3651 37.1911 18.1999
7952 1 19.7825 35.6085 19.7825
7953 1 21.3651 37.1911 21.3651
7954 1 19.7825 35.6085 22.9477
7955 1 21.3651 37.1911 24.5303
7956 1 19.7825 35.6085 26.1129
7957 1 21.3651 37.1911 27.6955
7958 1 19.7825 35.6085 29.2781
7959 1 21.3651 37.1911 30.8607
7960 1 19.7825 38.7737 16.6173
7961 1 21.3651 40.3563 18.1999
7962 1 19.7825 38.7737 19.7825
7963 1 21.3651 40.3563 21.3651
7964 1 19.7825 38.7737 22.9477
7965 1 21.3651 40.3563 24.5303
7966 1 19.7825 38.7737 26.1129
7967 1 21.3651 40.3563 27.6955
7968 1 19.7825 38.7737 29.2781
7969 1 21.3651 40.3563 30.8607
7970 1 19.7825 41.9389 16.6173
7971 1 21.3651 43.5215 18.1999
7972 1 19.7825 41.9389 19.7825
7973 1 21.3651 43.5215 21.3651
7974 1 19.7825 41.9389 22.9477
7975 1 21.3651 43.5215 24.5303
7976 1 19.7825 41.9389 26.1129
7977 1 21.3651 43.5215 27.6955
7978 1 19.7825 41.9389 29.2781
7979 1 21.3651 43.5215 30.8607
7980 1 19.7825 45.1041 16.6173
7981 1 21.3651 46.6867 18.1999
7982 1 19.7825 45.1041 19.7825
7983 1 21.3651 46.6867 21.3651
7984 1 19.7825 45.1041 22.9477
7985 1 21.3651 46.6867 24.5303
7986 1 19.7825 45.1041 26.1129
7987 1 21.3651 46.6867 27.6955
7988 1 19.7825 45.1041 29.2781
7989 1 21.3651 46.6867 30.8607
7990 1 19.7825 48.2693 16.6173
7991 1 21.3651 49.8519 18.1999
7992 1 19.7825 48.2693 19.7825
7993 1 21.3651 49.8519 21.3651
7994 1 19.7825 48.2693 22.9477
7995 1 21.3651 49.8519 24.5303
7996 1 19.7825 48.2693 26.1129
7997 1 21.3651 49.8519 27.6955
7998 1 19.7825 48.2693 29.2781
7999 1 21.3651 49.8519 30.8607
8000 1 22.9477 35.6085 16.6173
8001 1 24.5303 37.1911 18.1999
8002 1 22.9477 35.6085 19.7825
8003 1 24.5303 37.1911 21.3651
8004 1 22.9477 35.6085 22.9477
8005 1 24.5303 37.1911 24.5303
8006 1 22.9477 35.6085 26.1129
8007 1 24.5303 37.1911 27.6955
8008 1 22.9477 35.6085 29.2781
8009 1 24.5303 37.1911 30.8607
8010 1 22.9477 38.7737 16.6173
8011 1 24.5303 40.3563 18.1999
8012 1 22.9477 38.7737 19.7825
8013 1 24.5303 40.3563 21.3651
8014 1 22.9477 38.7737 22.9477
8015 1 24.5303 40.3563 24.5303
8016 1 22.9477 38.7737 26.1129
8017 1 24.5303 40.3563 27.6955
8018 1 22.9477 38.7737 29.2781
8019 1 24.5303 40.3563 30.8607
8020 1 22.9477 41.9389 16.6173
8021 1 24.5303 43.5215 18.1999
8022 1 22.9477 41.9389 19.7825
8023 1 24.5303 43.5215 21.3651
8024 1 22.9477 41.9389 22.9477
8025 1 24.5303 43.5215 24.5303
8026 1 22.9477 41.9389 26.1129
8027 1 24.5303 43.5215 27.6955
8028 1 22.9477 41.9389 29.2781
8029 1 24.5303 43.5215 30.8607
8030 1 22.9477 45.1041 16.6173
8031 1 24.5303 46.6867 18.1999
8032 1 22.9477 45.1041 19.7825
8033 1 24.5303 46.6867 21.3651
8034 1 22.9477 45.1041 22.9477
8035 1 24.5303 46.6867 24.5303
8036 1 22.9477 45.1041 26.1129
8037 1 24.5303 46.6867 27.6955
8038 1 22.9477 45.1041 29.2781
8039 1 24.5303 46.6867 30.8607
8040 1 22.9477 48.2693 16.6173
8041 1 24.5303 49.8519 18.1999
8042 1 22.9477 48.2693 19.7825
8043 1 24.5303 49.8519 21.3651
8044 1 22.9477 48.2693 22.9477
8045 1 24.5303 49.8519 24.5303
8046 1 22.9477 48.2693 26.1129
8047 1 24.5303 49.8519 27.6955
8048 1 22.9477 48.2693 29.2781
8049 1 24.5303 49.8519 30.8607
8050 1 26.1129 35.6085 16.6173
8051 1 27.6955 37.1911 18.1999
8052 1 26.1129 35.6085 19.7825
8053 1 27.6955 37.1911 21.3651
8054 1 26.1129 35.6085 22.9477
8055 1 27.6955 37.1911 24.5303
8056 1 26.1129 35.6085 26.1129
8057 1 27.6955 37.1911 27.6955
8058 1 26.1129 35.6085 29.2781
8059 1 27.6955 37.1911 30.8607
8060 1 26.1129 38.7737 16.6173
8061 1 27.6955 40.3563 18.1999
8062 1 26.1129 38.7737 19.7825
8063 1 27.6955 40.3563 21.3651
8064 1 26.1129 38.7737 22.9477
8065 1 27.6955 40.3563 24.5303
8066 1 26.1129 38.7737 26.1129
8067 1 27.6955 40.3563 27.6955
8068 1 26.1129 38.7737 29.2781
8069 1 27.6955 40.3563 30.8607
8070 1 26.1129 41.9389 16.6173
8071 1 27.6955 43.5215 18.1999
8072 1 26.1129 41.9389 19.7825
8073 1 27.6955 43.5215 21.3651
8074 1 26.1129 41.9389 22.9477
8075 1 27.6955 43.5215 24.5303
8076 1 26.1129 41.9389 26.1129
8077 1 27.6955 43.5215 27.6955
8078 1 26.1129 41.9389 29.2781
8079 1 27.6955 43.5215 30.8607
8080 1 26.1129 45.1041 16.6173
8081 1 27.6955 46.6867 18.1999
8082 1 26.1129 45.1041 19.7825
8083 1 27.6955 46.6867 21.3651
8084 1 26.1129 45.1041 22.9477
8085 1 27.6955 46.6867 24.5303
8086 1 26.1129 45.1041 26.1129
8087 1 27.6955 46.6867 27.6955
8088 1 26.1129 45.1041 29.2781
8089 1 27.6955 46.6867 30.8607
8090 1 26.1129 48.2693 16.6173
8091 1 27.6955 49.8519 18.1999
8092 1 26.1129 48.2693 19.7825
8093 1 27.6955 49.8519 21.3651
8094 1 26.1129 48.2693 22.9477
8095 1 27.6955 49.8519 24.5303
8096 1 26.1129 48.2693 26.1129
8097 1 27.6955 49.8519 27.6955
8098 1 26.1129 48.2693 29.2781
8099 1 27.6955 49.8519 30.8607
8100 1 29.2781 35.6085 16.6173
8101 1 30.8607 37.1911 18.1999
8102 1 29.2781 35.6085 19.7825
8103 1 30.8607 37.1911 21.3651
8104 1 29.2781 35.6085 22.9477
8105 1 30.8607 37.1911 24.5303
8106 1 29.2781 35.6085 26.1129
8107 1 30.8607 37.1911 27.6955
8108 1 29.2781 35.6085 29.2781
8109 1 30.8607 37.1911 30.8607
8110 1 29.2781 38.7737 16.6173
8111 1 30.8607 40.3563 18.1999
8112 1 29.2781 38.7737 19.7825
8113 1 30.8607 40.3563 21.3651
8114 1 29.2781 38.7737 22.9477
8115 1 30.8607 40.3563 24.5303
8116 1 29.2781 38.7737 26.1129
8117 1 30.8607 40.3563 27.6955
8118 1 29.2781 38.7737 29.2781
8119 1 30.8607 40.3563 30.8607
8120 1 29.2781 41.9389 16.6173
8121 1 30.8607 43.5215 18.1999
8122 1 29.2781 41.9389 19.7825
8123 1 30.8607 43.5215 21.3651
8124 1 29.2781 41.9389 22.9477
8125 1 30.8607 43.5215 24.5303
8126 1 29.2781 41.9389 26.1129
8127 1 30.8607 43.5215 27.6955
8128 1 29.2781 41.9389 29.2781
8129 1 30.8607 43.5215 30.8607
8130 1 29.2781 45.1041 16.6173
8131 1 30.8607 46.6867 18.1999
8132 1 29.2781 45.1041 19.7825
8133 1 30.8607 46.6867 21.3651
8134 1 29.2781 45.1041 22.9477
8135 1 30.8607 46.6867 24.5303
8136 1 29.2781 45.1041 26.1129
8137 1 30.8607 46.6867 27.6955
8138 1 29.2781 45.1041 29.2781
8139 1 30.8607 46.6867 30.8607
8140 1 29.2781 48.2693 16.6173
8141 1 30.8607 49.8519 18.1999
8142 1 29.2781 48.2693 19.7825
8143 1 30.8607 49.8519 21.3651
8144 1 29.2781 48.2693 22.9477
8145 1 30.8607 49.8519 24.5303
8146 1 29.2781 48.2693 26.1129
8147 1 30.8607 49.8519 27.6955
8148 1 29.2781 48.2693 29.2781
8149 1 30.8607 49.8519 30.8607
8150 1 32.4433 35.6085 16.6173
8151 1 34.0259 37.1911 18.1999
8152 1 32.4433 35.6085 19.7825
8153 1 34.0259 37.1911 21.3651
8154 1 32.4433 35.6085 22.9477
8155 1 34.0259 37.1911 24.5303
8156 1 32.4433 35.6085 26.1129
8157 1 34.0259 37.1911 27.6955
8158 1 32.4433 35.6085 29.2781
8159 1 34.0259 37.1911 30.8607
8160 1 32.4433 38.7737 16.6173
8161 1 34.0259 40.3563 18.1999
8162 1 32.4433 38.7737 19.7825
8163 1 34.0259 40.3563 21.3651
8164 1 32.4433 38.7737 22.9477
8165 1 34.0259 40.3563 24.5303
8166 1 32.4433 38.7737 26.1129
8167 1 34.0259 40.3563 27.6955
8168 1 32.4433 38.7737 29.2781
8169 1 34.0259 40.3563 30.8607
8170 1 32.4433 41.9389 16.6173
8171 1 34.0259 43.5215 18.1999
8172 1 32.4433 41.9389 19.7825
8173 1 34.0259 43.5215 21.3651
8174 1 32.4433 41.9389 22.9477
8175 1 34.0259 43.5215 24.5303
8176 1 32.4433 41.9389 26.1129
8177 1 34.0259 43.5215 27.6955
8178 1 32.4433 41.9389 29.2781
8179 1 34.0259 43.5215 30.8607
8180 1 32.4433 45.1041 16.6173
8181 1 34.0259 46.6867 18.1999
8182 1 32.4433 45.1041 19.7825
8183 1 34.0259 46.6867 21.3651
8184 1 32.4433 45.1041 22.9477
8185 1 34.0259 46.6867 24.5303
8186 1 32.4433 45.1041 26.1129
8187 1 34.0259 46.6867 27.6955
8188 1 32.4433 45.1041 29.2781
8189 1 34.0259 46.6867 30.8607
8190 1 32.4433 48.2693 16.6173
8191 1 34.0259 49.8519 18.1999
8192 1 32.4433 48.2693 19.7825
8193 1 34.0259 49.8519 21.3651
8194 1 32.4433 48.2693 22.9477
8195 1 34.0259 49.8519 24.5303
8196 1 32.4433 48.2693 26.1129
8197 1 34.0259 49.8519 27.6955
8198 1 32.4433 48.2693 29.2781
8199 1 34.0259 49.8519 30.8607
