./desired/Juslin/7_6/27_20/cluster.dat


8199 atoms
0 bonds
0 angles
0 dihedrals
0 impropers

2 atom types
0 bond types
0 angle types
0 dihedral types
0 improper types


0.000      50.6432 xlo xhi
0.000      50.6432 ylo yhi
0.000      50.6432 zlo zhi


Atoms

1 1 13.4521 13.4521 13.4521
2 1 13.4698 13.4567 16.5842
3 1 13.4522 13.4413 19.7654
4 1 13.7738 13.0263 22.5243
5 1 13.4074 13.5059 26.2005
6 1 13.4246 13.5232 29.3467
7 1 13.429 13.5098 32.5062
8 1 13.4397 16.6443 13.448
9 1 13.4159 16.6102 16.6063
10 1 13.4165 16.6294 19.7927
11 1 13.378 16.6896 23.005
12 1 13.4298 16.6246 26.1386
13 1 13.435 16.6684 29.359
14 1 13.4254 16.6737 32.5485
15 1 13.4163 19.8144 13.4518
16 1 13.3907 19.7955 16.6069
17 1 13.4016 19.8199 19.8004
18 1 13.3974 19.8363 23.0021
19 1 13.4248 19.8416 26.1865
20 1 13.4285 19.8499 29.3893
21 1 13.3971 19.8311 32.5759
22 1 13.41 22.9932 13.4634
23 1 13.3986 22.9795 16.6167
24 1 13.3722 22.9744 19.783
25 1 13.383 23.0077 22.9809
26 1 13.3664 22.9855 26.1897
27 1 13.3543 22.9898 29.4236
28 1 13.3964 23.0114 32.5624
29 1 13.4109 26.1699 13.4813
30 1 13.4097 26.1678 16.6255
31 1 13.4269 26.1789 19.8159
32 1 13.4808 26.1964 23.0025
33 1 13.4729 26.2368 26.2217
34 1 13.441 26.2116 29.3771
35 1 13.4056 26.2032 32.5775
36 1 13.4105 29.3494 13.4756
37 1 13.4076 29.3415 16.6502
38 1 13.4173 29.3509 19.8035
39 1 13.4569 29.3547 23.0095
40 1 13.3836 29.4004 26.1494
41 1 14.7266 28.1059 27.9916
42 1 13.3777 29.3922 32.5844
43 1 13.4138 32.5231 13.478
44 1 13.4009 32.5391 16.6417
45 1 13.3854 32.5506 19.805
46 1 13.4079 32.5406 22.994
47 1 13.3968 32.5577 26.2001
48 1 14.8873 31.0476 27.8624
49 1 13.2669 29.4999 29.5323
50 1 14.937 31.0187 31.0421
51 1 14.994 34.1262 15.0544
52 1 14.9745 34.1535 18.1986
53 1 13.4205 35.696 19.8272
54 1 13.4278 35.7069 23.0082
55 1 13.4263 35.7071 26.1864
56 1 13.4175 35.7255 29.3643
57 1 13.3649 32.5961 29.4028
58 1 14.977 34.173 30.9883
59 1 13.3858 32.5807 32.5842
60 1 13.4142 35.6945 13.4922
61 1 15.011 37.2808 15.0785
62 1 13.4134 35.7 16.6558
63 1 13.4097 35.7301 32.5391
64 1 16.6309 13.4717 13.4425
65 1 16.6281 13.442 16.603
66 1 16.6054 13.4394 19.7759
67 1 16.5792 13.4292 22.9248
68 1 16.5795 13.4813 26.1436
69 1 16.5915 13.5113 29.3221
70 1 16.6 13.5094 32.5197
71 1 16.5978 16.6401 13.442
72 1 15.0336 15.0524 15.0195
73 1 16.5851 16.5997 16.5869
74 1 15.0303 15.0282 18.1946
75 1 16.5785 16.6084 19.776
76 1 15.0006 15.0781 21.3697
77 1 16.5656 16.6223 22.9715
78 1 14.995 15.0206 24.5328
79 1 16.5806 16.6434 26.1507
80 1 14.9951 15.0723 27.7459
81 1 16.5911 16.642 29.3422
82 1 15.0231 15.0773 30.9341
83 1 16.5953 16.6704 32.5247
84 1 15.0176 15.0915 34.0992
85 1 16.577 19.8123 13.4389
86 1 14.9955 18.1978 15.0172
87 1 16.5437 19.7682 16.5829
88 1 14.9664 18.1906 18.1885
89 1 16.4741 19.721 19.7381
90 1 14.9576 18.2044 21.3889
91 1 16.5429 19.7657 22.9912
92 1 14.9786 18.2187 24.5891
93 1 16.5635 19.7928 26.1802
94 1 14.9977 18.215 27.7642
95 1 16.5628 19.7974 29.3773
96 1 15.0007 18.2408 30.9646
97 1 16.5808 19.8139 32.5493
98 1 15.0064 18.2499 34.1235
99 1 16.5873 22.987 13.4452
100 1 14.9758 21.3852 15.0121
101 1 16.5363 22.9461 16.5453
102 1 14.9141 21.3229 18.1535
103 1 16.4681 22.885 19.6581
104 1 14.9665 21.3915 21.3992
105 1 16.5105 22.9608 23.0046
106 1 14.9888 21.3915 24.5795
107 1 16.582 22.9499 26.1777
108 1 14.9916 21.4041 27.8096
109 1 16.4684 22.9059 29.4871
110 1 14.9608 21.3987 31.0086
111 1 16.5556 22.9889 32.5991
112 1 15.0001 21.4083 34.1475
113 1 16.5854 26.1778 13.4614
114 1 14.9935 24.5745 15.0253
115 1 16.5666 26.1744 16.5858
116 1 14.9572 24.5659 18.1688
117 1 16.5996 26.0683 19.7238
118 1 14.9095 24.4888 21.3269
119 1 16.6242 25.9334 22.6406
120 1 14.8703 24.5726 24.6147
121 2 17.3583 25.2526 25.0495
122 1 14.9296 24.4568 27.8247
123 1 16.5628 26.1934 29.6632
124 1 14.9507 24.5748 31.0127
125 1 16.571 26.1937 32.5968
126 1 15.0002 24.6049 34.1496
127 1 16.5875 29.3625 13.4639
128 1 14.9921 27.7651 15.0415
129 1 16.5507 29.3738 16.5809
130 1 15.0009 27.7578 18.2019
131 1 16.4638 29.4604 19.6868
132 1 15.076 27.7557 21.3742
133 1 16.4292 29.5347 22.8947
134 1 15.3171 27.6701 24.5998
135 2 18.2455 27.7769 25.7995
136 1 16.3754 26.4259 27.0674
137 1 18.1951 27.9068 28.3995
138 1 14.9491 27.8141 31.0546
139 1 16.543 29.3982 32.6261
140 1 14.9927 27.7909 34.1527
141 1 16.5795 32.5316 13.4631
142 1 14.987 30.9577 15.0502
143 1 18.0817 31.0272 18.1185
144 1 14.9463 30.9773 18.1718
145 1 17.9806 31.0466 21.2643
146 1 14.9203 31.0054 21.3499
147 1 16.5618 32.5672 22.9898
148 1 14.9524 30.9876 24.6034
149 1 16.5566 32.5721 26.2196
150 1 16.3971 29.5377 26.3439
151 1 17.9729 31.0508 27.9468
152 1 16.466 29.4633 29.5314
153 1 16.5654 32.5914 32.6007
154 1 14.9801 30.9765 34.1582
155 1 16.593 35.698 13.4868
156 1 16.5575 32.5708 16.5978
157 1 18.1814 34.1241 18.2278
158 1 16.5388 32.6021 19.7612
159 1 16.5954 35.7102 19.8162
160 1 14.9872 34.1323 21.4117
161 1 16.5939 35.7051 23.002
162 1 15.0028 34.1274 24.5971
163 1 16.5931 35.7016 26.1833
164 1 14.9902 34.1543 27.7894
165 1 16.5914 35.7222 29.3609
166 1 16.5291 32.6237 29.4463
167 1 16.5933 35.7135 32.5363
168 1 15.0029 34.1481 34.1419
169 1 16.596 35.706 16.6524
170 1 15.0059 37.2823 18.2436
171 1 15.0113 37.2824 21.4189
172 1 15.016 37.2822 24.5853
173 1 15.0168 37.291 27.7685
174 1 15.0119 37.3007 30.944
175 1 15.0178 37.2957 34.1186
176 1 19.8005 13.4749 13.4562
177 1 19.7908 13.4634 16.6244
178 1 19.7811 13.4637 19.7919
179 1 19.7555 13.4748 22.9605
180 1 19.7476 13.4991 26.1368
181 1 19.7637 13.4919 29.3233
182 1 19.7651 13.5102 32.4922
183 1 19.787 16.6344 13.4607
184 1 18.1907 15.0442 15.0419
185 1 19.7612 16.6293 16.6232
186 1 18.1839 15.0186 18.2016
187 1 19.7501 16.6057 19.7818
188 1 18.1616 15.0349 21.3773
189 1 19.7401 16.6374 22.9663
190 1 18.155 15.0495 24.546
191 1 19.7564 16.6506 26.1494
192 1 18.1628 15.084 27.7351
193 1 19.7598 16.6588 29.3289
194 1 18.1798 15.0772 30.9261
195 1 19.7676 16.6664 32.5181
196 1 18.1856 15.0845 34.0914
197 1 19.7752 19.8059 13.4521
198 1 18.1645 18.1975 15.0194
199 1 19.7363 19.7709 16.5806
200 1 18.1081 18.1405 18.1445
201 1 19.5262 19.7244 19.7024
202 1 18.1486 18.1722 21.381
203 1 19.7719 19.8431 22.9159
204 1 18.1647 18.2186 24.5675
205 1 19.7617 19.8359 26.1637
206 1 18.1699 18.2351 27.7505
207 1 19.7614 19.8104 29.3626
208 1 18.1771 18.2298 30.9346
209 1 19.7603 19.8186 32.5368
210 1 18.1774 18.2432 34.1203
211 1 19.7597 22.972 13.4366
212 1 18.1553 21.3718 15.0051
213 1 19.7354 22.9335 16.5403
214 1 18.0596 21.3116 18.0982
215 1 19.7098 22.8801 19.4201
216 1 17.9588 21.3042 21.3312
217 2 20.0822 22.562 21.9936
218 1 18.1129 21.2206 24.5495
219 1 19.5514 23.0259 26.4163
220 1 18.0861 21.3161 27.8347
221 1 19.6624 22.9581 29.4817
222 1 18.1419 21.3615 31.0122
223 1 19.7459 22.9755 32.604
224 1 18.1742 21.4187 34.1344
225 1 19.7647 26.1678 13.4428
226 1 18.1649 24.5715 14.9994
227 1 19.7501 26.1544 16.5343
228 1 18.0849 24.4952 18.0515
229 1 19.7484 26.0715 19.306
230 1 18.0897 24.1848 21.1544
231 2 19.7119 25.979 21.9531
232 2 18.9301 23.6435 23.9435
233 2 21.4853 24.5819 25.7885
234 1 17.9283 24.4757 28.0258
235 1 19.7458 26.1572 29.7848
236 1 18.1343 24.5331 31.0937
237 1 19.7644 26.2007 32.6028
238 1 18.1707 24.5936 34.1611
239 1 19.7616 29.3526 13.4507
240 1 18.1657 27.7688 15.0132
241 1 19.7429 29.4096 16.5606
242 1 18.1411 27.8254 18.0856
243 1 21.1989 27.8748 20.6735
244 1 18.2027 27.884 20.7957
245 2 21.0435 27.8092 23.2168
246 2 19.7567 26.0325 24.5501
247 2 21.0783 27.8852 25.7699
248 1 19.7092 26.0524 27.1131
249 1 19.7202 29.6837 29.5467
250 1 18.157 27.8588 31.1153
251 1 19.7558 29.4105 32.6211
252 1 18.1746 27.7843 34.1694
253 1 19.771 32.5284 13.4764
254 1 18.1643 30.9538 15.0251
255 1 19.7709 32.5318 16.6377
256 1 19.6969 29.6957 19.6717
257 1 19.6323 29.9383 22.831
258 2 18.2905 27.7756 23.3558
259 1 19.759 32.5657 23.0065
260 1 17.9974 30.9338 24.6113
261 1 19.7564 32.5535 26.19
262 1 19.6414 29.8826 26.3908
263 1 19.7504 32.54 29.3709
264 1 18.0937 31.0343 31.0752
265 1 19.7693 32.5537 32.5521
266 1 18.1656 30.9722 34.1603
267 1 19.7681 35.6901 13.4946
268 1 18.1852 34.1167 15.0606
269 1 19.772 35.696 16.6562
270 1 19.7605 32.5211 19.827
271 1 19.7664 35.6932 19.8322
272 1 18.1733 34.1197 21.4041
273 1 19.7683 35.6785 23.0095
274 1 18.1666 34.1086 24.6
275 1 19.7692 35.682 26.1782
276 1 18.174 34.1297 27.7951
277 1 19.7704 35.6984 29.3534
278 1 18.1703 34.1386 30.9616
279 1 19.7693 35.7128 32.5277
280 1 18.1798 34.1313 34.1227
281 1 18.1806 37.2757 15.0851
282 1 18.1888 37.2752 18.252
283 1 18.191 37.2745 21.4251
284 1 18.1891 37.2721 24.5877
285 1 18.1859 37.2783 27.7693
286 1 18.1934 37.2958 30.9357
287 1 18.184 37.2941 34.1016
288 1 22.9616 13.4797 13.4579
289 1 22.9486 13.4819 16.6361
290 1 22.9447 13.4817 19.8016
291 1 22.9472 13.4934 22.9829
292 1 22.9234 13.5124 26.1493
293 1 22.9257 13.5041 29.3328
294 1 22.9314 13.5159 32.4961
295 1 22.9527 16.6473 13.4611
296 1 21.3677 15.0489 15.0473
297 1 22.9543 16.6256 16.6234
298 1 21.3675 15.0529 18.2213
299 1 22.9532 16.6293 19.7749
300 1 21.3443 15.0477 21.3802
301 1 22.93 16.6429 22.9846
302 1 21.3358 15.0777 24.5583
303 1 22.9203 16.6748 26.1504
304 1 21.3401 15.0871 27.7354
305 1 22.9241 16.6776 29.3293
306 1 21.3449 15.0778 30.9116
307 1 22.9274 16.6712 32.5151
308 1 21.3414 15.0921 34.0909
309 1 22.9502 19.8035 13.4466
310 1 21.3581 18.2113 15.043
311 1 22.9784 19.7626 16.5813
312 1 21.3501 18.2416 18.2305
313 1 23.2898 19.601 19.5793
314 1 21.3354 18.1322 21.3621
315 1 22.9469 19.7062 22.9525
316 1 21.3284 18.2622 24.5583
317 1 22.9263 19.8611 26.1457
318 1 21.3491 18.2576 27.7411
319 1 22.9319 19.814 29.3574
320 1 21.343 18.2365 30.9323
321 1 22.922 19.8324 32.5228
322 1 21.3447 18.2499 34.1186
323 1 22.9492 22.9777 13.4341
324 1 21.3424 21.3596 15.0038
325 1 22.9855 22.9281 16.5205
326 1 21.3527 21.2617 18.0665
327 1 23.0026 22.6736 19.5765
328 1 21.5467 20.7803 20.8898
329 1 22.7166 22.3202 22.582
330 1 21.228 21.6151 24.6614
331 1 23.1451 22.7415 26.3017
332 1 21.3241 21.4505 27.8103
333 1 23.0158 22.8251 29.5181
334 1 21.3212 21.3837 30.9943
335 1 22.9563 22.9777 32.5953
336 1 21.3418 21.4132 34.1311
337 1 22.941 26.1691 13.4409
338 1 21.3456 24.5691 14.9934
339 1 22.9538 26.1623 16.5441
340 1 21.3926 24.4978 17.9545
341 1 22.9482 26.2288 19.3299
342 1 21.4158 24.4771 20.6654
343 2 24.0427 24.3202 23.3374
344 2 21.4232 24.4721 23.24
345 1 22.884 26.3822 27.0821
346 1 21.4235 24.531 28.3645
347 1 22.9516 26.2442 29.7193
348 1 21.3772 24.5355 31.1115
349 1 22.9504 26.1968 32.5939
350 1 21.3504 24.5952 34.1632
351 1 22.943 29.356 13.455
352 1 21.3487 27.758 15.0175
353 1 22.9701 29.3751 16.5877
354 1 21.3391 27.8343 18.0008
355 1 23.0917 29.3952 19.7491
356 2 22.871 26.2972 21.9311
357 1 23.1699 29.3057 22.997
358 2 22.8469 26.4562 24.4952
359 1 23.1409 29.3693 26.2447
360 1 21.2172 27.9301 28.3759
361 1 23.0545 29.4056 29.4307
362 1 21.3473 27.8669 31.0968
363 1 22.9744 29.4009 32.5949
364 1 21.3506 27.7855 34.1617
365 1 22.9383 32.5258 13.4783
366 1 21.3625 30.9462 15.0402
367 1 22.9618 32.5474 16.6212
368 1 21.4307 30.9814 18.1648
369 1 22.9816 32.5534 19.8018
370 1 21.5071 30.9169 21.363
371 1 22.9536 32.4997 23.0089
372 1 21.4346 30.8408 24.603
373 1 22.9624 32.5244 26.1819
374 1 21.4889 30.9614 27.8414
375 1 22.9779 32.5689 29.392
376 1 21.428 31.0137 31.0213
377 1 22.9563 32.5664 32.5577
378 1 21.3631 30.9724 34.1533
379 1 22.9376 35.6889 13.4955
380 1 21.3583 34.1094 15.0658
381 1 22.9361 35.6887 16.6612
382 1 21.3537 34.1123 18.2412
383 1 22.9499 35.6914 19.8382
384 1 21.362 34.0904 21.4116
385 1 22.9428 35.6805 23.0119
386 1 21.3623 34.0728 24.5997
387 1 22.9364 35.688 26.1824
388 1 21.3571 34.1077 27.7766
389 1 22.9495 35.7022 29.3532
390 1 21.3541 34.1267 30.953
391 1 22.9448 35.7133 32.5265
392 1 21.3592 34.1284 34.1175
393 1 21.3542 37.2746 15.0831
394 1 21.3543 37.266 18.2558
395 1 21.3535 37.2645 21.4243
396 1 21.3569 37.2598 24.5979
397 1 21.351 37.2752 27.7584
398 1 21.3599 37.2836 30.9289
399 1 21.3552 37.2951 34.105
400 1 26.1307 13.4857 13.4677
401 1 26.1315 13.4796 16.6363
402 1 26.1274 13.4716 19.8103
403 1 26.1083 13.4967 22.9924
404 1 26.0974 13.5092 26.1638
405 1 26.0992 13.505 29.3316
406 1 26.0951 13.5195 32.5114
407 1 26.1333 16.6439 13.4516
408 1 24.5538 15.0542 15.0451
409 1 26.1987 16.5609 16.5511
410 1 24.5424 15.0389 18.2086
411 1 26.1307 16.6336 19.7953
412 1 24.5322 15.056 21.4015
413 1 26.1138 16.6457 22.9903
414 1 24.5081 15.0837 24.5754
415 1 26.1067 16.67 26.174
416 1 24.5138 15.0945 27.755
417 1 26.1026 16.6691 29.334
418 1 24.5067 15.0909 30.9152
419 1 26.1012 16.6651 32.5203
420 1 24.5189 15.0946 34.0897
421 1 26.1405 19.8126 13.4389
422 1 24.557 18.2027 15.0171
423 1 26.1758 19.7862 16.5701
424 1 24.6667 18.0964 18.0689
425 1 26.1851 19.7437 19.7414
426 1 24.5615 18.1733 21.4096
427 1 26.1315 19.7879 22.9642
428 1 24.5183 18.2432 24.5877
429 1 26.1005 19.838 26.17
430 1 24.5155 18.2507 27.7589
431 1 26.1432 19.7875 29.3881
432 1 24.5142 18.2378 30.9383
433 1 26.1277 19.8154 32.5516
434 1 24.5183 18.2576 34.1051
435 1 26.1268 22.992 13.4378
436 1 24.568 21.3745 14.997
437 1 26.1584 22.9684 16.5674
438 1 24.6468 21.3292 18.0577
439 1 26.1977 22.9146 19.7031
440 1 24.6893 21.31 21.2575
441 1 26.1884 22.932 22.9314
442 1 24.5287 21.4161 24.464
443 1 26.1539 22.9042 26.2111
444 1 24.6343 21.3499 27.9065
445 1 26.1884 22.9549 29.439
446 1 24.5809 21.3623 31.0207
447 1 26.1379 22.9946 32.5708
448 1 24.5343 21.4098 34.1433
449 1 26.1119 26.1812 13.4634
450 1 24.5355 24.5666 15.0073
451 1 26.1251 26.1775 16.6023
452 1 24.555 24.5113 18.087
453 1 26.127 26.2008 19.755
454 1 24.4975 24.4795 20.8202
455 1 25.9897 26.157 22.9907
456 2 24.6125 24.8726 25.7396
457 1 26.4816 26.4314 26.3865
458 1 24.5434 24.5846 28.2454
459 1 26.1862 26.2426 29.465
460 1 24.5565 24.5751 31.0375
461 1 26.1273 26.191 32.5733
462 1 24.5264 24.6009 34.1441
463 1 26.1158 29.3489 13.4669
464 1 24.5442 27.768 15.0206
465 1 26.159 29.3814 16.5998
466 1 24.6098 27.8342 18.1259
467 1 26.2093 29.4235 19.7538
468 1 24.7502 27.8905 21.3129
469 1 26.2179 29.4221 22.987
470 1 24.8987 27.8977 24.7136
471 1 26.2877 29.4919 26.2603
472 1 24.7898 27.9026 27.8901
473 1 26.2226 29.4542 29.4576
474 1 24.5957 27.8213 31.0415
475 1 26.1433 29.3874 32.5813
476 1 24.5309 27.785 34.1549
477 1 26.1177 32.5302 13.4763
478 1 24.5424 30.9432 15.0384
479 1 26.1361 32.5417 16.6249
480 1 24.5814 30.9816 18.1987
481 1 26.133 32.5541 19.8176
482 1 24.6019 30.9762 21.3878
483 1 26.1449 32.5579 22.9994
484 1 24.6029 30.9743 24.6118
485 1 26.1474 32.572 26.1978
486 1 24.6052 31.0099 27.8153
487 1 26.147 32.5732 29.3895
488 1 24.5821 30.995 31.0027
489 1 26.1346 32.5619 32.551
490 1 24.5431 30.9661 34.1465
491 1 26.1081 35.6901 13.4888
492 1 24.5385 34.1112 15.0641
493 1 26.1159 35.7013 16.6494
494 1 24.5358 34.1249 18.2362
495 1 26.1065 35.6973 19.8296
496 1 24.5388 34.1161 21.4198
497 1 26.1175 35.6992 23.0029
498 1 24.5282 34.1124 24.5952
499 1 26.1176 35.704 26.1755
500 1 24.5404 34.1224 27.7754
501 1 26.1185 35.713 29.3498
502 1 24.5341 34.1388 30.9498
503 1 26.1185 35.7122 32.5303
504 1 24.532 34.1428 34.1263
505 1 24.524 37.2675 15.0841
506 1 24.5215 37.2748 18.2454
507 1 24.5172 37.2719 21.4277
508 1 24.525 37.2736 24.5857
509 1 24.5186 37.2828 27.7616
510 1 24.531 37.2912 30.9327
511 1 24.529 37.2848 34.1
512 1 29.3065 13.4909 13.4726
513 1 29.3055 13.4953 16.6518
514 1 29.2873 13.5014 19.8204
515 1 29.2773 13.505 23.0046
516 1 29.2714 13.5031 26.1565
517 1 29.2729 13.5087 29.3407
518 1 29.2663 13.5163 32.5009
519 1 29.3115 16.6525 13.4578
520 1 27.7292 15.0541 15.0377
521 1 29.3135 16.6432 16.6362
522 1 27.7263 15.0583 18.2178
523 1 29.3127 16.6562 19.81
524 1 27.7043 15.0646 21.4065
525 1 29.28 16.6606 22.9915
526 1 27.6978 15.078 24.5817
527 1 29.2754 16.6691 26.1618
528 1 27.6862 15.0847 27.7458
529 1 29.2692 16.6711 29.3404
530 1 27.685 15.0826 30.9186
531 1 29.2819 16.6699 32.5202
532 1 27.6829 15.0915 34.0909
533 1 29.3007 19.8276 13.4605
534 1 27.7441 18.2187 15.027
535 1 29.3182 19.8163 16.6141
536 1 27.7665 18.1876 18.1836
537 1 29.3114 19.8162 19.8076
538 1 27.718 18.217 21.3878
539 1 29.2811 19.8261 22.9855
540 1 27.6958 18.2406 24.5812
541 1 29.2771 19.8402 26.1672
542 1 27.6964 18.2449 27.7518
543 1 29.2891 19.8223 29.3574
544 1 27.7042 18.2329 30.944
545 1 29.2889 19.8295 32.5259
546 1 27.6954 18.2516 34.1143
547 1 29.2941 23.0062 13.469
548 1 27.7229 21.4044 15.0258
549 1 29.2971 23.0056 16.6365
550 1 27.759 21.3798 18.1716
551 1 29.2882 23.0071 19.8107
552 1 27.7386 21.3764 21.3605
553 1 29.2577 23.0123 23.0006
554 1 27.7088 21.3992 24.5667
555 1 29.2646 23.0154 26.1761
556 1 27.741 21.3791 27.7995
557 1 29.299 23.0094 29.3657
558 1 27.7384 21.4012 30.9787
559 1 29.2908 23.0103 32.5318
560 1 27.7034 21.419 34.1193
561 1 29.2846 26.1836 13.4732
562 1 27.7138 24.5888 15.0424
563 1 29.2894 26.1765 16.6472
564 1 27.7059 24.5818 18.2005
565 1 29.273 26.1784 19.8232
566 1 27.6268 24.5996 21.3761
567 1 29.2266 26.1697 22.9979
568 1 27.5824 24.6209 24.6093
569 1 29.2823 26.2037 26.202
570 1 27.6823 24.568 27.8111
571 1 29.3053 26.1895 29.3794
572 1 27.7193 24.5982 30.9792
573 1 29.2915 26.1875 32.5454
574 1 27.7014 24.599 34.1283
575 1 29.2884 29.348 13.4825
576 1 27.7056 27.7668 15.0551
577 1 29.291 29.352 16.6459
578 1 27.7296 27.7807 18.2095
579 1 29.3008 29.357 19.8172
580 1 27.6977 27.765 21.404
581 1 29.3144 29.3704 22.9976
582 1 27.7726 27.8296 24.5577
583 1 29.3246 29.3837 26.1891
584 1 27.8615 27.9125 27.9169
585 1 29.3726 29.4293 29.4372
586 1 27.7439 27.8149 31.0052
587 1 29.3081 29.3774 32.5569
588 1 27.7109 27.7827 34.1462
589 1 29.289 32.5225 13.4834
590 1 27.7083 30.9498 15.0477
591 1 29.3017 32.534 16.6449
592 1 27.7448 30.9712 18.2097
593 1 29.304 32.5279 19.8203
594 1 27.7437 30.9783 21.3911
595 1 29.3018 32.5433 22.998
596 1 27.7504 30.9832 24.5972
597 1 29.3065 32.5484 26.1879
598 1 27.7842 31.0237 27.8253
599 1 29.3193 32.5632 29.3755
600 1 27.7412 30.9874 30.9944
601 1 29.3047 32.5591 32.551
602 1 27.7124 30.9646 34.1346
603 1 29.2786 35.6897 13.4947
604 1 27.6999 34.1101 15.0694
605 1 29.2855 35.693 16.6604
606 1 27.71 34.1144 18.2354
607 1 29.2885 35.6971 19.8274
608 1 27.7109 34.1203 21.4209
609 1 29.2862 35.6971 23.0022
610 1 27.7052 34.1369 24.5901
611 1 29.2901 35.7062 26.1734
612 1 27.7154 34.1424 27.7762
613 1 29.2909 35.7118 29.3582
614 1 27.7121 34.1418 30.9473
615 1 29.2892 35.708 32.5288
616 1 27.6994 34.127 34.1198
617 1 27.6909 37.2708 15.0785
618 1 27.701 37.2719 18.2475
619 1 27.6958 37.2731 21.4154
620 1 27.7007 37.2788 24.5954
621 1 27.6971 37.2826 27.7536
622 1 27.6949 37.2931 30.9353
623 1 27.6899 37.2855 34.097
624 1 32.4616 13.4969 13.4874
625 1 32.4581 13.4944 16.6554
626 1 32.4609 13.5029 19.8314
627 1 32.4518 13.5042 22.9991
628 1 32.4402 13.5168 26.1756
629 1 32.4304 13.5098 29.3452
630 1 32.4365 13.5146 32.5033
631 1 32.4601 16.6656 13.4869
632 1 30.8926 15.0646 15.0544
633 1 32.4644 16.6637 16.6544
634 1 30.8838 15.0735 18.2422
635 1 32.4524 16.671 19.8278
636 1 30.8764 15.0783 21.4126
637 1 32.4491 16.6775 23.0063
638 1 30.8663 15.0904 24.5822
639 1 32.4398 16.6794 26.1727
640 1 30.8519 15.0899 27.7574
641 1 32.4377 16.678 29.3377
642 1 30.8463 15.0894 30.925
643 1 32.4405 16.6805 32.509
644 1 30.8477 15.0935 34.0883
645 1 32.4533 19.8411 13.485
646 1 30.8913 18.2492 15.0521
647 1 32.4609 19.8424 16.6568
648 1 30.8816 18.237 18.2328
649 1 32.4522 19.8403 19.8367
650 1 30.8724 18.2572 21.4041
651 1 32.4391 19.8499 23.0021
652 1 30.8568 18.2553 24.5826
653 1 32.437 19.8397 26.1812
654 1 30.8534 18.258 27.756
655 1 32.444 19.8426 29.3417
656 1 30.8619 18.2518 30.9293
657 1 32.442 19.8482 32.5156
658 1 30.8589 18.2583 34.0929
659 1 32.4489 23.0124 13.4929
660 1 30.8819 21.4131 15.0622
661 1 32.4486 23.0125 16.6632
662 1 30.8835 21.4183 18.2327
663 1 32.4457 23.014 19.8407
664 1 30.8656 21.4258 21.4122
665 1 32.4202 23.0196 23.008
666 1 30.8495 21.4381 24.5889
667 1 32.4241 23.0194 26.1807
668 1 30.8543 21.4291 27.7592
669 1 32.4403 23.0125 29.3471
670 1 30.8672 21.4351 30.9357
671 1 32.4413 23.0128 32.5196
672 1 30.8612 21.4263 34.1079
673 1 32.4467 26.1786 13.4923
674 1 30.8695 24.594 15.0657
675 1 32.4451 26.1751 16.6688
676 1 30.8669 24.5902 18.2508
677 1 32.4306 26.1753 19.8413
678 1 30.8331 24.6002 21.4252
679 1 32.4236 26.1781 23.0119
680 1 30.8187 24.5965 24.5911
681 1 32.436 26.1835 26.188
682 1 30.8575 24.605 27.7732
683 1 32.4492 26.1849 29.3541
684 1 30.8621 24.5972 30.9497
685 1 32.4498 26.184 32.53
686 1 30.8664 24.6051 34.1132
687 1 32.4435 29.3472 13.4933
688 1 30.8676 27.7617 15.0747
689 1 32.4578 29.3459 16.6601
690 1 30.8689 27.761 18.2439
691 1 32.45 29.3452 19.8441
692 1 30.8548 27.7553 21.4178
693 1 32.4488 29.3533 23.0116
694 1 30.8666 27.7747 24.5932
695 1 32.4592 29.3633 26.1786
696 1 30.8857 27.7823 27.7814
697 1 32.4654 29.359 29.3669
698 1 30.8821 27.7839 30.9558
699 1 32.456 29.3547 32.5311
700 1 30.8719 27.7703 34.121
701 1 32.4405 32.5123 13.4944
702 1 30.8721 30.9353 15.0726
703 1 32.4494 32.5174 16.6654
704 1 30.8776 30.9365 18.2505
705 1 32.4507 32.5198 19.8331
706 1 30.8804 30.9451 21.4118
707 1 32.4577 32.5204 23.0033
708 1 30.8896 30.9489 24.5996
709 1 32.456 32.527 26.1802
710 1 30.8982 30.9643 27.774
711 1 32.4679 32.5378 29.3555
712 1 30.901 30.9675 30.9743
713 1 32.4726 32.5397 32.5316
714 1 30.8775 30.9559 34.1194
715 1 32.4436 35.6863 13.5004
716 1 30.8696 34.1047 15.0713
717 1 32.4469 35.6802 16.6674
718 1 30.8686 34.1096 18.247
719 1 32.448 35.687 19.8371
720 1 30.8719 34.1115 21.4189
721 1 32.4489 35.6868 23.0012
722 1 30.8771 34.118 24.5891
723 1 32.4513 35.6937 26.1802
724 1 30.8832 34.1242 27.7697
725 1 32.4555 35.6963 29.3439
726 1 30.8843 34.1302 30.9487
727 1 32.446 35.6964 32.5187
728 1 30.8769 34.1157 34.106
729 1 30.8583 37.2669 15.0904
730 1 30.8633 37.267 18.2496
731 1 30.8627 37.2707 21.4148
732 1 30.8698 37.2776 24.591
733 1 30.8682 37.2823 27.7566
734 1 30.875 37.2825 30.9342
735 1 30.8681 37.2803 34.0994
736 1 34.0365 15.0838 15.0809
737 1 34.0438 15.0913 18.2568
738 1 34.0232 15.0903 21.4238
739 1 34.0222 15.0975 24.5961
740 1 34.022 15.0994 27.7586
741 1 34.0166 15.104 30.9253
742 1 34.0151 15.1022 34.0906
743 1 34.0299 18.255 15.0819
744 1 34.0354 18.2532 18.2475
745 1 34.029 18.2652 21.4258
746 1 34.0169 18.2592 24.5955
747 1 34.0229 18.2696 27.7605
748 1 34.0176 18.2638 30.9273
749 1 34.0278 18.2638 34.0925
750 1 34.0259 21.4227 15.085
751 1 34.0264 21.4357 18.2561
752 1 34.0228 21.4264 21.4302
753 1 34.0143 21.4381 24.5984
754 1 34.0164 21.4367 27.7557
755 1 34.0239 21.4284 30.9356
756 1 34.0222 21.4332 34.1015
757 1 34.0257 24.5921 15.0798
758 1 34.0232 24.5949 18.2508
759 1 34.0096 24.5976 21.4255
760 1 34.0053 24.597 24.5953
761 1 34.0261 24.6069 27.762
762 1 34.0261 24.5978 30.9429
763 1 34.0224 24.6042 34.1036
764 1 34.0211 27.7577 15.0869
765 1 34.0208 27.7603 18.2572
766 1 34.0227 27.7605 21.4267
767 1 34.0266 27.7638 24.5951
768 1 34.0272 27.7655 27.774
769 1 34.0328 27.7656 30.9391
770 1 34.0295 27.7664 34.1014
771 1 34.0333 30.9282 15.0804
772 1 34.0291 30.925 18.251
773 1 34.0313 30.9348 21.4194
774 1 34.032 30.9308 24.5945
775 1 34.0342 30.9371 27.7675
776 1 34.0456 30.9404 30.9414
777 1 34.0377 30.9428 34.1008
778 1 34.0254 34.1006 15.085
779 1 34.0343 34.0982 18.2581
780 1 34.0316 34.0988 21.4226
781 1 34.0349 34.111 24.5928
782 1 34.0374 34.1093 27.7658
783 1 34.0368 34.1094 30.9322
784 1 34.038 34.1101 34.1094
785 1 34.0305 37.2651 15.0915
786 1 34.0231 37.2645 18.2482
787 1 34.0332 37.2669 21.4244
788 1 34.0348 37.2634 24.5895
789 1 34.0325 37.2685 27.7571
790 1 34.0278 37.2784 30.932
791 1 34.04 37.2753 34.0935
792 1 0.7913 0.7913 0.7913
793 1 2.3739 2.3739 2.3739
794 1 0.7913 0.7913 3.9565
795 1 2.3739 2.3739 5.5391
796 1 0.7913 0.7913 7.1217
797 1 2.3739 2.3739 8.7043
798 1 0.7913 0.7913 10.2869
799 1 2.3739 2.3739 11.8695
800 1 0.7913 0.7913 13.4521
801 1 2.3739 2.3739 15.0347
802 1 0.7913 0.7913 16.6173
803 1 2.3739 2.3739 18.1999
804 1 0.7913 0.7913 19.7825
805 1 2.3739 2.3739 21.3651
806 1 0.7913 0.7913 22.9477
807 1 2.3739 2.3739 24.5303
808 1 0.7913 0.7913 26.1129
809 1 2.3739 2.3739 27.6955
810 1 0.7913 0.7913 29.2781
811 1 2.3739 2.3739 30.8607
812 1 0.7913 0.7913 32.4433
813 1 2.3739 2.3739 34.0259
814 1 0.7913 0.7913 35.6085
815 1 2.3739 2.3739 37.1911
816 1 0.7913 0.7913 38.7737
817 1 2.3739 2.3739 40.3563
818 1 0.7913 0.7913 41.9389
819 1 2.3739 2.3739 43.5215
820 1 0.7913 0.7913 45.1041
821 1 2.3739 2.3739 46.6867
822 1 0.7913 0.7913 48.2693
823 1 2.3739 2.3739 49.8519
824 1 0.7913 3.9565 0.7913
825 1 2.3739 5.5391 2.3739
826 1 0.7913 3.9565 3.9565
827 1 2.3739 5.5391 5.5391
828 1 0.7913 3.9565 7.1217
829 1 2.3739 5.5391 8.7043
830 1 0.7913 3.9565 10.2869
831 1 2.3739 5.5391 11.8695
832 1 0.7913 3.9565 13.4521
833 1 2.3739 5.5391 15.0347
834 1 0.7913 3.9565 16.6173
835 1 2.3739 5.5391 18.1999
836 1 0.7913 3.9565 19.7825
837 1 2.3739 5.5391 21.3651
838 1 0.7913 3.9565 22.9477
839 1 2.3739 5.5391 24.5303
840 1 0.7913 3.9565 26.1129
841 1 2.3739 5.5391 27.6955
842 1 0.7913 3.9565 29.2781
843 1 2.3739 5.5391 30.8607
844 1 0.7913 3.9565 32.4433
845 1 2.3739 5.5391 34.0259
846 1 0.7913 3.9565 35.6085
847 1 2.3739 5.5391 37.1911
848 1 0.7913 3.9565 38.7737
849 1 2.3739 5.5391 40.3563
850 1 0.7913 3.9565 41.9389
851 1 2.3739 5.5391 43.5215
852 1 0.7913 3.9565 45.1041
853 1 2.3739 5.5391 46.6867
854 1 0.7913 3.9565 48.2693
855 1 2.3739 5.5391 49.8519
856 1 0.7913 7.1217 0.7913
857 1 2.3739 8.7043 2.3739
858 1 0.7913 7.1217 3.9565
859 1 2.3739 8.7043 5.5391
860 1 0.7913 7.1217 7.1217
861 1 2.3739 8.7043 8.7043
862 1 0.7913 7.1217 10.2869
863 1 2.3739 8.7043 11.8695
864 1 0.7913 7.1217 13.4521
865 1 2.3739 8.7043 15.0347
866 1 0.7913 7.1217 16.6173
867 1 2.3739 8.7043 18.1999
868 1 0.7913 7.1217 19.7825
869 1 2.3739 8.7043 21.3651
870 1 0.7913 7.1217 22.9477
871 1 2.3739 8.7043 24.5303
872 1 0.7913 7.1217 26.1129
873 1 2.3739 8.7043 27.6955
874 1 0.7913 7.1217 29.2781
875 1 2.3739 8.7043 30.8607
876 1 0.7913 7.1217 32.4433
877 1 2.3739 8.7043 34.0259
878 1 0.7913 7.1217 35.6085
879 1 2.3739 8.7043 37.1911
880 1 0.7913 7.1217 38.7737
881 1 2.3739 8.7043 40.3563
882 1 0.7913 7.1217 41.9389
883 1 2.3739 8.7043 43.5215
884 1 0.7913 7.1217 45.1041
885 1 2.3739 8.7043 46.6867
886 1 0.7913 7.1217 48.2693
887 1 2.3739 8.7043 49.8519
888 1 0.7913 10.2869 0.7913
889 1 2.3739 11.8695 2.3739
890 1 0.7913 10.2869 3.9565
891 1 2.3739 11.8695 5.5391
892 1 0.7913 10.2869 7.1217
893 1 2.3739 11.8695 8.7043
894 1 0.7913 10.2869 10.2869
895 1 2.3739 11.8695 11.8695
896 1 0.7913 10.2869 13.4521
897 1 2.3739 11.8695 15.0347
898 1 0.7913 10.2869 16.6173
899 1 2.3739 11.8695 18.1999
900 1 0.7913 10.2869 19.7825
901 1 2.3739 11.8695 21.3651
902 1 0.7913 10.2869 22.9477
903 1 2.3739 11.8695 24.5303
904 1 0.7913 10.2869 26.1129
905 1 2.3739 11.8695 27.6955
906 1 0.7913 10.2869 29.2781
907 1 2.3739 11.8695 30.8607
908 1 0.7913 10.2869 32.4433
909 1 2.3739 11.8695 34.0259
910 1 0.7913 10.2869 35.6085
911 1 2.3739 11.8695 37.1911
912 1 0.7913 10.2869 38.7737
913 1 2.3739 11.8695 40.3563
914 1 0.7913 10.2869 41.9389
915 1 2.3739 11.8695 43.5215
916 1 0.7913 10.2869 45.1041
917 1 2.3739 11.8695 46.6867
918 1 0.7913 10.2869 48.2693
919 1 2.3739 11.8695 49.8519
920 1 0.7913 13.4521 0.7913
921 1 2.3739 15.0347 2.3739
922 1 0.7913 13.4521 3.9565
923 1 2.3739 15.0347 5.5391
924 1 0.7913 13.4521 7.1217
925 1 2.3739 15.0347 8.7043
926 1 0.7913 13.4521 10.2869
927 1 2.3739 15.0347 11.8695
928 1 0.7913 13.4521 13.4521
929 1 2.3739 15.0347 15.0347
930 1 0.7913 13.4521 16.6173
931 1 2.3739 15.0347 18.1999
932 1 0.7913 13.4521 19.7825
933 1 2.3739 15.0347 21.3651
934 1 0.7913 13.4521 22.9477
935 1 2.3739 15.0347 24.5303
936 1 0.7913 13.4521 26.1129
937 1 2.3739 15.0347 27.6955
938 1 0.7913 13.4521 29.2781
939 1 2.3739 15.0347 30.8607
940 1 0.7913 13.4521 32.4433
941 1 2.3739 15.0347 34.0259
942 1 0.7913 13.4521 35.6085
943 1 2.3739 15.0347 37.1911
944 1 0.7913 13.4521 38.7737
945 1 2.3739 15.0347 40.3563
946 1 0.7913 13.4521 41.9389
947 1 2.3739 15.0347 43.5215
948 1 0.7913 13.4521 45.1041
949 1 2.3739 15.0347 46.6867
950 1 0.7913 13.4521 48.2693
951 1 2.3739 15.0347 49.8519
952 1 0.7913 16.6173 0.7913
953 1 2.3739 18.1999 2.3739
954 1 0.7913 16.6173 3.9565
955 1 2.3739 18.1999 5.5391
956 1 0.7913 16.6173 7.1217
957 1 2.3739 18.1999 8.7043
958 1 0.7913 16.6173 10.2869
959 1 2.3739 18.1999 11.8695
960 1 0.7913 16.6173 13.4521
961 1 2.3739 18.1999 15.0347
962 1 0.7913 16.6173 16.6173
963 1 2.3739 18.1999 18.1999
964 1 0.7913 16.6173 19.7825
965 1 2.3739 18.1999 21.3651
966 1 0.7913 16.6173 22.9477
967 1 2.3739 18.1999 24.5303
968 1 0.7913 16.6173 26.1129
969 1 2.3739 18.1999 27.6955
970 1 0.7913 16.6173 29.2781
971 1 2.3739 18.1999 30.8607
972 1 0.7913 16.6173 32.4433
973 1 2.3739 18.1999 34.0259
974 1 0.7913 16.6173 35.6085
975 1 2.3739 18.1999 37.1911
976 1 0.7913 16.6173 38.7737
977 1 2.3739 18.1999 40.3563
978 1 0.7913 16.6173 41.9389
979 1 2.3739 18.1999 43.5215
980 1 0.7913 16.6173 45.1041
981 1 2.3739 18.1999 46.6867
982 1 0.7913 16.6173 48.2693
983 1 2.3739 18.1999 49.8519
984 1 0.7913 19.7825 0.7913
985 1 2.3739 21.3651 2.3739
986 1 0.7913 19.7825 3.9565
987 1 2.3739 21.3651 5.5391
988 1 0.7913 19.7825 7.1217
989 1 2.3739 21.3651 8.7043
990 1 0.7913 19.7825 10.2869
991 1 2.3739 21.3651 11.8695
992 1 0.7913 19.7825 13.4521
993 1 2.3739 21.3651 15.0347
994 1 0.7913 19.7825 16.6173
995 1 2.3739 21.3651 18.1999
996 1 0.7913 19.7825 19.7825
997 1 2.3739 21.3651 21.3651
998 1 0.7913 19.7825 22.9477
999 1 2.3739 21.3651 24.5303
1000 1 0.7913 19.7825 26.1129
1001 1 2.3739 21.3651 27.6955
1002 1 0.7913 19.7825 29.2781
1003 1 2.3739 21.3651 30.8607
1004 1 0.7913 19.7825 32.4433
1005 1 2.3739 21.3651 34.0259
1006 1 0.7913 19.7825 35.6085
1007 1 2.3739 21.3651 37.1911
1008 1 0.7913 19.7825 38.7737
1009 1 2.3739 21.3651 40.3563
1010 1 0.7913 19.7825 41.9389
1011 1 2.3739 21.3651 43.5215
1012 1 0.7913 19.7825 45.1041
1013 1 2.3739 21.3651 46.6867
1014 1 0.7913 19.7825 48.2693
1015 1 2.3739 21.3651 49.8519
1016 1 0.7913 22.9477 0.7913
1017 1 2.3739 24.5303 2.3739
1018 1 0.7913 22.9477 3.9565
1019 1 2.3739 24.5303 5.5391
1020 1 0.7913 22.9477 7.1217
1021 1 2.3739 24.5303 8.7043
1022 1 0.7913 22.9477 10.2869
1023 1 2.3739 24.5303 11.8695
1024 1 0.7913 22.9477 13.4521
1025 1 2.3739 24.5303 15.0347
1026 1 0.7913 22.9477 16.6173
1027 1 2.3739 24.5303 18.1999
1028 1 0.7913 22.9477 19.7825
1029 1 2.3739 24.5303 21.3651
1030 1 0.7913 22.9477 22.9477
1031 1 2.3739 24.5303 24.5303
1032 1 0.7913 22.9477 26.1129
1033 1 2.3739 24.5303 27.6955
1034 1 0.7913 22.9477 29.2781
1035 1 2.3739 24.5303 30.8607
1036 1 0.7913 22.9477 32.4433
1037 1 2.3739 24.5303 34.0259
1038 1 0.7913 22.9477 35.6085
1039 1 2.3739 24.5303 37.1911
1040 1 0.7913 22.9477 38.7737
1041 1 2.3739 24.5303 40.3563
1042 1 0.7913 22.9477 41.9389
1043 1 2.3739 24.5303 43.5215
1044 1 0.7913 22.9477 45.1041
1045 1 2.3739 24.5303 46.6867
1046 1 0.7913 22.9477 48.2693
1047 1 2.3739 24.5303 49.8519
1048 1 0.7913 26.1129 0.7913
1049 1 2.3739 27.6955 2.3739
1050 1 0.7913 26.1129 3.9565
1051 1 2.3739 27.6955 5.5391
1052 1 0.7913 26.1129 7.1217
1053 1 2.3739 27.6955 8.7043
1054 1 0.7913 26.1129 10.2869
1055 1 2.3739 27.6955 11.8695
1056 1 0.7913 26.1129 13.4521
1057 1 2.3739 27.6955 15.0347
1058 1 0.7913 26.1129 16.6173
1059 1 2.3739 27.6955 18.1999
1060 1 0.7913 26.1129 19.7825
1061 1 2.3739 27.6955 21.3651
1062 1 0.7913 26.1129 22.9477
1063 1 2.3739 27.6955 24.5303
1064 1 0.7913 26.1129 26.1129
1065 1 2.3739 27.6955 27.6955
1066 1 0.7913 26.1129 29.2781
1067 1 2.3739 27.6955 30.8607
1068 1 0.7913 26.1129 32.4433
1069 1 2.3739 27.6955 34.0259
1070 1 0.7913 26.1129 35.6085
1071 1 2.3739 27.6955 37.1911
1072 1 0.7913 26.1129 38.7737
1073 1 2.3739 27.6955 40.3563
1074 1 0.7913 26.1129 41.9389
1075 1 2.3739 27.6955 43.5215
1076 1 0.7913 26.1129 45.1041
1077 1 2.3739 27.6955 46.6867
1078 1 0.7913 26.1129 48.2693
1079 1 2.3739 27.6955 49.8519
1080 1 0.7913 29.2781 0.7913
1081 1 2.3739 30.8607 2.3739
1082 1 0.7913 29.2781 3.9565
1083 1 2.3739 30.8607 5.5391
1084 1 0.7913 29.2781 7.1217
1085 1 2.3739 30.8607 8.7043
1086 1 0.7913 29.2781 10.2869
1087 1 2.3739 30.8607 11.8695
1088 1 0.7913 29.2781 13.4521
1089 1 2.3739 30.8607 15.0347
1090 1 0.7913 29.2781 16.6173
1091 1 2.3739 30.8607 18.1999
1092 1 0.7913 29.2781 19.7825
1093 1 2.3739 30.8607 21.3651
1094 1 0.7913 29.2781 22.9477
1095 1 2.3739 30.8607 24.5303
1096 1 0.7913 29.2781 26.1129
1097 1 2.3739 30.8607 27.6955
1098 1 0.7913 29.2781 29.2781
1099 1 2.3739 30.8607 30.8607
1100 1 0.7913 29.2781 32.4433
1101 1 2.3739 30.8607 34.0259
1102 1 0.7913 29.2781 35.6085
1103 1 2.3739 30.8607 37.1911
1104 1 0.7913 29.2781 38.7737
1105 1 2.3739 30.8607 40.3563
1106 1 0.7913 29.2781 41.9389
1107 1 2.3739 30.8607 43.5215
1108 1 0.7913 29.2781 45.1041
1109 1 2.3739 30.8607 46.6867
1110 1 0.7913 29.2781 48.2693
1111 1 2.3739 30.8607 49.8519
1112 1 0.7913 32.4433 0.7913
1113 1 2.3739 34.0259 2.3739
1114 1 0.7913 32.4433 3.9565
1115 1 2.3739 34.0259 5.5391
1116 1 0.7913 32.4433 7.1217
1117 1 2.3739 34.0259 8.7043
1118 1 0.7913 32.4433 10.2869
1119 1 2.3739 34.0259 11.8695
1120 1 0.7913 32.4433 13.4521
1121 1 2.3739 34.0259 15.0347
1122 1 0.7913 32.4433 16.6173
1123 1 2.3739 34.0259 18.1999
1124 1 0.7913 32.4433 19.7825
1125 1 2.3739 34.0259 21.3651
1126 1 0.7913 32.4433 22.9477
1127 1 2.3739 34.0259 24.5303
1128 1 0.7913 32.4433 26.1129
1129 1 2.3739 34.0259 27.6955
1130 1 0.7913 32.4433 29.2781
1131 1 2.3739 34.0259 30.8607
1132 1 0.7913 32.4433 32.4433
1133 1 2.3739 34.0259 34.0259
1134 1 0.7913 32.4433 35.6085
1135 1 2.3739 34.0259 37.1911
1136 1 0.7913 32.4433 38.7737
1137 1 2.3739 34.0259 40.3563
1138 1 0.7913 32.4433 41.9389
1139 1 2.3739 34.0259 43.5215
1140 1 0.7913 32.4433 45.1041
1141 1 2.3739 34.0259 46.6867
1142 1 0.7913 32.4433 48.2693
1143 1 2.3739 34.0259 49.8519
1144 1 0.7913 35.6085 0.7913
1145 1 2.3739 37.1911 2.3739
1146 1 0.7913 35.6085 3.9565
1147 1 2.3739 37.1911 5.5391
1148 1 0.7913 35.6085 7.1217
1149 1 2.3739 37.1911 8.7043
1150 1 0.7913 35.6085 10.2869
1151 1 2.3739 37.1911 11.8695
1152 1 0.7913 35.6085 13.4521
1153 1 2.3739 37.1911 15.0347
1154 1 0.7913 35.6085 16.6173
1155 1 2.3739 37.1911 18.1999
1156 1 0.7913 35.6085 19.7825
1157 1 2.3739 37.1911 21.3651
1158 1 0.7913 35.6085 22.9477
1159 1 2.3739 37.1911 24.5303
1160 1 0.7913 35.6085 26.1129
1161 1 2.3739 37.1911 27.6955
1162 1 0.7913 35.6085 29.2781
1163 1 2.3739 37.1911 30.8607
1164 1 0.7913 35.6085 32.4433
1165 1 2.3739 37.1911 34.0259
1166 1 0.7913 35.6085 35.6085
1167 1 2.3739 37.1911 37.1911
1168 1 0.7913 35.6085 38.7737
1169 1 2.3739 37.1911 40.3563
1170 1 0.7913 35.6085 41.9389
1171 1 2.3739 37.1911 43.5215
1172 1 0.7913 35.6085 45.1041
1173 1 2.3739 37.1911 46.6867
1174 1 0.7913 35.6085 48.2693
1175 1 2.3739 37.1911 49.8519
1176 1 0.7913 38.7737 0.7913
1177 1 2.3739 40.3563 2.3739
1178 1 0.7913 38.7737 3.9565
1179 1 2.3739 40.3563 5.5391
1180 1 0.7913 38.7737 7.1217
1181 1 2.3739 40.3563 8.7043
1182 1 0.7913 38.7737 10.2869
1183 1 2.3739 40.3563 11.8695
1184 1 0.7913 38.7737 13.4521
1185 1 2.3739 40.3563 15.0347
1186 1 0.7913 38.7737 16.6173
1187 1 2.3739 40.3563 18.1999
1188 1 0.7913 38.7737 19.7825
1189 1 2.3739 40.3563 21.3651
1190 1 0.7913 38.7737 22.9477
1191 1 2.3739 40.3563 24.5303
1192 1 0.7913 38.7737 26.1129
1193 1 2.3739 40.3563 27.6955
1194 1 0.7913 38.7737 29.2781
1195 1 2.3739 40.3563 30.8607
1196 1 0.7913 38.7737 32.4433
1197 1 2.3739 40.3563 34.0259
1198 1 0.7913 38.7737 35.6085
1199 1 2.3739 40.3563 37.1911
1200 1 0.7913 38.7737 38.7737
1201 1 2.3739 40.3563 40.3563
1202 1 0.7913 38.7737 41.9389
1203 1 2.3739 40.3563 43.5215
1204 1 0.7913 38.7737 45.1041
1205 1 2.3739 40.3563 46.6867
1206 1 0.7913 38.7737 48.2693
1207 1 2.3739 40.3563 49.8519
1208 1 0.7913 41.9389 0.7913
1209 1 2.3739 43.5215 2.3739
1210 1 0.7913 41.9389 3.9565
1211 1 2.3739 43.5215 5.5391
1212 1 0.7913 41.9389 7.1217
1213 1 2.3739 43.5215 8.7043
1214 1 0.7913 41.9389 10.2869
1215 1 2.3739 43.5215 11.8695
1216 1 0.7913 41.9389 13.4521
1217 1 2.3739 43.5215 15.0347
1218 1 0.7913 41.9389 16.6173
1219 1 2.3739 43.5215 18.1999
1220 1 0.7913 41.9389 19.7825
1221 1 2.3739 43.5215 21.3651
1222 1 0.7913 41.9389 22.9477
1223 1 2.3739 43.5215 24.5303
1224 1 0.7913 41.9389 26.1129
1225 1 2.3739 43.5215 27.6955
1226 1 0.7913 41.9389 29.2781
1227 1 2.3739 43.5215 30.8607
1228 1 0.7913 41.9389 32.4433
1229 1 2.3739 43.5215 34.0259
1230 1 0.7913 41.9389 35.6085
1231 1 2.3739 43.5215 37.1911
1232 1 0.7913 41.9389 38.7737
1233 1 2.3739 43.5215 40.3563
1234 1 0.7913 41.9389 41.9389
1235 1 2.3739 43.5215 43.5215
1236 1 0.7913 41.9389 45.1041
1237 1 2.3739 43.5215 46.6867
1238 1 0.7913 41.9389 48.2693
1239 1 2.3739 43.5215 49.8519
1240 1 0.7913 45.1041 0.7913
1241 1 2.3739 46.6867 2.3739
1242 1 0.7913 45.1041 3.9565
1243 1 2.3739 46.6867 5.5391
1244 1 0.7913 45.1041 7.1217
1245 1 2.3739 46.6867 8.7043
1246 1 0.7913 45.1041 10.2869
1247 1 2.3739 46.6867 11.8695
1248 1 0.7913 45.1041 13.4521
1249 1 2.3739 46.6867 15.0347
1250 1 0.7913 45.1041 16.6173
1251 1 2.3739 46.6867 18.1999
1252 1 0.7913 45.1041 19.7825
1253 1 2.3739 46.6867 21.3651
1254 1 0.7913 45.1041 22.9477
1255 1 2.3739 46.6867 24.5303
1256 1 0.7913 45.1041 26.1129
1257 1 2.3739 46.6867 27.6955
1258 1 0.7913 45.1041 29.2781
1259 1 2.3739 46.6867 30.8607
1260 1 0.7913 45.1041 32.4433
1261 1 2.3739 46.6867 34.0259
1262 1 0.7913 45.1041 35.6085
1263 1 2.3739 46.6867 37.1911
1264 1 0.7913 45.1041 38.7737
1265 1 2.3739 46.6867 40.3563
1266 1 0.7913 45.1041 41.9389
1267 1 2.3739 46.6867 43.5215
1268 1 0.7913 45.1041 45.1041
1269 1 2.3739 46.6867 46.6867
1270 1 0.7913 45.1041 48.2693
1271 1 2.3739 46.6867 49.8519
1272 1 0.7913 48.2693 0.7913
1273 1 2.3739 49.8519 2.3739
1274 1 0.7913 48.2693 3.9565
1275 1 2.3739 49.8519 5.5391
1276 1 0.7913 48.2693 7.1217
1277 1 2.3739 49.8519 8.7043
1278 1 0.7913 48.2693 10.2869
1279 1 2.3739 49.8519 11.8695
1280 1 0.7913 48.2693 13.4521
1281 1 2.3739 49.8519 15.0347
1282 1 0.7913 48.2693 16.6173
1283 1 2.3739 49.8519 18.1999
1284 1 0.7913 48.2693 19.7825
1285 1 2.3739 49.8519 21.3651
1286 1 0.7913 48.2693 22.9477
1287 1 2.3739 49.8519 24.5303
1288 1 0.7913 48.2693 26.1129
1289 1 2.3739 49.8519 27.6955
1290 1 0.7913 48.2693 29.2781
1291 1 2.3739 49.8519 30.8607
1292 1 0.7913 48.2693 32.4433
1293 1 2.3739 49.8519 34.0259
1294 1 0.7913 48.2693 35.6085
1295 1 2.3739 49.8519 37.1911
1296 1 0.7913 48.2693 38.7737
1297 1 2.3739 49.8519 40.3563
1298 1 0.7913 48.2693 41.9389
1299 1 2.3739 49.8519 43.5215
1300 1 0.7913 48.2693 45.1041
1301 1 2.3739 49.8519 46.6867
1302 1 0.7913 48.2693 48.2693
1303 1 2.3739 49.8519 49.8519
1304 1 3.9565 0.7913 0.7913
1305 1 5.5391 2.3739 2.3739
1306 1 3.9565 0.7913 3.9565
1307 1 5.5391 2.3739 5.5391
1308 1 3.9565 0.7913 7.1217
1309 1 5.5391 2.3739 8.7043
1310 1 3.9565 0.7913 10.2869
1311 1 5.5391 2.3739 11.8695
1312 1 3.9565 0.7913 13.4521
1313 1 5.5391 2.3739 15.0347
1314 1 3.9565 0.7913 16.6173
1315 1 5.5391 2.3739 18.1999
1316 1 3.9565 0.7913 19.7825
1317 1 5.5391 2.3739 21.3651
1318 1 3.9565 0.7913 22.9477
1319 1 5.5391 2.3739 24.5303
1320 1 3.9565 0.7913 26.1129
1321 1 5.5391 2.3739 27.6955
1322 1 3.9565 0.7913 29.2781
1323 1 5.5391 2.3739 30.8607
1324 1 3.9565 0.7913 32.4433
1325 1 5.5391 2.3739 34.0259
1326 1 3.9565 0.7913 35.6085
1327 1 5.5391 2.3739 37.1911
1328 1 3.9565 0.7913 38.7737
1329 1 5.5391 2.3739 40.3563
1330 1 3.9565 0.7913 41.9389
1331 1 5.5391 2.3739 43.5215
1332 1 3.9565 0.7913 45.1041
1333 1 5.5391 2.3739 46.6867
1334 1 3.9565 0.7913 48.2693
1335 1 5.5391 2.3739 49.8519
1336 1 3.9565 3.9565 0.7913
1337 1 5.5391 5.5391 2.3739
1338 1 3.9565 3.9565 3.9565
1339 1 5.5391 5.5391 5.5391
1340 1 3.9565 3.9565 7.1217
1341 1 5.5391 5.5391 8.7043
1342 1 3.9565 3.9565 10.2869
1343 1 5.5391 5.5391 11.8695
1344 1 3.9565 3.9565 13.4521
1345 1 5.5391 5.5391 15.0347
1346 1 3.9565 3.9565 16.6173
1347 1 5.5391 5.5391 18.1999
1348 1 3.9565 3.9565 19.7825
1349 1 5.5391 5.5391 21.3651
1350 1 3.9565 3.9565 22.9477
1351 1 5.5391 5.5391 24.5303
1352 1 3.9565 3.9565 26.1129
1353 1 5.5391 5.5391 27.6955
1354 1 3.9565 3.9565 29.2781
1355 1 5.5391 5.5391 30.8607
1356 1 3.9565 3.9565 32.4433
1357 1 5.5391 5.5391 34.0259
1358 1 3.9565 3.9565 35.6085
1359 1 5.5391 5.5391 37.1911
1360 1 3.9565 3.9565 38.7737
1361 1 5.5391 5.5391 40.3563
1362 1 3.9565 3.9565 41.9389
1363 1 5.5391 5.5391 43.5215
1364 1 3.9565 3.9565 45.1041
1365 1 5.5391 5.5391 46.6867
1366 1 3.9565 3.9565 48.2693
1367 1 5.5391 5.5391 49.8519
1368 1 3.9565 7.1217 0.7913
1369 1 5.5391 8.7043 2.3739
1370 1 3.9565 7.1217 3.9565
1371 1 5.5391 8.7043 5.5391
1372 1 3.9565 7.1217 7.1217
1373 1 5.5391 8.7043 8.7043
1374 1 3.9565 7.1217 10.2869
1375 1 5.5391 8.7043 11.8695
1376 1 3.9565 7.1217 13.4521
1377 1 5.5391 8.7043 15.0347
1378 1 3.9565 7.1217 16.6173
1379 1 5.5391 8.7043 18.1999
1380 1 3.9565 7.1217 19.7825
1381 1 5.5391 8.7043 21.3651
1382 1 3.9565 7.1217 22.9477
1383 1 5.5391 8.7043 24.5303
1384 1 3.9565 7.1217 26.1129
1385 1 5.5391 8.7043 27.6955
1386 1 3.9565 7.1217 29.2781
1387 1 5.5391 8.7043 30.8607
1388 1 3.9565 7.1217 32.4433
1389 1 5.5391 8.7043 34.0259
1390 1 3.9565 7.1217 35.6085
1391 1 5.5391 8.7043 37.1911
1392 1 3.9565 7.1217 38.7737
1393 1 5.5391 8.7043 40.3563
1394 1 3.9565 7.1217 41.9389
1395 1 5.5391 8.7043 43.5215
1396 1 3.9565 7.1217 45.1041
1397 1 5.5391 8.7043 46.6867
1398 1 3.9565 7.1217 48.2693
1399 1 5.5391 8.7043 49.8519
1400 1 3.9565 10.2869 0.7913
1401 1 5.5391 11.8695 2.3739
1402 1 3.9565 10.2869 3.9565
1403 1 5.5391 11.8695 5.5391
1404 1 3.9565 10.2869 7.1217
1405 1 5.5391 11.8695 8.7043
1406 1 3.9565 10.2869 10.2869
1407 1 5.5391 11.8695 11.8695
1408 1 3.9565 10.2869 13.4521
1409 1 5.5391 11.8695 15.0347
1410 1 3.9565 10.2869 16.6173
1411 1 5.5391 11.8695 18.1999
1412 1 3.9565 10.2869 19.7825
1413 1 5.5391 11.8695 21.3651
1414 1 3.9565 10.2869 22.9477
1415 1 5.5391 11.8695 24.5303
1416 1 3.9565 10.2869 26.1129
1417 1 5.5391 11.8695 27.6955
1418 1 3.9565 10.2869 29.2781
1419 1 5.5391 11.8695 30.8607
1420 1 3.9565 10.2869 32.4433
1421 1 5.5391 11.8695 34.0259
1422 1 3.9565 10.2869 35.6085
1423 1 5.5391 11.8695 37.1911
1424 1 3.9565 10.2869 38.7737
1425 1 5.5391 11.8695 40.3563
1426 1 3.9565 10.2869 41.9389
1427 1 5.5391 11.8695 43.5215
1428 1 3.9565 10.2869 45.1041
1429 1 5.5391 11.8695 46.6867
1430 1 3.9565 10.2869 48.2693
1431 1 5.5391 11.8695 49.8519
1432 1 3.9565 13.4521 0.7913
1433 1 5.5391 15.0347 2.3739
1434 1 3.9565 13.4521 3.9565
1435 1 5.5391 15.0347 5.5391
1436 1 3.9565 13.4521 7.1217
1437 1 5.5391 15.0347 8.7043
1438 1 3.9565 13.4521 10.2869
1439 1 5.5391 15.0347 11.8695
1440 1 3.9565 13.4521 13.4521
1441 1 5.5391 15.0347 15.0347
1442 1 3.9565 13.4521 16.6173
1443 1 5.5391 15.0347 18.1999
1444 1 3.9565 13.4521 19.7825
1445 1 5.5391 15.0347 21.3651
1446 1 3.9565 13.4521 22.9477
1447 1 5.5391 15.0347 24.5303
1448 1 3.9565 13.4521 26.1129
1449 1 5.5391 15.0347 27.6955
1450 1 3.9565 13.4521 29.2781
1451 1 5.5391 15.0347 30.8607
1452 1 3.9565 13.4521 32.4433
1453 1 5.5391 15.0347 34.0259
1454 1 3.9565 13.4521 35.6085
1455 1 5.5391 15.0347 37.1911
1456 1 3.9565 13.4521 38.7737
1457 1 5.5391 15.0347 40.3563
1458 1 3.9565 13.4521 41.9389
1459 1 5.5391 15.0347 43.5215
1460 1 3.9565 13.4521 45.1041
1461 1 5.5391 15.0347 46.6867
1462 1 3.9565 13.4521 48.2693
1463 1 5.5391 15.0347 49.8519
1464 1 3.9565 16.6173 0.7913
1465 1 5.5391 18.1999 2.3739
1466 1 3.9565 16.6173 3.9565
1467 1 5.5391 18.1999 5.5391
1468 1 3.9565 16.6173 7.1217
1469 1 5.5391 18.1999 8.7043
1470 1 3.9565 16.6173 10.2869
1471 1 5.5391 18.1999 11.8695
1472 1 3.9565 16.6173 13.4521
1473 1 5.5391 18.1999 15.0347
1474 1 3.9565 16.6173 16.6173
1475 1 5.5391 18.1999 18.1999
1476 1 3.9565 16.6173 19.7825
1477 1 5.5391 18.1999 21.3651
1478 1 3.9565 16.6173 22.9477
1479 1 5.5391 18.1999 24.5303
1480 1 3.9565 16.6173 26.1129
1481 1 5.5391 18.1999 27.6955
1482 1 3.9565 16.6173 29.2781
1483 1 5.5391 18.1999 30.8607
1484 1 3.9565 16.6173 32.4433
1485 1 5.5391 18.1999 34.0259
1486 1 3.9565 16.6173 35.6085
1487 1 5.5391 18.1999 37.1911
1488 1 3.9565 16.6173 38.7737
1489 1 5.5391 18.1999 40.3563
1490 1 3.9565 16.6173 41.9389
1491 1 5.5391 18.1999 43.5215
1492 1 3.9565 16.6173 45.1041
1493 1 5.5391 18.1999 46.6867
1494 1 3.9565 16.6173 48.2693
1495 1 5.5391 18.1999 49.8519
1496 1 3.9565 19.7825 0.7913
1497 1 5.5391 21.3651 2.3739
1498 1 3.9565 19.7825 3.9565
1499 1 5.5391 21.3651 5.5391
1500 1 3.9565 19.7825 7.1217
1501 1 5.5391 21.3651 8.7043
1502 1 3.9565 19.7825 10.2869
1503 1 5.5391 21.3651 11.8695
1504 1 3.9565 19.7825 13.4521
1505 1 5.5391 21.3651 15.0347
1506 1 3.9565 19.7825 16.6173
1507 1 5.5391 21.3651 18.1999
1508 1 3.9565 19.7825 19.7825
1509 1 5.5391 21.3651 21.3651
1510 1 3.9565 19.7825 22.9477
1511 1 5.5391 21.3651 24.5303
1512 1 3.9565 19.7825 26.1129
1513 1 5.5391 21.3651 27.6955
1514 1 3.9565 19.7825 29.2781
1515 1 5.5391 21.3651 30.8607
1516 1 3.9565 19.7825 32.4433
1517 1 5.5391 21.3651 34.0259
1518 1 3.9565 19.7825 35.6085
1519 1 5.5391 21.3651 37.1911
1520 1 3.9565 19.7825 38.7737
1521 1 5.5391 21.3651 40.3563
1522 1 3.9565 19.7825 41.9389
1523 1 5.5391 21.3651 43.5215
1524 1 3.9565 19.7825 45.1041
1525 1 5.5391 21.3651 46.6867
1526 1 3.9565 19.7825 48.2693
1527 1 5.5391 21.3651 49.8519
1528 1 3.9565 22.9477 0.7913
1529 1 5.5391 24.5303 2.3739
1530 1 3.9565 22.9477 3.9565
1531 1 5.5391 24.5303 5.5391
1532 1 3.9565 22.9477 7.1217
1533 1 5.5391 24.5303 8.7043
1534 1 3.9565 22.9477 10.2869
1535 1 5.5391 24.5303 11.8695
1536 1 3.9565 22.9477 13.4521
1537 1 5.5391 24.5303 15.0347
1538 1 3.9565 22.9477 16.6173
1539 1 5.5391 24.5303 18.1999
1540 1 3.9565 22.9477 19.7825
1541 1 5.5391 24.5303 21.3651
1542 1 3.9565 22.9477 22.9477
1543 1 5.5391 24.5303 24.5303
1544 1 3.9565 22.9477 26.1129
1545 1 5.5391 24.5303 27.6955
1546 1 3.9565 22.9477 29.2781
1547 1 5.5391 24.5303 30.8607
1548 1 3.9565 22.9477 32.4433
1549 1 5.5391 24.5303 34.0259
1550 1 3.9565 22.9477 35.6085
1551 1 5.5391 24.5303 37.1911
1552 1 3.9565 22.9477 38.7737
1553 1 5.5391 24.5303 40.3563
1554 1 3.9565 22.9477 41.9389
1555 1 5.5391 24.5303 43.5215
1556 1 3.9565 22.9477 45.1041
1557 1 5.5391 24.5303 46.6867
1558 1 3.9565 22.9477 48.2693
1559 1 5.5391 24.5303 49.8519
1560 1 3.9565 26.1129 0.7913
1561 1 5.5391 27.6955 2.3739
1562 1 3.9565 26.1129 3.9565
1563 1 5.5391 27.6955 5.5391
1564 1 3.9565 26.1129 7.1217
1565 1 5.5391 27.6955 8.7043
1566 1 3.9565 26.1129 10.2869
1567 1 5.5391 27.6955 11.8695
1568 1 3.9565 26.1129 13.4521
1569 1 5.5391 27.6955 15.0347
1570 1 3.9565 26.1129 16.6173
1571 1 5.5391 27.6955 18.1999
1572 1 3.9565 26.1129 19.7825
1573 1 5.5391 27.6955 21.3651
1574 1 3.9565 26.1129 22.9477
1575 1 5.5391 27.6955 24.5303
1576 1 3.9565 26.1129 26.1129
1577 1 5.5391 27.6955 27.6955
1578 1 3.9565 26.1129 29.2781
1579 1 5.5391 27.6955 30.8607
1580 1 3.9565 26.1129 32.4433
1581 1 5.5391 27.6955 34.0259
1582 1 3.9565 26.1129 35.6085
1583 1 5.5391 27.6955 37.1911
1584 1 3.9565 26.1129 38.7737
1585 1 5.5391 27.6955 40.3563
1586 1 3.9565 26.1129 41.9389
1587 1 5.5391 27.6955 43.5215
1588 1 3.9565 26.1129 45.1041
1589 1 5.5391 27.6955 46.6867
1590 1 3.9565 26.1129 48.2693
1591 1 5.5391 27.6955 49.8519
1592 1 3.9565 29.2781 0.7913
1593 1 5.5391 30.8607 2.3739
1594 1 3.9565 29.2781 3.9565
1595 1 5.5391 30.8607 5.5391
1596 1 3.9565 29.2781 7.1217
1597 1 5.5391 30.8607 8.7043
1598 1 3.9565 29.2781 10.2869
1599 1 5.5391 30.8607 11.8695
1600 1 3.9565 29.2781 13.4521
1601 1 5.5391 30.8607 15.0347
1602 1 3.9565 29.2781 16.6173
1603 1 5.5391 30.8607 18.1999
1604 1 3.9565 29.2781 19.7825
1605 1 5.5391 30.8607 21.3651
1606 1 3.9565 29.2781 22.9477
1607 1 5.5391 30.8607 24.5303
1608 1 3.9565 29.2781 26.1129
1609 1 5.5391 30.8607 27.6955
1610 1 3.9565 29.2781 29.2781
1611 1 5.5391 30.8607 30.8607
1612 1 3.9565 29.2781 32.4433
1613 1 5.5391 30.8607 34.0259
1614 1 3.9565 29.2781 35.6085
1615 1 5.5391 30.8607 37.1911
1616 1 3.9565 29.2781 38.7737
1617 1 5.5391 30.8607 40.3563
1618 1 3.9565 29.2781 41.9389
1619 1 5.5391 30.8607 43.5215
1620 1 3.9565 29.2781 45.1041
1621 1 5.5391 30.8607 46.6867
1622 1 3.9565 29.2781 48.2693
1623 1 5.5391 30.8607 49.8519
1624 1 3.9565 32.4433 0.7913
1625 1 5.5391 34.0259 2.3739
1626 1 3.9565 32.4433 3.9565
1627 1 5.5391 34.0259 5.5391
1628 1 3.9565 32.4433 7.1217
1629 1 5.5391 34.0259 8.7043
1630 1 3.9565 32.4433 10.2869
1631 1 5.5391 34.0259 11.8695
1632 1 3.9565 32.4433 13.4521
1633 1 5.5391 34.0259 15.0347
1634 1 3.9565 32.4433 16.6173
1635 1 5.5391 34.0259 18.1999
1636 1 3.9565 32.4433 19.7825
1637 1 5.5391 34.0259 21.3651
1638 1 3.9565 32.4433 22.9477
1639 1 5.5391 34.0259 24.5303
1640 1 3.9565 32.4433 26.1129
1641 1 5.5391 34.0259 27.6955
1642 1 3.9565 32.4433 29.2781
1643 1 5.5391 34.0259 30.8607
1644 1 3.9565 32.4433 32.4433
1645 1 5.5391 34.0259 34.0259
1646 1 3.9565 32.4433 35.6085
1647 1 5.5391 34.0259 37.1911
1648 1 3.9565 32.4433 38.7737
1649 1 5.5391 34.0259 40.3563
1650 1 3.9565 32.4433 41.9389
1651 1 5.5391 34.0259 43.5215
1652 1 3.9565 32.4433 45.1041
1653 1 5.5391 34.0259 46.6867
1654 1 3.9565 32.4433 48.2693
1655 1 5.5391 34.0259 49.8519
1656 1 3.9565 35.6085 0.7913
1657 1 5.5391 37.1911 2.3739
1658 1 3.9565 35.6085 3.9565
1659 1 5.5391 37.1911 5.5391
1660 1 3.9565 35.6085 7.1217
1661 1 5.5391 37.1911 8.7043
1662 1 3.9565 35.6085 10.2869
1663 1 5.5391 37.1911 11.8695
1664 1 3.9565 35.6085 13.4521
1665 1 5.5391 37.1911 15.0347
1666 1 3.9565 35.6085 16.6173
1667 1 5.5391 37.1911 18.1999
1668 1 3.9565 35.6085 19.7825
1669 1 5.5391 37.1911 21.3651
1670 1 3.9565 35.6085 22.9477
1671 1 5.5391 37.1911 24.5303
1672 1 3.9565 35.6085 26.1129
1673 1 5.5391 37.1911 27.6955
1674 1 3.9565 35.6085 29.2781
1675 1 5.5391 37.1911 30.8607
1676 1 3.9565 35.6085 32.4433
1677 1 5.5391 37.1911 34.0259
1678 1 3.9565 35.6085 35.6085
1679 1 5.5391 37.1911 37.1911
1680 1 3.9565 35.6085 38.7737
1681 1 5.5391 37.1911 40.3563
1682 1 3.9565 35.6085 41.9389
1683 1 5.5391 37.1911 43.5215
1684 1 3.9565 35.6085 45.1041
1685 1 5.5391 37.1911 46.6867
1686 1 3.9565 35.6085 48.2693
1687 1 5.5391 37.1911 49.8519
1688 1 3.9565 38.7737 0.7913
1689 1 5.5391 40.3563 2.3739
1690 1 3.9565 38.7737 3.9565
1691 1 5.5391 40.3563 5.5391
1692 1 3.9565 38.7737 7.1217
1693 1 5.5391 40.3563 8.7043
1694 1 3.9565 38.7737 10.2869
1695 1 5.5391 40.3563 11.8695
1696 1 3.9565 38.7737 13.4521
1697 1 5.5391 40.3563 15.0347
1698 1 3.9565 38.7737 16.6173
1699 1 5.5391 40.3563 18.1999
1700 1 3.9565 38.7737 19.7825
1701 1 5.5391 40.3563 21.3651
1702 1 3.9565 38.7737 22.9477
1703 1 5.5391 40.3563 24.5303
1704 1 3.9565 38.7737 26.1129
1705 1 5.5391 40.3563 27.6955
1706 1 3.9565 38.7737 29.2781
1707 1 5.5391 40.3563 30.8607
1708 1 3.9565 38.7737 32.4433
1709 1 5.5391 40.3563 34.0259
1710 1 3.9565 38.7737 35.6085
1711 1 5.5391 40.3563 37.1911
1712 1 3.9565 38.7737 38.7737
1713 1 5.5391 40.3563 40.3563
1714 1 3.9565 38.7737 41.9389
1715 1 5.5391 40.3563 43.5215
1716 1 3.9565 38.7737 45.1041
1717 1 5.5391 40.3563 46.6867
1718 1 3.9565 38.7737 48.2693
1719 1 5.5391 40.3563 49.8519
1720 1 3.9565 41.9389 0.7913
1721 1 5.5391 43.5215 2.3739
1722 1 3.9565 41.9389 3.9565
1723 1 5.5391 43.5215 5.5391
1724 1 3.9565 41.9389 7.1217
1725 1 5.5391 43.5215 8.7043
1726 1 3.9565 41.9389 10.2869
1727 1 5.5391 43.5215 11.8695
1728 1 3.9565 41.9389 13.4521
1729 1 5.5391 43.5215 15.0347
1730 1 3.9565 41.9389 16.6173
1731 1 5.5391 43.5215 18.1999
1732 1 3.9565 41.9389 19.7825
1733 1 5.5391 43.5215 21.3651
1734 1 3.9565 41.9389 22.9477
1735 1 5.5391 43.5215 24.5303
1736 1 3.9565 41.9389 26.1129
1737 1 5.5391 43.5215 27.6955
1738 1 3.9565 41.9389 29.2781
1739 1 5.5391 43.5215 30.8607
1740 1 3.9565 41.9389 32.4433
1741 1 5.5391 43.5215 34.0259
1742 1 3.9565 41.9389 35.6085
1743 1 5.5391 43.5215 37.1911
1744 1 3.9565 41.9389 38.7737
1745 1 5.5391 43.5215 40.3563
1746 1 3.9565 41.9389 41.9389
1747 1 5.5391 43.5215 43.5215
1748 1 3.9565 41.9389 45.1041
1749 1 5.5391 43.5215 46.6867
1750 1 3.9565 41.9389 48.2693
1751 1 5.5391 43.5215 49.8519
1752 1 3.9565 45.1041 0.7913
1753 1 5.5391 46.6867 2.3739
1754 1 3.9565 45.1041 3.9565
1755 1 5.5391 46.6867 5.5391
1756 1 3.9565 45.1041 7.1217
1757 1 5.5391 46.6867 8.7043
1758 1 3.9565 45.1041 10.2869
1759 1 5.5391 46.6867 11.8695
1760 1 3.9565 45.1041 13.4521
1761 1 5.5391 46.6867 15.0347
1762 1 3.9565 45.1041 16.6173
1763 1 5.5391 46.6867 18.1999
1764 1 3.9565 45.1041 19.7825
1765 1 5.5391 46.6867 21.3651
1766 1 3.9565 45.1041 22.9477
1767 1 5.5391 46.6867 24.5303
1768 1 3.9565 45.1041 26.1129
1769 1 5.5391 46.6867 27.6955
1770 1 3.9565 45.1041 29.2781
1771 1 5.5391 46.6867 30.8607
1772 1 3.9565 45.1041 32.4433
1773 1 5.5391 46.6867 34.0259
1774 1 3.9565 45.1041 35.6085
1775 1 5.5391 46.6867 37.1911
1776 1 3.9565 45.1041 38.7737
1777 1 5.5391 46.6867 40.3563
1778 1 3.9565 45.1041 41.9389
1779 1 5.5391 46.6867 43.5215
1780 1 3.9565 45.1041 45.1041
1781 1 5.5391 46.6867 46.6867
1782 1 3.9565 45.1041 48.2693
1783 1 5.5391 46.6867 49.8519
1784 1 3.9565 48.2693 0.7913
1785 1 5.5391 49.8519 2.3739
1786 1 3.9565 48.2693 3.9565
1787 1 5.5391 49.8519 5.5391
1788 1 3.9565 48.2693 7.1217
1789 1 5.5391 49.8519 8.7043
1790 1 3.9565 48.2693 10.2869
1791 1 5.5391 49.8519 11.8695
1792 1 3.9565 48.2693 13.4521
1793 1 5.5391 49.8519 15.0347
1794 1 3.9565 48.2693 16.6173
1795 1 5.5391 49.8519 18.1999
1796 1 3.9565 48.2693 19.7825
1797 1 5.5391 49.8519 21.3651
1798 1 3.9565 48.2693 22.9477
1799 1 5.5391 49.8519 24.5303
1800 1 3.9565 48.2693 26.1129
1801 1 5.5391 49.8519 27.6955
1802 1 3.9565 48.2693 29.2781
1803 1 5.5391 49.8519 30.8607
1804 1 3.9565 48.2693 32.4433
1805 1 5.5391 49.8519 34.0259
1806 1 3.9565 48.2693 35.6085
1807 1 5.5391 49.8519 37.1911
1808 1 3.9565 48.2693 38.7737
1809 1 5.5391 49.8519 40.3563
1810 1 3.9565 48.2693 41.9389
1811 1 5.5391 49.8519 43.5215
1812 1 3.9565 48.2693 45.1041
1813 1 5.5391 49.8519 46.6867
1814 1 3.9565 48.2693 48.2693
1815 1 5.5391 49.8519 49.8519
1816 1 7.1217 0.7913 0.7913
1817 1 8.7043 2.3739 2.3739
1818 1 7.1217 0.7913 3.9565
1819 1 8.7043 2.3739 5.5391
1820 1 7.1217 0.7913 7.1217
1821 1 8.7043 2.3739 8.7043
1822 1 7.1217 0.7913 10.2869
1823 1 8.7043 2.3739 11.8695
1824 1 7.1217 0.7913 13.4521
1825 1 8.7043 2.3739 15.0347
1826 1 7.1217 0.7913 16.6173
1827 1 8.7043 2.3739 18.1999
1828 1 7.1217 0.7913 19.7825
1829 1 8.7043 2.3739 21.3651
1830 1 7.1217 0.7913 22.9477
1831 1 8.7043 2.3739 24.5303
1832 1 7.1217 0.7913 26.1129
1833 1 8.7043 2.3739 27.6955
1834 1 7.1217 0.7913 29.2781
1835 1 8.7043 2.3739 30.8607
1836 1 7.1217 0.7913 32.4433
1837 1 8.7043 2.3739 34.0259
1838 1 7.1217 0.7913 35.6085
1839 1 8.7043 2.3739 37.1911
1840 1 7.1217 0.7913 38.7737
1841 1 8.7043 2.3739 40.3563
1842 1 7.1217 0.7913 41.9389
1843 1 8.7043 2.3739 43.5215
1844 1 7.1217 0.7913 45.1041
1845 1 8.7043 2.3739 46.6867
1846 1 7.1217 0.7913 48.2693
1847 1 8.7043 2.3739 49.8519
1848 1 7.1217 3.9565 0.7913
1849 1 8.7043 5.5391 2.3739
1850 1 7.1217 3.9565 3.9565
1851 1 8.7043 5.5391 5.5391
1852 1 7.1217 3.9565 7.1217
1853 1 8.7043 5.5391 8.7043
1854 1 7.1217 3.9565 10.2869
1855 1 8.7043 5.5391 11.8695
1856 1 7.1217 3.9565 13.4521
1857 1 8.7043 5.5391 15.0347
1858 1 7.1217 3.9565 16.6173
1859 1 8.7043 5.5391 18.1999
1860 1 7.1217 3.9565 19.7825
1861 1 8.7043 5.5391 21.3651
1862 1 7.1217 3.9565 22.9477
1863 1 8.7043 5.5391 24.5303
1864 1 7.1217 3.9565 26.1129
1865 1 8.7043 5.5391 27.6955
1866 1 7.1217 3.9565 29.2781
1867 1 8.7043 5.5391 30.8607
1868 1 7.1217 3.9565 32.4433
1869 1 8.7043 5.5391 34.0259
1870 1 7.1217 3.9565 35.6085
1871 1 8.7043 5.5391 37.1911
1872 1 7.1217 3.9565 38.7737
1873 1 8.7043 5.5391 40.3563
1874 1 7.1217 3.9565 41.9389
1875 1 8.7043 5.5391 43.5215
1876 1 7.1217 3.9565 45.1041
1877 1 8.7043 5.5391 46.6867
1878 1 7.1217 3.9565 48.2693
1879 1 8.7043 5.5391 49.8519
1880 1 7.1217 7.1217 0.7913
1881 1 8.7043 8.7043 2.3739
1882 1 7.1217 7.1217 3.9565
1883 1 8.7043 8.7043 5.5391
1884 1 7.1217 7.1217 7.1217
1885 1 8.7043 8.7043 8.7043
1886 1 7.1217 7.1217 10.2869
1887 1 8.7043 8.7043 11.8695
1888 1 7.1217 7.1217 13.4521
1889 1 8.7043 8.7043 15.0347
1890 1 7.1217 7.1217 16.6173
1891 1 8.7043 8.7043 18.1999
1892 1 7.1217 7.1217 19.7825
1893 1 8.7043 8.7043 21.3651
1894 1 7.1217 7.1217 22.9477
1895 1 8.7043 8.7043 24.5303
1896 1 7.1217 7.1217 26.1129
1897 1 8.7043 8.7043 27.6955
1898 1 7.1217 7.1217 29.2781
1899 1 8.7043 8.7043 30.8607
1900 1 7.1217 7.1217 32.4433
1901 1 8.7043 8.7043 34.0259
1902 1 7.1217 7.1217 35.6085
1903 1 8.7043 8.7043 37.1911
1904 1 7.1217 7.1217 38.7737
1905 1 8.7043 8.7043 40.3563
1906 1 7.1217 7.1217 41.9389
1907 1 8.7043 8.7043 43.5215
1908 1 7.1217 7.1217 45.1041
1909 1 8.7043 8.7043 46.6867
1910 1 7.1217 7.1217 48.2693
1911 1 8.7043 8.7043 49.8519
1912 1 7.1217 10.2869 0.7913
1913 1 8.7043 11.8695 2.3739
1914 1 7.1217 10.2869 3.9565
1915 1 8.7043 11.8695 5.5391
1916 1 7.1217 10.2869 7.1217
1917 1 8.7043 11.8695 8.7043
1918 1 7.1217 10.2869 10.2869
1919 1 8.7043 11.8695 11.8695
1920 1 7.1217 10.2869 13.4521
1921 1 8.7043 11.8695 15.0347
1922 1 7.1217 10.2869 16.6173
1923 1 8.7043 11.8695 18.1999
1924 1 7.1217 10.2869 19.7825
1925 1 8.7043 11.8695 21.3651
1926 1 7.1217 10.2869 22.9477
1927 1 8.7043 11.8695 24.5303
1928 1 7.1217 10.2869 26.1129
1929 1 8.7043 11.8695 27.6955
1930 1 7.1217 10.2869 29.2781
1931 1 8.7043 11.8695 30.8607
1932 1 7.1217 10.2869 32.4433
1933 1 8.7043 11.8695 34.0259
1934 1 7.1217 10.2869 35.6085
1935 1 8.7043 11.8695 37.1911
1936 1 7.1217 10.2869 38.7737
1937 1 8.7043 11.8695 40.3563
1938 1 7.1217 10.2869 41.9389
1939 1 8.7043 11.8695 43.5215
1940 1 7.1217 10.2869 45.1041
1941 1 8.7043 11.8695 46.6867
1942 1 7.1217 10.2869 48.2693
1943 1 8.7043 11.8695 49.8519
1944 1 7.1217 13.4521 0.7913
1945 1 8.7043 15.0347 2.3739
1946 1 7.1217 13.4521 3.9565
1947 1 8.7043 15.0347 5.5391
1948 1 7.1217 13.4521 7.1217
1949 1 8.7043 15.0347 8.7043
1950 1 7.1217 13.4521 10.2869
1951 1 8.7043 15.0347 11.8695
1952 1 7.1217 13.4521 13.4521
1953 1 8.7043 15.0347 15.0347
1954 1 7.1217 13.4521 16.6173
1955 1 8.7043 15.0347 18.1999
1956 1 7.1217 13.4521 19.7825
1957 1 8.7043 15.0347 21.3651
1958 1 7.1217 13.4521 22.9477
1959 1 8.7043 15.0347 24.5303
1960 1 7.1217 13.4521 26.1129
1961 1 8.7043 15.0347 27.6955
1962 1 7.1217 13.4521 29.2781
1963 1 8.7043 15.0347 30.8607
1964 1 7.1217 13.4521 32.4433
1965 1 8.7043 15.0347 34.0259
1966 1 7.1217 13.4521 35.6085
1967 1 8.7043 15.0347 37.1911
1968 1 7.1217 13.4521 38.7737
1969 1 8.7043 15.0347 40.3563
1970 1 7.1217 13.4521 41.9389
1971 1 8.7043 15.0347 43.5215
1972 1 7.1217 13.4521 45.1041
1973 1 8.7043 15.0347 46.6867
1974 1 7.1217 13.4521 48.2693
1975 1 8.7043 15.0347 49.8519
1976 1 7.1217 16.6173 0.7913
1977 1 8.7043 18.1999 2.3739
1978 1 7.1217 16.6173 3.9565
1979 1 8.7043 18.1999 5.5391
1980 1 7.1217 16.6173 7.1217
1981 1 8.7043 18.1999 8.7043
1982 1 7.1217 16.6173 10.2869
1983 1 8.7043 18.1999 11.8695
1984 1 7.1217 16.6173 13.4521
1985 1 8.7043 18.1999 15.0347
1986 1 7.1217 16.6173 16.6173
1987 1 8.7043 18.1999 18.1999
1988 1 7.1217 16.6173 19.7825
1989 1 8.7043 18.1999 21.3651
1990 1 7.1217 16.6173 22.9477
1991 1 8.7043 18.1999 24.5303
1992 1 7.1217 16.6173 26.1129
1993 1 8.7043 18.1999 27.6955
1994 1 7.1217 16.6173 29.2781
1995 1 8.7043 18.1999 30.8607
1996 1 7.1217 16.6173 32.4433
1997 1 8.7043 18.1999 34.0259
1998 1 7.1217 16.6173 35.6085
1999 1 8.7043 18.1999 37.1911
2000 1 7.1217 16.6173 38.7737
2001 1 8.7043 18.1999 40.3563
2002 1 7.1217 16.6173 41.9389
2003 1 8.7043 18.1999 43.5215
2004 1 7.1217 16.6173 45.1041
2005 1 8.7043 18.1999 46.6867
2006 1 7.1217 16.6173 48.2693
2007 1 8.7043 18.1999 49.8519
2008 1 7.1217 19.7825 0.7913
2009 1 8.7043 21.3651 2.3739
2010 1 7.1217 19.7825 3.9565
2011 1 8.7043 21.3651 5.5391
2012 1 7.1217 19.7825 7.1217
2013 1 8.7043 21.3651 8.7043
2014 1 7.1217 19.7825 10.2869
2015 1 8.7043 21.3651 11.8695
2016 1 7.1217 19.7825 13.4521
2017 1 8.7043 21.3651 15.0347
2018 1 7.1217 19.7825 16.6173
2019 1 8.7043 21.3651 18.1999
2020 1 7.1217 19.7825 19.7825
2021 1 8.7043 21.3651 21.3651
2022 1 7.1217 19.7825 22.9477
2023 1 8.7043 21.3651 24.5303
2024 1 7.1217 19.7825 26.1129
2025 1 8.7043 21.3651 27.6955
2026 1 7.1217 19.7825 29.2781
2027 1 8.7043 21.3651 30.8607
2028 1 7.1217 19.7825 32.4433
2029 1 8.7043 21.3651 34.0259
2030 1 7.1217 19.7825 35.6085
2031 1 8.7043 21.3651 37.1911
2032 1 7.1217 19.7825 38.7737
2033 1 8.7043 21.3651 40.3563
2034 1 7.1217 19.7825 41.9389
2035 1 8.7043 21.3651 43.5215
2036 1 7.1217 19.7825 45.1041
2037 1 8.7043 21.3651 46.6867
2038 1 7.1217 19.7825 48.2693
2039 1 8.7043 21.3651 49.8519
2040 1 7.1217 22.9477 0.7913
2041 1 8.7043 24.5303 2.3739
2042 1 7.1217 22.9477 3.9565
2043 1 8.7043 24.5303 5.5391
2044 1 7.1217 22.9477 7.1217
2045 1 8.7043 24.5303 8.7043
2046 1 7.1217 22.9477 10.2869
2047 1 8.7043 24.5303 11.8695
2048 1 7.1217 22.9477 13.4521
2049 1 8.7043 24.5303 15.0347
2050 1 7.1217 22.9477 16.6173
2051 1 8.7043 24.5303 18.1999
2052 1 7.1217 22.9477 19.7825
2053 1 8.7043 24.5303 21.3651
2054 1 7.1217 22.9477 22.9477
2055 1 8.7043 24.5303 24.5303
2056 1 7.1217 22.9477 26.1129
2057 1 8.7043 24.5303 27.6955
2058 1 7.1217 22.9477 29.2781
2059 1 8.7043 24.5303 30.8607
2060 1 7.1217 22.9477 32.4433
2061 1 8.7043 24.5303 34.0259
2062 1 7.1217 22.9477 35.6085
2063 1 8.7043 24.5303 37.1911
2064 1 7.1217 22.9477 38.7737
2065 1 8.7043 24.5303 40.3563
2066 1 7.1217 22.9477 41.9389
2067 1 8.7043 24.5303 43.5215
2068 1 7.1217 22.9477 45.1041
2069 1 8.7043 24.5303 46.6867
2070 1 7.1217 22.9477 48.2693
2071 1 8.7043 24.5303 49.8519
2072 1 7.1217 26.1129 0.7913
2073 1 8.7043 27.6955 2.3739
2074 1 7.1217 26.1129 3.9565
2075 1 8.7043 27.6955 5.5391
2076 1 7.1217 26.1129 7.1217
2077 1 8.7043 27.6955 8.7043
2078 1 7.1217 26.1129 10.2869
2079 1 8.7043 27.6955 11.8695
2080 1 7.1217 26.1129 13.4521
2081 1 8.7043 27.6955 15.0347
2082 1 7.1217 26.1129 16.6173
2083 1 8.7043 27.6955 18.1999
2084 1 7.1217 26.1129 19.7825
2085 1 8.7043 27.6955 21.3651
2086 1 7.1217 26.1129 22.9477
2087 1 8.7043 27.6955 24.5303
2088 1 7.1217 26.1129 26.1129
2089 1 8.7043 27.6955 27.6955
2090 1 7.1217 26.1129 29.2781
2091 1 8.7043 27.6955 30.8607
2092 1 7.1217 26.1129 32.4433
2093 1 8.7043 27.6955 34.0259
2094 1 7.1217 26.1129 35.6085
2095 1 8.7043 27.6955 37.1911
2096 1 7.1217 26.1129 38.7737
2097 1 8.7043 27.6955 40.3563
2098 1 7.1217 26.1129 41.9389
2099 1 8.7043 27.6955 43.5215
2100 1 7.1217 26.1129 45.1041
2101 1 8.7043 27.6955 46.6867
2102 1 7.1217 26.1129 48.2693
2103 1 8.7043 27.6955 49.8519
2104 1 7.1217 29.2781 0.7913
2105 1 8.7043 30.8607 2.3739
2106 1 7.1217 29.2781 3.9565
2107 1 8.7043 30.8607 5.5391
2108 1 7.1217 29.2781 7.1217
2109 1 8.7043 30.8607 8.7043
2110 1 7.1217 29.2781 10.2869
2111 1 8.7043 30.8607 11.8695
2112 1 7.1217 29.2781 13.4521
2113 1 8.7043 30.8607 15.0347
2114 1 7.1217 29.2781 16.6173
2115 1 8.7043 30.8607 18.1999
2116 1 7.1217 29.2781 19.7825
2117 1 8.7043 30.8607 21.3651
2118 1 7.1217 29.2781 22.9477
2119 1 8.7043 30.8607 24.5303
2120 1 7.1217 29.2781 26.1129
2121 1 8.7043 30.8607 27.6955
2122 1 7.1217 29.2781 29.2781
2123 1 8.7043 30.8607 30.8607
2124 1 7.1217 29.2781 32.4433
2125 1 8.7043 30.8607 34.0259
2126 1 7.1217 29.2781 35.6085
2127 1 8.7043 30.8607 37.1911
2128 1 7.1217 29.2781 38.7737
2129 1 8.7043 30.8607 40.3563
2130 1 7.1217 29.2781 41.9389
2131 1 8.7043 30.8607 43.5215
2132 1 7.1217 29.2781 45.1041
2133 1 8.7043 30.8607 46.6867
2134 1 7.1217 29.2781 48.2693
2135 1 8.7043 30.8607 49.8519
2136 1 7.1217 32.4433 0.7913
2137 1 8.7043 34.0259 2.3739
2138 1 7.1217 32.4433 3.9565
2139 1 8.7043 34.0259 5.5391
2140 1 7.1217 32.4433 7.1217
2141 1 8.7043 34.0259 8.7043
2142 1 7.1217 32.4433 10.2869
2143 1 8.7043 34.0259 11.8695
2144 1 7.1217 32.4433 13.4521
2145 1 8.7043 34.0259 15.0347
2146 1 7.1217 32.4433 16.6173
2147 1 8.7043 34.0259 18.1999
2148 1 7.1217 32.4433 19.7825
2149 1 8.7043 34.0259 21.3651
2150 1 7.1217 32.4433 22.9477
2151 1 8.7043 34.0259 24.5303
2152 1 7.1217 32.4433 26.1129
2153 1 8.7043 34.0259 27.6955
2154 1 7.1217 32.4433 29.2781
2155 1 8.7043 34.0259 30.8607
2156 1 7.1217 32.4433 32.4433
2157 1 8.7043 34.0259 34.0259
2158 1 7.1217 32.4433 35.6085
2159 1 8.7043 34.0259 37.1911
2160 1 7.1217 32.4433 38.7737
2161 1 8.7043 34.0259 40.3563
2162 1 7.1217 32.4433 41.9389
2163 1 8.7043 34.0259 43.5215
2164 1 7.1217 32.4433 45.1041
2165 1 8.7043 34.0259 46.6867
2166 1 7.1217 32.4433 48.2693
2167 1 8.7043 34.0259 49.8519
2168 1 7.1217 35.6085 0.7913
2169 1 8.7043 37.1911 2.3739
2170 1 7.1217 35.6085 3.9565
2171 1 8.7043 37.1911 5.5391
2172 1 7.1217 35.6085 7.1217
2173 1 8.7043 37.1911 8.7043
2174 1 7.1217 35.6085 10.2869
2175 1 8.7043 37.1911 11.8695
2176 1 7.1217 35.6085 13.4521
2177 1 8.7043 37.1911 15.0347
2178 1 7.1217 35.6085 16.6173
2179 1 8.7043 37.1911 18.1999
2180 1 7.1217 35.6085 19.7825
2181 1 8.7043 37.1911 21.3651
2182 1 7.1217 35.6085 22.9477
2183 1 8.7043 37.1911 24.5303
2184 1 7.1217 35.6085 26.1129
2185 1 8.7043 37.1911 27.6955
2186 1 7.1217 35.6085 29.2781
2187 1 8.7043 37.1911 30.8607
2188 1 7.1217 35.6085 32.4433
2189 1 8.7043 37.1911 34.0259
2190 1 7.1217 35.6085 35.6085
2191 1 8.7043 37.1911 37.1911
2192 1 7.1217 35.6085 38.7737
2193 1 8.7043 37.1911 40.3563
2194 1 7.1217 35.6085 41.9389
2195 1 8.7043 37.1911 43.5215
2196 1 7.1217 35.6085 45.1041
2197 1 8.7043 37.1911 46.6867
2198 1 7.1217 35.6085 48.2693
2199 1 8.7043 37.1911 49.8519
2200 1 7.1217 38.7737 0.7913
2201 1 8.7043 40.3563 2.3739
2202 1 7.1217 38.7737 3.9565
2203 1 8.7043 40.3563 5.5391
2204 1 7.1217 38.7737 7.1217
2205 1 8.7043 40.3563 8.7043
2206 1 7.1217 38.7737 10.2869
2207 1 8.7043 40.3563 11.8695
2208 1 7.1217 38.7737 13.4521
2209 1 8.7043 40.3563 15.0347
2210 1 7.1217 38.7737 16.6173
2211 1 8.7043 40.3563 18.1999
2212 1 7.1217 38.7737 19.7825
2213 1 8.7043 40.3563 21.3651
2214 1 7.1217 38.7737 22.9477
2215 1 8.7043 40.3563 24.5303
2216 1 7.1217 38.7737 26.1129
2217 1 8.7043 40.3563 27.6955
2218 1 7.1217 38.7737 29.2781
2219 1 8.7043 40.3563 30.8607
2220 1 7.1217 38.7737 32.4433
2221 1 8.7043 40.3563 34.0259
2222 1 7.1217 38.7737 35.6085
2223 1 8.7043 40.3563 37.1911
2224 1 7.1217 38.7737 38.7737
2225 1 8.7043 40.3563 40.3563
2226 1 7.1217 38.7737 41.9389
2227 1 8.7043 40.3563 43.5215
2228 1 7.1217 38.7737 45.1041
2229 1 8.7043 40.3563 46.6867
2230 1 7.1217 38.7737 48.2693
2231 1 8.7043 40.3563 49.8519
2232 1 7.1217 41.9389 0.7913
2233 1 8.7043 43.5215 2.3739
2234 1 7.1217 41.9389 3.9565
2235 1 8.7043 43.5215 5.5391
2236 1 7.1217 41.9389 7.1217
2237 1 8.7043 43.5215 8.7043
2238 1 7.1217 41.9389 10.2869
2239 1 8.7043 43.5215 11.8695
2240 1 7.1217 41.9389 13.4521
2241 1 8.7043 43.5215 15.0347
2242 1 7.1217 41.9389 16.6173
2243 1 8.7043 43.5215 18.1999
2244 1 7.1217 41.9389 19.7825
2245 1 8.7043 43.5215 21.3651
2246 1 7.1217 41.9389 22.9477
2247 1 8.7043 43.5215 24.5303
2248 1 7.1217 41.9389 26.1129
2249 1 8.7043 43.5215 27.6955
2250 1 7.1217 41.9389 29.2781
2251 1 8.7043 43.5215 30.8607
2252 1 7.1217 41.9389 32.4433
2253 1 8.7043 43.5215 34.0259
2254 1 7.1217 41.9389 35.6085
2255 1 8.7043 43.5215 37.1911
2256 1 7.1217 41.9389 38.7737
2257 1 8.7043 43.5215 40.3563
2258 1 7.1217 41.9389 41.9389
2259 1 8.7043 43.5215 43.5215
2260 1 7.1217 41.9389 45.1041
2261 1 8.7043 43.5215 46.6867
2262 1 7.1217 41.9389 48.2693
2263 1 8.7043 43.5215 49.8519
2264 1 7.1217 45.1041 0.7913
2265 1 8.7043 46.6867 2.3739
2266 1 7.1217 45.1041 3.9565
2267 1 8.7043 46.6867 5.5391
2268 1 7.1217 45.1041 7.1217
2269 1 8.7043 46.6867 8.7043
2270 1 7.1217 45.1041 10.2869
2271 1 8.7043 46.6867 11.8695
2272 1 7.1217 45.1041 13.4521
2273 1 8.7043 46.6867 15.0347
2274 1 7.1217 45.1041 16.6173
2275 1 8.7043 46.6867 18.1999
2276 1 7.1217 45.1041 19.7825
2277 1 8.7043 46.6867 21.3651
2278 1 7.1217 45.1041 22.9477
2279 1 8.7043 46.6867 24.5303
2280 1 7.1217 45.1041 26.1129
2281 1 8.7043 46.6867 27.6955
2282 1 7.1217 45.1041 29.2781
2283 1 8.7043 46.6867 30.8607
2284 1 7.1217 45.1041 32.4433
2285 1 8.7043 46.6867 34.0259
2286 1 7.1217 45.1041 35.6085
2287 1 8.7043 46.6867 37.1911
2288 1 7.1217 45.1041 38.7737
2289 1 8.7043 46.6867 40.3563
2290 1 7.1217 45.1041 41.9389
2291 1 8.7043 46.6867 43.5215
2292 1 7.1217 45.1041 45.1041
2293 1 8.7043 46.6867 46.6867
2294 1 7.1217 45.1041 48.2693
2295 1 8.7043 46.6867 49.8519
2296 1 7.1217 48.2693 0.7913
2297 1 8.7043 49.8519 2.3739
2298 1 7.1217 48.2693 3.9565
2299 1 8.7043 49.8519 5.5391
2300 1 7.1217 48.2693 7.1217
2301 1 8.7043 49.8519 8.7043
2302 1 7.1217 48.2693 10.2869
2303 1 8.7043 49.8519 11.8695
2304 1 7.1217 48.2693 13.4521
2305 1 8.7043 49.8519 15.0347
2306 1 7.1217 48.2693 16.6173
2307 1 8.7043 49.8519 18.1999
2308 1 7.1217 48.2693 19.7825
2309 1 8.7043 49.8519 21.3651
2310 1 7.1217 48.2693 22.9477
2311 1 8.7043 49.8519 24.5303
2312 1 7.1217 48.2693 26.1129
2313 1 8.7043 49.8519 27.6955
2314 1 7.1217 48.2693 29.2781
2315 1 8.7043 49.8519 30.8607
2316 1 7.1217 48.2693 32.4433
2317 1 8.7043 49.8519 34.0259
2318 1 7.1217 48.2693 35.6085
2319 1 8.7043 49.8519 37.1911
2320 1 7.1217 48.2693 38.7737
2321 1 8.7043 49.8519 40.3563
2322 1 7.1217 48.2693 41.9389
2323 1 8.7043 49.8519 43.5215
2324 1 7.1217 48.2693 45.1041
2325 1 8.7043 49.8519 46.6867
2326 1 7.1217 48.2693 48.2693
2327 1 8.7043 49.8519 49.8519
2328 1 10.2869 0.7913 0.7913
2329 1 11.8695 2.3739 2.3739
2330 1 10.2869 0.7913 3.9565
2331 1 11.8695 2.3739 5.5391
2332 1 10.2869 0.7913 7.1217
2333 1 11.8695 2.3739 8.7043
2334 1 10.2869 0.7913 10.2869
2335 1 11.8695 2.3739 11.8695
2336 1 10.2869 0.7913 13.4521
2337 1 11.8695 2.3739 15.0347
2338 1 10.2869 0.7913 16.6173
2339 1 11.8695 2.3739 18.1999
2340 1 10.2869 0.7913 19.7825
2341 1 11.8695 2.3739 21.3651
2342 1 10.2869 0.7913 22.9477
2343 1 11.8695 2.3739 24.5303
2344 1 10.2869 0.7913 26.1129
2345 1 11.8695 2.3739 27.6955
2346 1 10.2869 0.7913 29.2781
2347 1 11.8695 2.3739 30.8607
2348 1 10.2869 0.7913 32.4433
2349 1 11.8695 2.3739 34.0259
2350 1 10.2869 0.7913 35.6085
2351 1 11.8695 2.3739 37.1911
2352 1 10.2869 0.7913 38.7737
2353 1 11.8695 2.3739 40.3563
2354 1 10.2869 0.7913 41.9389
2355 1 11.8695 2.3739 43.5215
2356 1 10.2869 0.7913 45.1041
2357 1 11.8695 2.3739 46.6867
2358 1 10.2869 0.7913 48.2693
2359 1 11.8695 2.3739 49.8519
2360 1 10.2869 3.9565 0.7913
2361 1 11.8695 5.5391 2.3739
2362 1 10.2869 3.9565 3.9565
2363 1 11.8695 5.5391 5.5391
2364 1 10.2869 3.9565 7.1217
2365 1 11.8695 5.5391 8.7043
2366 1 10.2869 3.9565 10.2869
2367 1 11.8695 5.5391 11.8695
2368 1 10.2869 3.9565 13.4521
2369 1 11.8695 5.5391 15.0347
2370 1 10.2869 3.9565 16.6173
2371 1 11.8695 5.5391 18.1999
2372 1 10.2869 3.9565 19.7825
2373 1 11.8695 5.5391 21.3651
2374 1 10.2869 3.9565 22.9477
2375 1 11.8695 5.5391 24.5303
2376 1 10.2869 3.9565 26.1129
2377 1 11.8695 5.5391 27.6955
2378 1 10.2869 3.9565 29.2781
2379 1 11.8695 5.5391 30.8607
2380 1 10.2869 3.9565 32.4433
2381 1 11.8695 5.5391 34.0259
2382 1 10.2869 3.9565 35.6085
2383 1 11.8695 5.5391 37.1911
2384 1 10.2869 3.9565 38.7737
2385 1 11.8695 5.5391 40.3563
2386 1 10.2869 3.9565 41.9389
2387 1 11.8695 5.5391 43.5215
2388 1 10.2869 3.9565 45.1041
2389 1 11.8695 5.5391 46.6867
2390 1 10.2869 3.9565 48.2693
2391 1 11.8695 5.5391 49.8519
2392 1 10.2869 7.1217 0.7913
2393 1 11.8695 8.7043 2.3739
2394 1 10.2869 7.1217 3.9565
2395 1 11.8695 8.7043 5.5391
2396 1 10.2869 7.1217 7.1217
2397 1 11.8695 8.7043 8.7043
2398 1 10.2869 7.1217 10.2869
2399 1 11.8695 8.7043 11.8695
2400 1 10.2869 7.1217 13.4521
2401 1 11.8695 8.7043 15.0347
2402 1 10.2869 7.1217 16.6173
2403 1 11.8695 8.7043 18.1999
2404 1 10.2869 7.1217 19.7825
2405 1 11.8695 8.7043 21.3651
2406 1 10.2869 7.1217 22.9477
2407 1 11.8695 8.7043 24.5303
2408 1 10.2869 7.1217 26.1129
2409 1 11.8695 8.7043 27.6955
2410 1 10.2869 7.1217 29.2781
2411 1 11.8695 8.7043 30.8607
2412 1 10.2869 7.1217 32.4433
2413 1 11.8695 8.7043 34.0259
2414 1 10.2869 7.1217 35.6085
2415 1 11.8695 8.7043 37.1911
2416 1 10.2869 7.1217 38.7737
2417 1 11.8695 8.7043 40.3563
2418 1 10.2869 7.1217 41.9389
2419 1 11.8695 8.7043 43.5215
2420 1 10.2869 7.1217 45.1041
2421 1 11.8695 8.7043 46.6867
2422 1 10.2869 7.1217 48.2693
2423 1 11.8695 8.7043 49.8519
2424 1 10.2869 10.2869 0.7913
2425 1 11.8695 11.8695 2.3739
2426 1 10.2869 10.2869 3.9565
2427 1 11.8695 11.8695 5.5391
2428 1 10.2869 10.2869 7.1217
2429 1 11.8695 11.8695 8.7043
2430 1 10.2869 10.2869 10.2869
2431 1 11.8695 11.8695 11.8695
2432 1 10.2869 10.2869 13.4521
2433 1 11.8695 11.8695 15.0347
2434 1 10.2869 10.2869 16.6173
2435 1 11.8695 11.8695 18.1999
2436 1 10.2869 10.2869 19.7825
2437 1 11.8695 11.8695 21.3651
2438 1 10.2869 10.2869 22.9477
2439 1 11.8695 11.8695 24.5303
2440 1 10.2869 10.2869 26.1129
2441 1 11.8695 11.8695 27.6955
2442 1 10.2869 10.2869 29.2781
2443 1 11.8695 11.8695 30.8607
2444 1 10.2869 10.2869 32.4433
2445 1 11.8695 11.8695 34.0259
2446 1 10.2869 10.2869 35.6085
2447 1 11.8695 11.8695 37.1911
2448 1 10.2869 10.2869 38.7737
2449 1 11.8695 11.8695 40.3563
2450 1 10.2869 10.2869 41.9389
2451 1 11.8695 11.8695 43.5215
2452 1 10.2869 10.2869 45.1041
2453 1 11.8695 11.8695 46.6867
2454 1 10.2869 10.2869 48.2693
2455 1 11.8695 11.8695 49.8519
2456 1 10.2869 13.4521 0.7913
2457 1 11.8695 15.0347 2.3739
2458 1 10.2869 13.4521 3.9565
2459 1 11.8695 15.0347 5.5391
2460 1 10.2869 13.4521 7.1217
2461 1 11.8695 15.0347 8.7043
2462 1 10.2869 13.4521 10.2869
2463 1 11.8695 15.0347 11.8695
2464 1 10.2869 13.4521 13.4521
2465 1 11.8695 15.0347 15.0347
2466 1 10.2869 13.4521 16.6173
2467 1 11.8695 15.0347 18.1999
2468 1 10.2869 13.4521 19.7825
2469 1 11.8695 15.0347 21.3651
2470 1 10.2869 13.4521 22.9477
2471 1 11.8695 15.0347 24.5303
2472 1 10.2869 13.4521 26.1129
2473 1 11.8695 15.0347 27.6955
2474 1 10.2869 13.4521 29.2781
2475 1 11.8695 15.0347 30.8607
2476 1 10.2869 13.4521 32.4433
2477 1 11.8695 15.0347 34.0259
2478 1 10.2869 13.4521 35.6085
2479 1 11.8695 15.0347 37.1911
2480 1 10.2869 13.4521 38.7737
2481 1 11.8695 15.0347 40.3563
2482 1 10.2869 13.4521 41.9389
2483 1 11.8695 15.0347 43.5215
2484 1 10.2869 13.4521 45.1041
2485 1 11.8695 15.0347 46.6867
2486 1 10.2869 13.4521 48.2693
2487 1 11.8695 15.0347 49.8519
2488 1 10.2869 16.6173 0.7913
2489 1 11.8695 18.1999 2.3739
2490 1 10.2869 16.6173 3.9565
2491 1 11.8695 18.1999 5.5391
2492 1 10.2869 16.6173 7.1217
2493 1 11.8695 18.1999 8.7043
2494 1 10.2869 16.6173 10.2869
2495 1 11.8695 18.1999 11.8695
2496 1 10.2869 16.6173 13.4521
2497 1 11.8695 18.1999 15.0347
2498 1 10.2869 16.6173 16.6173
2499 1 11.8695 18.1999 18.1999
2500 1 10.2869 16.6173 19.7825
2501 1 11.8695 18.1999 21.3651
2502 1 10.2869 16.6173 22.9477
2503 1 11.8695 18.1999 24.5303
2504 1 10.2869 16.6173 26.1129
2505 1 11.8695 18.1999 27.6955
2506 1 10.2869 16.6173 29.2781
2507 1 11.8695 18.1999 30.8607
2508 1 10.2869 16.6173 32.4433
2509 1 11.8695 18.1999 34.0259
2510 1 10.2869 16.6173 35.6085
2511 1 11.8695 18.1999 37.1911
2512 1 10.2869 16.6173 38.7737
2513 1 11.8695 18.1999 40.3563
2514 1 10.2869 16.6173 41.9389
2515 1 11.8695 18.1999 43.5215
2516 1 10.2869 16.6173 45.1041
2517 1 11.8695 18.1999 46.6867
2518 1 10.2869 16.6173 48.2693
2519 1 11.8695 18.1999 49.8519
2520 1 10.2869 19.7825 0.7913
2521 1 11.8695 21.3651 2.3739
2522 1 10.2869 19.7825 3.9565
2523 1 11.8695 21.3651 5.5391
2524 1 10.2869 19.7825 7.1217
2525 1 11.8695 21.3651 8.7043
2526 1 10.2869 19.7825 10.2869
2527 1 11.8695 21.3651 11.8695
2528 1 10.2869 19.7825 13.4521
2529 1 11.8695 21.3651 15.0347
2530 1 10.2869 19.7825 16.6173
2531 1 11.8695 21.3651 18.1999
2532 1 10.2869 19.7825 19.7825
2533 1 11.8695 21.3651 21.3651
2534 1 10.2869 19.7825 22.9477
2535 1 11.8695 21.3651 24.5303
2536 1 10.2869 19.7825 26.1129
2537 1 11.8695 21.3651 27.6955
2538 1 10.2869 19.7825 29.2781
2539 1 11.8695 21.3651 30.8607
2540 1 10.2869 19.7825 32.4433
2541 1 11.8695 21.3651 34.0259
2542 1 10.2869 19.7825 35.6085
2543 1 11.8695 21.3651 37.1911
2544 1 10.2869 19.7825 38.7737
2545 1 11.8695 21.3651 40.3563
2546 1 10.2869 19.7825 41.9389
2547 1 11.8695 21.3651 43.5215
2548 1 10.2869 19.7825 45.1041
2549 1 11.8695 21.3651 46.6867
2550 1 10.2869 19.7825 48.2693
2551 1 11.8695 21.3651 49.8519
2552 1 10.2869 22.9477 0.7913
2553 1 11.8695 24.5303 2.3739
2554 1 10.2869 22.9477 3.9565
2555 1 11.8695 24.5303 5.5391
2556 1 10.2869 22.9477 7.1217
2557 1 11.8695 24.5303 8.7043
2558 1 10.2869 22.9477 10.2869
2559 1 11.8695 24.5303 11.8695
2560 1 10.2869 22.9477 13.4521
2561 1 11.8695 24.5303 15.0347
2562 1 10.2869 22.9477 16.6173
2563 1 11.8695 24.5303 18.1999
2564 1 10.2869 22.9477 19.7825
2565 1 11.8695 24.5303 21.3651
2566 1 10.2869 22.9477 22.9477
2567 1 11.8695 24.5303 24.5303
2568 1 10.2869 22.9477 26.1129
2569 1 11.8695 24.5303 27.6955
2570 1 10.2869 22.9477 29.2781
2571 1 11.8695 24.5303 30.8607
2572 1 10.2869 22.9477 32.4433
2573 1 11.8695 24.5303 34.0259
2574 1 10.2869 22.9477 35.6085
2575 1 11.8695 24.5303 37.1911
2576 1 10.2869 22.9477 38.7737
2577 1 11.8695 24.5303 40.3563
2578 1 10.2869 22.9477 41.9389
2579 1 11.8695 24.5303 43.5215
2580 1 10.2869 22.9477 45.1041
2581 1 11.8695 24.5303 46.6867
2582 1 10.2869 22.9477 48.2693
2583 1 11.8695 24.5303 49.8519
2584 1 10.2869 26.1129 0.7913
2585 1 11.8695 27.6955 2.3739
2586 1 10.2869 26.1129 3.9565
2587 1 11.8695 27.6955 5.5391
2588 1 10.2869 26.1129 7.1217
2589 1 11.8695 27.6955 8.7043
2590 1 10.2869 26.1129 10.2869
2591 1 11.8695 27.6955 11.8695
2592 1 10.2869 26.1129 13.4521
2593 1 11.8695 27.6955 15.0347
2594 1 10.2869 26.1129 16.6173
2595 1 11.8695 27.6955 18.1999
2596 1 10.2869 26.1129 19.7825
2597 1 11.8695 27.6955 21.3651
2598 1 10.2869 26.1129 22.9477
2599 1 11.8695 27.6955 24.5303
2600 1 10.2869 26.1129 26.1129
2601 1 11.8695 27.6955 27.6955
2602 1 10.2869 26.1129 29.2781
2603 1 11.8695 27.6955 30.8607
2604 1 10.2869 26.1129 32.4433
2605 1 11.8695 27.6955 34.0259
2606 1 10.2869 26.1129 35.6085
2607 1 11.8695 27.6955 37.1911
2608 1 10.2869 26.1129 38.7737
2609 1 11.8695 27.6955 40.3563
2610 1 10.2869 26.1129 41.9389
2611 1 11.8695 27.6955 43.5215
2612 1 10.2869 26.1129 45.1041
2613 1 11.8695 27.6955 46.6867
2614 1 10.2869 26.1129 48.2693
2615 1 11.8695 27.6955 49.8519
2616 1 10.2869 29.2781 0.7913
2617 1 11.8695 30.8607 2.3739
2618 1 10.2869 29.2781 3.9565
2619 1 11.8695 30.8607 5.5391
2620 1 10.2869 29.2781 7.1217
2621 1 11.8695 30.8607 8.7043
2622 1 10.2869 29.2781 10.2869
2623 1 11.8695 30.8607 11.8695
2624 1 10.2869 29.2781 13.4521
2625 1 11.8695 30.8607 15.0347
2626 1 10.2869 29.2781 16.6173
2627 1 11.8695 30.8607 18.1999
2628 1 10.2869 29.2781 19.7825
2629 1 11.8695 30.8607 21.3651
2630 1 10.2869 29.2781 22.9477
2631 1 11.8695 30.8607 24.5303
2632 1 10.2869 29.2781 26.1129
2633 1 11.8695 30.8607 27.6955
2634 1 10.2869 29.2781 29.2781
2635 1 11.8695 30.8607 30.8607
2636 1 10.2869 29.2781 32.4433
2637 1 11.8695 30.8607 34.0259
2638 1 10.2869 29.2781 35.6085
2639 1 11.8695 30.8607 37.1911
2640 1 10.2869 29.2781 38.7737
2641 1 11.8695 30.8607 40.3563
2642 1 10.2869 29.2781 41.9389
2643 1 11.8695 30.8607 43.5215
2644 1 10.2869 29.2781 45.1041
2645 1 11.8695 30.8607 46.6867
2646 1 10.2869 29.2781 48.2693
2647 1 11.8695 30.8607 49.8519
2648 1 10.2869 32.4433 0.7913
2649 1 11.8695 34.0259 2.3739
2650 1 10.2869 32.4433 3.9565
2651 1 11.8695 34.0259 5.5391
2652 1 10.2869 32.4433 7.1217
2653 1 11.8695 34.0259 8.7043
2654 1 10.2869 32.4433 10.2869
2655 1 11.8695 34.0259 11.8695
2656 1 10.2869 32.4433 13.4521
2657 1 11.8695 34.0259 15.0347
2658 1 10.2869 32.4433 16.6173
2659 1 11.8695 34.0259 18.1999
2660 1 10.2869 32.4433 19.7825
2661 1 11.8695 34.0259 21.3651
2662 1 10.2869 32.4433 22.9477
2663 1 11.8695 34.0259 24.5303
2664 1 10.2869 32.4433 26.1129
2665 1 11.8695 34.0259 27.6955
2666 1 10.2869 32.4433 29.2781
2667 1 11.8695 34.0259 30.8607
2668 1 10.2869 32.4433 32.4433
2669 1 11.8695 34.0259 34.0259
2670 1 10.2869 32.4433 35.6085
2671 1 11.8695 34.0259 37.1911
2672 1 10.2869 32.4433 38.7737
2673 1 11.8695 34.0259 40.3563
2674 1 10.2869 32.4433 41.9389
2675 1 11.8695 34.0259 43.5215
2676 1 10.2869 32.4433 45.1041
2677 1 11.8695 34.0259 46.6867
2678 1 10.2869 32.4433 48.2693
2679 1 11.8695 34.0259 49.8519
2680 1 10.2869 35.6085 0.7913
2681 1 11.8695 37.1911 2.3739
2682 1 10.2869 35.6085 3.9565
2683 1 11.8695 37.1911 5.5391
2684 1 10.2869 35.6085 7.1217
2685 1 11.8695 37.1911 8.7043
2686 1 10.2869 35.6085 10.2869
2687 1 11.8695 37.1911 11.8695
2688 1 10.2869 35.6085 13.4521
2689 1 11.8695 37.1911 15.0347
2690 1 10.2869 35.6085 16.6173
2691 1 11.8695 37.1911 18.1999
2692 1 10.2869 35.6085 19.7825
2693 1 11.8695 37.1911 21.3651
2694 1 10.2869 35.6085 22.9477
2695 1 11.8695 37.1911 24.5303
2696 1 10.2869 35.6085 26.1129
2697 1 11.8695 37.1911 27.6955
2698 1 10.2869 35.6085 29.2781
2699 1 11.8695 37.1911 30.8607
2700 1 10.2869 35.6085 32.4433
2701 1 11.8695 37.1911 34.0259
2702 1 10.2869 35.6085 35.6085
2703 1 11.8695 37.1911 37.1911
2704 1 10.2869 35.6085 38.7737
2705 1 11.8695 37.1911 40.3563
2706 1 10.2869 35.6085 41.9389
2707 1 11.8695 37.1911 43.5215
2708 1 10.2869 35.6085 45.1041
2709 1 11.8695 37.1911 46.6867
2710 1 10.2869 35.6085 48.2693
2711 1 11.8695 37.1911 49.8519
2712 1 10.2869 38.7737 0.7913
2713 1 11.8695 40.3563 2.3739
2714 1 10.2869 38.7737 3.9565
2715 1 11.8695 40.3563 5.5391
2716 1 10.2869 38.7737 7.1217
2717 1 11.8695 40.3563 8.7043
2718 1 10.2869 38.7737 10.2869
2719 1 11.8695 40.3563 11.8695
2720 1 10.2869 38.7737 13.4521
2721 1 11.8695 40.3563 15.0347
2722 1 10.2869 38.7737 16.6173
2723 1 11.8695 40.3563 18.1999
2724 1 10.2869 38.7737 19.7825
2725 1 11.8695 40.3563 21.3651
2726 1 10.2869 38.7737 22.9477
2727 1 11.8695 40.3563 24.5303
2728 1 10.2869 38.7737 26.1129
2729 1 11.8695 40.3563 27.6955
2730 1 10.2869 38.7737 29.2781
2731 1 11.8695 40.3563 30.8607
2732 1 10.2869 38.7737 32.4433
2733 1 11.8695 40.3563 34.0259
2734 1 10.2869 38.7737 35.6085
2735 1 11.8695 40.3563 37.1911
2736 1 10.2869 38.7737 38.7737
2737 1 11.8695 40.3563 40.3563
2738 1 10.2869 38.7737 41.9389
2739 1 11.8695 40.3563 43.5215
2740 1 10.2869 38.7737 45.1041
2741 1 11.8695 40.3563 46.6867
2742 1 10.2869 38.7737 48.2693
2743 1 11.8695 40.3563 49.8519
2744 1 10.2869 41.9389 0.7913
2745 1 11.8695 43.5215 2.3739
2746 1 10.2869 41.9389 3.9565
2747 1 11.8695 43.5215 5.5391
2748 1 10.2869 41.9389 7.1217
2749 1 11.8695 43.5215 8.7043
2750 1 10.2869 41.9389 10.2869
2751 1 11.8695 43.5215 11.8695
2752 1 10.2869 41.9389 13.4521
2753 1 11.8695 43.5215 15.0347
2754 1 10.2869 41.9389 16.6173
2755 1 11.8695 43.5215 18.1999
2756 1 10.2869 41.9389 19.7825
2757 1 11.8695 43.5215 21.3651
2758 1 10.2869 41.9389 22.9477
2759 1 11.8695 43.5215 24.5303
2760 1 10.2869 41.9389 26.1129
2761 1 11.8695 43.5215 27.6955
2762 1 10.2869 41.9389 29.2781
2763 1 11.8695 43.5215 30.8607
2764 1 10.2869 41.9389 32.4433
2765 1 11.8695 43.5215 34.0259
2766 1 10.2869 41.9389 35.6085
2767 1 11.8695 43.5215 37.1911
2768 1 10.2869 41.9389 38.7737
2769 1 11.8695 43.5215 40.3563
2770 1 10.2869 41.9389 41.9389
2771 1 11.8695 43.5215 43.5215
2772 1 10.2869 41.9389 45.1041
2773 1 11.8695 43.5215 46.6867
2774 1 10.2869 41.9389 48.2693
2775 1 11.8695 43.5215 49.8519
2776 1 10.2869 45.1041 0.7913
2777 1 11.8695 46.6867 2.3739
2778 1 10.2869 45.1041 3.9565
2779 1 11.8695 46.6867 5.5391
2780 1 10.2869 45.1041 7.1217
2781 1 11.8695 46.6867 8.7043
2782 1 10.2869 45.1041 10.2869
2783 1 11.8695 46.6867 11.8695
2784 1 10.2869 45.1041 13.4521
2785 1 11.8695 46.6867 15.0347
2786 1 10.2869 45.1041 16.6173
2787 1 11.8695 46.6867 18.1999
2788 1 10.2869 45.1041 19.7825
2789 1 11.8695 46.6867 21.3651
2790 1 10.2869 45.1041 22.9477
2791 1 11.8695 46.6867 24.5303
2792 1 10.2869 45.1041 26.1129
2793 1 11.8695 46.6867 27.6955
2794 1 10.2869 45.1041 29.2781
2795 1 11.8695 46.6867 30.8607
2796 1 10.2869 45.1041 32.4433
2797 1 11.8695 46.6867 34.0259
2798 1 10.2869 45.1041 35.6085
2799 1 11.8695 46.6867 37.1911
2800 1 10.2869 45.1041 38.7737
2801 1 11.8695 46.6867 40.3563
2802 1 10.2869 45.1041 41.9389
2803 1 11.8695 46.6867 43.5215
2804 1 10.2869 45.1041 45.1041
2805 1 11.8695 46.6867 46.6867
2806 1 10.2869 45.1041 48.2693
2807 1 11.8695 46.6867 49.8519
2808 1 10.2869 48.2693 0.7913
2809 1 11.8695 49.8519 2.3739
2810 1 10.2869 48.2693 3.9565
2811 1 11.8695 49.8519 5.5391
2812 1 10.2869 48.2693 7.1217
2813 1 11.8695 49.8519 8.7043
2814 1 10.2869 48.2693 10.2869
2815 1 11.8695 49.8519 11.8695
2816 1 10.2869 48.2693 13.4521
2817 1 11.8695 49.8519 15.0347
2818 1 10.2869 48.2693 16.6173
2819 1 11.8695 49.8519 18.1999
2820 1 10.2869 48.2693 19.7825
2821 1 11.8695 49.8519 21.3651
2822 1 10.2869 48.2693 22.9477
2823 1 11.8695 49.8519 24.5303
2824 1 10.2869 48.2693 26.1129
2825 1 11.8695 49.8519 27.6955
2826 1 10.2869 48.2693 29.2781
2827 1 11.8695 49.8519 30.8607
2828 1 10.2869 48.2693 32.4433
2829 1 11.8695 49.8519 34.0259
2830 1 10.2869 48.2693 35.6085
2831 1 11.8695 49.8519 37.1911
2832 1 10.2869 48.2693 38.7737
2833 1 11.8695 49.8519 40.3563
2834 1 10.2869 48.2693 41.9389
2835 1 11.8695 49.8519 43.5215
2836 1 10.2869 48.2693 45.1041
2837 1 11.8695 49.8519 46.6867
2838 1 10.2869 48.2693 48.2693
2839 1 11.8695 49.8519 49.8519
2840 1 35.6085 0.7913 0.7913
2841 1 37.1911 2.3739 2.3739
2842 1 35.6085 0.7913 3.9565
2843 1 37.1911 2.3739 5.5391
2844 1 35.6085 0.7913 7.1217
2845 1 37.1911 2.3739 8.7043
2846 1 35.6085 0.7913 10.2869
2847 1 37.1911 2.3739 11.8695
2848 1 35.6085 0.7913 13.4521
2849 1 37.1911 2.3739 15.0347
2850 1 35.6085 0.7913 16.6173
2851 1 37.1911 2.3739 18.1999
2852 1 35.6085 0.7913 19.7825
2853 1 37.1911 2.3739 21.3651
2854 1 35.6085 0.7913 22.9477
2855 1 37.1911 2.3739 24.5303
2856 1 35.6085 0.7913 26.1129
2857 1 37.1911 2.3739 27.6955
2858 1 35.6085 0.7913 29.2781
2859 1 37.1911 2.3739 30.8607
2860 1 35.6085 0.7913 32.4433
2861 1 37.1911 2.3739 34.0259
2862 1 35.6085 0.7913 35.6085
2863 1 37.1911 2.3739 37.1911
2864 1 35.6085 0.7913 38.7737
2865 1 37.1911 2.3739 40.3563
2866 1 35.6085 0.7913 41.9389
2867 1 37.1911 2.3739 43.5215
2868 1 35.6085 0.7913 45.1041
2869 1 37.1911 2.3739 46.6867
2870 1 35.6085 0.7913 48.2693
2871 1 37.1911 2.3739 49.8519
2872 1 35.6085 3.9565 0.7913
2873 1 37.1911 5.5391 2.3739
2874 1 35.6085 3.9565 3.9565
2875 1 37.1911 5.5391 5.5391
2876 1 35.6085 3.9565 7.1217
2877 1 37.1911 5.5391 8.7043
2878 1 35.6085 3.9565 10.2869
2879 1 37.1911 5.5391 11.8695
2880 1 35.6085 3.9565 13.4521
2881 1 37.1911 5.5391 15.0347
2882 1 35.6085 3.9565 16.6173
2883 1 37.1911 5.5391 18.1999
2884 1 35.6085 3.9565 19.7825
2885 1 37.1911 5.5391 21.3651
2886 1 35.6085 3.9565 22.9477
2887 1 37.1911 5.5391 24.5303
2888 1 35.6085 3.9565 26.1129
2889 1 37.1911 5.5391 27.6955
2890 1 35.6085 3.9565 29.2781
2891 1 37.1911 5.5391 30.8607
2892 1 35.6085 3.9565 32.4433
2893 1 37.1911 5.5391 34.0259
2894 1 35.6085 3.9565 35.6085
2895 1 37.1911 5.5391 37.1911
2896 1 35.6085 3.9565 38.7737
2897 1 37.1911 5.5391 40.3563
2898 1 35.6085 3.9565 41.9389
2899 1 37.1911 5.5391 43.5215
2900 1 35.6085 3.9565 45.1041
2901 1 37.1911 5.5391 46.6867
2902 1 35.6085 3.9565 48.2693
2903 1 37.1911 5.5391 49.8519
2904 1 35.6085 7.1217 0.7913
2905 1 37.1911 8.7043 2.3739
2906 1 35.6085 7.1217 3.9565
2907 1 37.1911 8.7043 5.5391
2908 1 35.6085 7.1217 7.1217
2909 1 37.1911 8.7043 8.7043
2910 1 35.6085 7.1217 10.2869
2911 1 37.1911 8.7043 11.8695
2912 1 35.6085 7.1217 13.4521
2913 1 37.1911 8.7043 15.0347
2914 1 35.6085 7.1217 16.6173
2915 1 37.1911 8.7043 18.1999
2916 1 35.6085 7.1217 19.7825
2917 1 37.1911 8.7043 21.3651
2918 1 35.6085 7.1217 22.9477
2919 1 37.1911 8.7043 24.5303
2920 1 35.6085 7.1217 26.1129
2921 1 37.1911 8.7043 27.6955
2922 1 35.6085 7.1217 29.2781
2923 1 37.1911 8.7043 30.8607
2924 1 35.6085 7.1217 32.4433
2925 1 37.1911 8.7043 34.0259
2926 1 35.6085 7.1217 35.6085
2927 1 37.1911 8.7043 37.1911
2928 1 35.6085 7.1217 38.7737
2929 1 37.1911 8.7043 40.3563
2930 1 35.6085 7.1217 41.9389
2931 1 37.1911 8.7043 43.5215
2932 1 35.6085 7.1217 45.1041
2933 1 37.1911 8.7043 46.6867
2934 1 35.6085 7.1217 48.2693
2935 1 37.1911 8.7043 49.8519
2936 1 35.6085 10.2869 0.7913
2937 1 37.1911 11.8695 2.3739
2938 1 35.6085 10.2869 3.9565
2939 1 37.1911 11.8695 5.5391
2940 1 35.6085 10.2869 7.1217
2941 1 37.1911 11.8695 8.7043
2942 1 35.6085 10.2869 10.2869
2943 1 37.1911 11.8695 11.8695
2944 1 35.6085 10.2869 13.4521
2945 1 37.1911 11.8695 15.0347
2946 1 35.6085 10.2869 16.6173
2947 1 37.1911 11.8695 18.1999
2948 1 35.6085 10.2869 19.7825
2949 1 37.1911 11.8695 21.3651
2950 1 35.6085 10.2869 22.9477
2951 1 37.1911 11.8695 24.5303
2952 1 35.6085 10.2869 26.1129
2953 1 37.1911 11.8695 27.6955
2954 1 35.6085 10.2869 29.2781
2955 1 37.1911 11.8695 30.8607
2956 1 35.6085 10.2869 32.4433
2957 1 37.1911 11.8695 34.0259
2958 1 35.6085 10.2869 35.6085
2959 1 37.1911 11.8695 37.1911
2960 1 35.6085 10.2869 38.7737
2961 1 37.1911 11.8695 40.3563
2962 1 35.6085 10.2869 41.9389
2963 1 37.1911 11.8695 43.5215
2964 1 35.6085 10.2869 45.1041
2965 1 37.1911 11.8695 46.6867
2966 1 35.6085 10.2869 48.2693
2967 1 37.1911 11.8695 49.8519
2968 1 35.6085 13.4521 0.7913
2969 1 37.1911 15.0347 2.3739
2970 1 35.6085 13.4521 3.9565
2971 1 37.1911 15.0347 5.5391
2972 1 35.6085 13.4521 7.1217
2973 1 37.1911 15.0347 8.7043
2974 1 35.6085 13.4521 10.2869
2975 1 37.1911 15.0347 11.8695
2976 1 35.6085 13.4521 13.4521
2977 1 37.1911 15.0347 15.0347
2978 1 35.6085 13.4521 16.6173
2979 1 37.1911 15.0347 18.1999
2980 1 35.6085 13.4521 19.7825
2981 1 37.1911 15.0347 21.3651
2982 1 35.6085 13.4521 22.9477
2983 1 37.1911 15.0347 24.5303
2984 1 35.6085 13.4521 26.1129
2985 1 37.1911 15.0347 27.6955
2986 1 35.6085 13.4521 29.2781
2987 1 37.1911 15.0347 30.8607
2988 1 35.6085 13.4521 32.4433
2989 1 37.1911 15.0347 34.0259
2990 1 35.6085 13.4521 35.6085
2991 1 37.1911 15.0347 37.1911
2992 1 35.6085 13.4521 38.7737
2993 1 37.1911 15.0347 40.3563
2994 1 35.6085 13.4521 41.9389
2995 1 37.1911 15.0347 43.5215
2996 1 35.6085 13.4521 45.1041
2997 1 37.1911 15.0347 46.6867
2998 1 35.6085 13.4521 48.2693
2999 1 37.1911 15.0347 49.8519
3000 1 35.6085 16.6173 0.7913
3001 1 37.1911 18.1999 2.3739
3002 1 35.6085 16.6173 3.9565
3003 1 37.1911 18.1999 5.5391
3004 1 35.6085 16.6173 7.1217
3005 1 37.1911 18.1999 8.7043
3006 1 35.6085 16.6173 10.2869
3007 1 37.1911 18.1999 11.8695
3008 1 35.6085 16.6173 13.4521
3009 1 37.1911 18.1999 15.0347
3010 1 35.6085 16.6173 16.6173
3011 1 37.1911 18.1999 18.1999
3012 1 35.6085 16.6173 19.7825
3013 1 37.1911 18.1999 21.3651
3014 1 35.6085 16.6173 22.9477
3015 1 37.1911 18.1999 24.5303
3016 1 35.6085 16.6173 26.1129
3017 1 37.1911 18.1999 27.6955
3018 1 35.6085 16.6173 29.2781
3019 1 37.1911 18.1999 30.8607
3020 1 35.6085 16.6173 32.4433
3021 1 37.1911 18.1999 34.0259
3022 1 35.6085 16.6173 35.6085
3023 1 37.1911 18.1999 37.1911
3024 1 35.6085 16.6173 38.7737
3025 1 37.1911 18.1999 40.3563
3026 1 35.6085 16.6173 41.9389
3027 1 37.1911 18.1999 43.5215
3028 1 35.6085 16.6173 45.1041
3029 1 37.1911 18.1999 46.6867
3030 1 35.6085 16.6173 48.2693
3031 1 37.1911 18.1999 49.8519
3032 1 35.6085 19.7825 0.7913
3033 1 37.1911 21.3651 2.3739
3034 1 35.6085 19.7825 3.9565
3035 1 37.1911 21.3651 5.5391
3036 1 35.6085 19.7825 7.1217
3037 1 37.1911 21.3651 8.7043
3038 1 35.6085 19.7825 10.2869
3039 1 37.1911 21.3651 11.8695
3040 1 35.6085 19.7825 13.4521
3041 1 37.1911 21.3651 15.0347
3042 1 35.6085 19.7825 16.6173
3043 1 37.1911 21.3651 18.1999
3044 1 35.6085 19.7825 19.7825
3045 1 37.1911 21.3651 21.3651
3046 1 35.6085 19.7825 22.9477
3047 1 37.1911 21.3651 24.5303
3048 1 35.6085 19.7825 26.1129
3049 1 37.1911 21.3651 27.6955
3050 1 35.6085 19.7825 29.2781
3051 1 37.1911 21.3651 30.8607
3052 1 35.6085 19.7825 32.4433
3053 1 37.1911 21.3651 34.0259
3054 1 35.6085 19.7825 35.6085
3055 1 37.1911 21.3651 37.1911
3056 1 35.6085 19.7825 38.7737
3057 1 37.1911 21.3651 40.3563
3058 1 35.6085 19.7825 41.9389
3059 1 37.1911 21.3651 43.5215
3060 1 35.6085 19.7825 45.1041
3061 1 37.1911 21.3651 46.6867
3062 1 35.6085 19.7825 48.2693
3063 1 37.1911 21.3651 49.8519
3064 1 35.6085 22.9477 0.7913
3065 1 37.1911 24.5303 2.3739
3066 1 35.6085 22.9477 3.9565
3067 1 37.1911 24.5303 5.5391
3068 1 35.6085 22.9477 7.1217
3069 1 37.1911 24.5303 8.7043
3070 1 35.6085 22.9477 10.2869
3071 1 37.1911 24.5303 11.8695
3072 1 35.6085 22.9477 13.4521
3073 1 37.1911 24.5303 15.0347
3074 1 35.6085 22.9477 16.6173
3075 1 37.1911 24.5303 18.1999
3076 1 35.6085 22.9477 19.7825
3077 1 37.1911 24.5303 21.3651
3078 1 35.6085 22.9477 22.9477
3079 1 37.1911 24.5303 24.5303
3080 1 35.6085 22.9477 26.1129
3081 1 37.1911 24.5303 27.6955
3082 1 35.6085 22.9477 29.2781
3083 1 37.1911 24.5303 30.8607
3084 1 35.6085 22.9477 32.4433
3085 1 37.1911 24.5303 34.0259
3086 1 35.6085 22.9477 35.6085
3087 1 37.1911 24.5303 37.1911
3088 1 35.6085 22.9477 38.7737
3089 1 37.1911 24.5303 40.3563
3090 1 35.6085 22.9477 41.9389
3091 1 37.1911 24.5303 43.5215
3092 1 35.6085 22.9477 45.1041
3093 1 37.1911 24.5303 46.6867
3094 1 35.6085 22.9477 48.2693
3095 1 37.1911 24.5303 49.8519
3096 1 35.6085 26.1129 0.7913
3097 1 37.1911 27.6955 2.3739
3098 1 35.6085 26.1129 3.9565
3099 1 37.1911 27.6955 5.5391
3100 1 35.6085 26.1129 7.1217
3101 1 37.1911 27.6955 8.7043
3102 1 35.6085 26.1129 10.2869
3103 1 37.1911 27.6955 11.8695
3104 1 35.6085 26.1129 13.4521
3105 1 37.1911 27.6955 15.0347
3106 1 35.6085 26.1129 16.6173
3107 1 37.1911 27.6955 18.1999
3108 1 35.6085 26.1129 19.7825
3109 1 37.1911 27.6955 21.3651
3110 1 35.6085 26.1129 22.9477
3111 1 37.1911 27.6955 24.5303
3112 1 35.6085 26.1129 26.1129
3113 1 37.1911 27.6955 27.6955
3114 1 35.6085 26.1129 29.2781
3115 1 37.1911 27.6955 30.8607
3116 1 35.6085 26.1129 32.4433
3117 1 37.1911 27.6955 34.0259
3118 1 35.6085 26.1129 35.6085
3119 1 37.1911 27.6955 37.1911
3120 1 35.6085 26.1129 38.7737
3121 1 37.1911 27.6955 40.3563
3122 1 35.6085 26.1129 41.9389
3123 1 37.1911 27.6955 43.5215
3124 1 35.6085 26.1129 45.1041
3125 1 37.1911 27.6955 46.6867
3126 1 35.6085 26.1129 48.2693
3127 1 37.1911 27.6955 49.8519
3128 1 35.6085 29.2781 0.7913
3129 1 37.1911 30.8607 2.3739
3130 1 35.6085 29.2781 3.9565
3131 1 37.1911 30.8607 5.5391
3132 1 35.6085 29.2781 7.1217
3133 1 37.1911 30.8607 8.7043
3134 1 35.6085 29.2781 10.2869
3135 1 37.1911 30.8607 11.8695
3136 1 35.6085 29.2781 13.4521
3137 1 37.1911 30.8607 15.0347
3138 1 35.6085 29.2781 16.6173
3139 1 37.1911 30.8607 18.1999
3140 1 35.6085 29.2781 19.7825
3141 1 37.1911 30.8607 21.3651
3142 1 35.6085 29.2781 22.9477
3143 1 37.1911 30.8607 24.5303
3144 1 35.6085 29.2781 26.1129
3145 1 37.1911 30.8607 27.6955
3146 1 35.6085 29.2781 29.2781
3147 1 37.1911 30.8607 30.8607
3148 1 35.6085 29.2781 32.4433
3149 1 37.1911 30.8607 34.0259
3150 1 35.6085 29.2781 35.6085
3151 1 37.1911 30.8607 37.1911
3152 1 35.6085 29.2781 38.7737
3153 1 37.1911 30.8607 40.3563
3154 1 35.6085 29.2781 41.9389
3155 1 37.1911 30.8607 43.5215
3156 1 35.6085 29.2781 45.1041
3157 1 37.1911 30.8607 46.6867
3158 1 35.6085 29.2781 48.2693
3159 1 37.1911 30.8607 49.8519
3160 1 35.6085 32.4433 0.7913
3161 1 37.1911 34.0259 2.3739
3162 1 35.6085 32.4433 3.9565
3163 1 37.1911 34.0259 5.5391
3164 1 35.6085 32.4433 7.1217
3165 1 37.1911 34.0259 8.7043
3166 1 35.6085 32.4433 10.2869
3167 1 37.1911 34.0259 11.8695
3168 1 35.6085 32.4433 13.4521
3169 1 37.1911 34.0259 15.0347
3170 1 35.6085 32.4433 16.6173
3171 1 37.1911 34.0259 18.1999
3172 1 35.6085 32.4433 19.7825
3173 1 37.1911 34.0259 21.3651
3174 1 35.6085 32.4433 22.9477
3175 1 37.1911 34.0259 24.5303
3176 1 35.6085 32.4433 26.1129
3177 1 37.1911 34.0259 27.6955
3178 1 35.6085 32.4433 29.2781
3179 1 37.1911 34.0259 30.8607
3180 1 35.6085 32.4433 32.4433
3181 1 37.1911 34.0259 34.0259
3182 1 35.6085 32.4433 35.6085
3183 1 37.1911 34.0259 37.1911
3184 1 35.6085 32.4433 38.7737
3185 1 37.1911 34.0259 40.3563
3186 1 35.6085 32.4433 41.9389
3187 1 37.1911 34.0259 43.5215
3188 1 35.6085 32.4433 45.1041
3189 1 37.1911 34.0259 46.6867
3190 1 35.6085 32.4433 48.2693
3191 1 37.1911 34.0259 49.8519
3192 1 35.6085 35.6085 0.7913
3193 1 37.1911 37.1911 2.3739
3194 1 35.6085 35.6085 3.9565
3195 1 37.1911 37.1911 5.5391
3196 1 35.6085 35.6085 7.1217
3197 1 37.1911 37.1911 8.7043
3198 1 35.6085 35.6085 10.2869
3199 1 37.1911 37.1911 11.8695
3200 1 35.6085 35.6085 13.4521
3201 1 37.1911 37.1911 15.0347
3202 1 35.6085 35.6085 16.6173
3203 1 37.1911 37.1911 18.1999
3204 1 35.6085 35.6085 19.7825
3205 1 37.1911 37.1911 21.3651
3206 1 35.6085 35.6085 22.9477
3207 1 37.1911 37.1911 24.5303
3208 1 35.6085 35.6085 26.1129
3209 1 37.1911 37.1911 27.6955
3210 1 35.6085 35.6085 29.2781
3211 1 37.1911 37.1911 30.8607
3212 1 35.6085 35.6085 32.4433
3213 1 37.1911 37.1911 34.0259
3214 1 35.6085 35.6085 35.6085
3215 1 37.1911 37.1911 37.1911
3216 1 35.6085 35.6085 38.7737
3217 1 37.1911 37.1911 40.3563
3218 1 35.6085 35.6085 41.9389
3219 1 37.1911 37.1911 43.5215
3220 1 35.6085 35.6085 45.1041
3221 1 37.1911 37.1911 46.6867
3222 1 35.6085 35.6085 48.2693
3223 1 37.1911 37.1911 49.8519
3224 1 35.6085 38.7737 0.7913
3225 1 37.1911 40.3563 2.3739
3226 1 35.6085 38.7737 3.9565
3227 1 37.1911 40.3563 5.5391
3228 1 35.6085 38.7737 7.1217
3229 1 37.1911 40.3563 8.7043
3230 1 35.6085 38.7737 10.2869
3231 1 37.1911 40.3563 11.8695
3232 1 35.6085 38.7737 13.4521
3233 1 37.1911 40.3563 15.0347
3234 1 35.6085 38.7737 16.6173
3235 1 37.1911 40.3563 18.1999
3236 1 35.6085 38.7737 19.7825
3237 1 37.1911 40.3563 21.3651
3238 1 35.6085 38.7737 22.9477
3239 1 37.1911 40.3563 24.5303
3240 1 35.6085 38.7737 26.1129
3241 1 37.1911 40.3563 27.6955
3242 1 35.6085 38.7737 29.2781
3243 1 37.1911 40.3563 30.8607
3244 1 35.6085 38.7737 32.4433
3245 1 37.1911 40.3563 34.0259
3246 1 35.6085 38.7737 35.6085
3247 1 37.1911 40.3563 37.1911
3248 1 35.6085 38.7737 38.7737
3249 1 37.1911 40.3563 40.3563
3250 1 35.6085 38.7737 41.9389
3251 1 37.1911 40.3563 43.5215
3252 1 35.6085 38.7737 45.1041
3253 1 37.1911 40.3563 46.6867
3254 1 35.6085 38.7737 48.2693
3255 1 37.1911 40.3563 49.8519
3256 1 35.6085 41.9389 0.7913
3257 1 37.1911 43.5215 2.3739
3258 1 35.6085 41.9389 3.9565
3259 1 37.1911 43.5215 5.5391
3260 1 35.6085 41.9389 7.1217
3261 1 37.1911 43.5215 8.7043
3262 1 35.6085 41.9389 10.2869
3263 1 37.1911 43.5215 11.8695
3264 1 35.6085 41.9389 13.4521
3265 1 37.1911 43.5215 15.0347
3266 1 35.6085 41.9389 16.6173
3267 1 37.1911 43.5215 18.1999
3268 1 35.6085 41.9389 19.7825
3269 1 37.1911 43.5215 21.3651
3270 1 35.6085 41.9389 22.9477
3271 1 37.1911 43.5215 24.5303
3272 1 35.6085 41.9389 26.1129
3273 1 37.1911 43.5215 27.6955
3274 1 35.6085 41.9389 29.2781
3275 1 37.1911 43.5215 30.8607
3276 1 35.6085 41.9389 32.4433
3277 1 37.1911 43.5215 34.0259
3278 1 35.6085 41.9389 35.6085
3279 1 37.1911 43.5215 37.1911
3280 1 35.6085 41.9389 38.7737
3281 1 37.1911 43.5215 40.3563
3282 1 35.6085 41.9389 41.9389
3283 1 37.1911 43.5215 43.5215
3284 1 35.6085 41.9389 45.1041
3285 1 37.1911 43.5215 46.6867
3286 1 35.6085 41.9389 48.2693
3287 1 37.1911 43.5215 49.8519
3288 1 35.6085 45.1041 0.7913
3289 1 37.1911 46.6867 2.3739
3290 1 35.6085 45.1041 3.9565
3291 1 37.1911 46.6867 5.5391
3292 1 35.6085 45.1041 7.1217
3293 1 37.1911 46.6867 8.7043
3294 1 35.6085 45.1041 10.2869
3295 1 37.1911 46.6867 11.8695
3296 1 35.6085 45.1041 13.4521
3297 1 37.1911 46.6867 15.0347
3298 1 35.6085 45.1041 16.6173
3299 1 37.1911 46.6867 18.1999
3300 1 35.6085 45.1041 19.7825
3301 1 37.1911 46.6867 21.3651
3302 1 35.6085 45.1041 22.9477
3303 1 37.1911 46.6867 24.5303
3304 1 35.6085 45.1041 26.1129
3305 1 37.1911 46.6867 27.6955
3306 1 35.6085 45.1041 29.2781
3307 1 37.1911 46.6867 30.8607
3308 1 35.6085 45.1041 32.4433
3309 1 37.1911 46.6867 34.0259
3310 1 35.6085 45.1041 35.6085
3311 1 37.1911 46.6867 37.1911
3312 1 35.6085 45.1041 38.7737
3313 1 37.1911 46.6867 40.3563
3314 1 35.6085 45.1041 41.9389
3315 1 37.1911 46.6867 43.5215
3316 1 35.6085 45.1041 45.1041
3317 1 37.1911 46.6867 46.6867
3318 1 35.6085 45.1041 48.2693
3319 1 37.1911 46.6867 49.8519
3320 1 35.6085 48.2693 0.7913
3321 1 37.1911 49.8519 2.3739
3322 1 35.6085 48.2693 3.9565
3323 1 37.1911 49.8519 5.5391
3324 1 35.6085 48.2693 7.1217
3325 1 37.1911 49.8519 8.7043
3326 1 35.6085 48.2693 10.2869
3327 1 37.1911 49.8519 11.8695
3328 1 35.6085 48.2693 13.4521
3329 1 37.1911 49.8519 15.0347
3330 1 35.6085 48.2693 16.6173
3331 1 37.1911 49.8519 18.1999
3332 1 35.6085 48.2693 19.7825
3333 1 37.1911 49.8519 21.3651
3334 1 35.6085 48.2693 22.9477
3335 1 37.1911 49.8519 24.5303
3336 1 35.6085 48.2693 26.1129
3337 1 37.1911 49.8519 27.6955
3338 1 35.6085 48.2693 29.2781
3339 1 37.1911 49.8519 30.8607
3340 1 35.6085 48.2693 32.4433
3341 1 37.1911 49.8519 34.0259
3342 1 35.6085 48.2693 35.6085
3343 1 37.1911 49.8519 37.1911
3344 1 35.6085 48.2693 38.7737
3345 1 37.1911 49.8519 40.3563
3346 1 35.6085 48.2693 41.9389
3347 1 37.1911 49.8519 43.5215
3348 1 35.6085 48.2693 45.1041
3349 1 37.1911 49.8519 46.6867
3350 1 35.6085 48.2693 48.2693
3351 1 37.1911 49.8519 49.8519
3352 1 38.7737 0.7913 0.7913
3353 1 40.3563 2.3739 2.3739
3354 1 38.7737 0.7913 3.9565
3355 1 40.3563 2.3739 5.5391
3356 1 38.7737 0.7913 7.1217
3357 1 40.3563 2.3739 8.7043
3358 1 38.7737 0.7913 10.2869
3359 1 40.3563 2.3739 11.8695
3360 1 38.7737 0.7913 13.4521
3361 1 40.3563 2.3739 15.0347
3362 1 38.7737 0.7913 16.6173
3363 1 40.3563 2.3739 18.1999
3364 1 38.7737 0.7913 19.7825
3365 1 40.3563 2.3739 21.3651
3366 1 38.7737 0.7913 22.9477
3367 1 40.3563 2.3739 24.5303
3368 1 38.7737 0.7913 26.1129
3369 1 40.3563 2.3739 27.6955
3370 1 38.7737 0.7913 29.2781
3371 1 40.3563 2.3739 30.8607
3372 1 38.7737 0.7913 32.4433
3373 1 40.3563 2.3739 34.0259
3374 1 38.7737 0.7913 35.6085
3375 1 40.3563 2.3739 37.1911
3376 1 38.7737 0.7913 38.7737
3377 1 40.3563 2.3739 40.3563
3378 1 38.7737 0.7913 41.9389
3379 1 40.3563 2.3739 43.5215
3380 1 38.7737 0.7913 45.1041
3381 1 40.3563 2.3739 46.6867
3382 1 38.7737 0.7913 48.2693
3383 1 40.3563 2.3739 49.8519
3384 1 38.7737 3.9565 0.7913
3385 1 40.3563 5.5391 2.3739
3386 1 38.7737 3.9565 3.9565
3387 1 40.3563 5.5391 5.5391
3388 1 38.7737 3.9565 7.1217
3389 1 40.3563 5.5391 8.7043
3390 1 38.7737 3.9565 10.2869
3391 1 40.3563 5.5391 11.8695
3392 1 38.7737 3.9565 13.4521
3393 1 40.3563 5.5391 15.0347
3394 1 38.7737 3.9565 16.6173
3395 1 40.3563 5.5391 18.1999
3396 1 38.7737 3.9565 19.7825
3397 1 40.3563 5.5391 21.3651
3398 1 38.7737 3.9565 22.9477
3399 1 40.3563 5.5391 24.5303
3400 1 38.7737 3.9565 26.1129
3401 1 40.3563 5.5391 27.6955
3402 1 38.7737 3.9565 29.2781
3403 1 40.3563 5.5391 30.8607
3404 1 38.7737 3.9565 32.4433
3405 1 40.3563 5.5391 34.0259
3406 1 38.7737 3.9565 35.6085
3407 1 40.3563 5.5391 37.1911
3408 1 38.7737 3.9565 38.7737
3409 1 40.3563 5.5391 40.3563
3410 1 38.7737 3.9565 41.9389
3411 1 40.3563 5.5391 43.5215
3412 1 38.7737 3.9565 45.1041
3413 1 40.3563 5.5391 46.6867
3414 1 38.7737 3.9565 48.2693
3415 1 40.3563 5.5391 49.8519
3416 1 38.7737 7.1217 0.7913
3417 1 40.3563 8.7043 2.3739
3418 1 38.7737 7.1217 3.9565
3419 1 40.3563 8.7043 5.5391
3420 1 38.7737 7.1217 7.1217
3421 1 40.3563 8.7043 8.7043
3422 1 38.7737 7.1217 10.2869
3423 1 40.3563 8.7043 11.8695
3424 1 38.7737 7.1217 13.4521
3425 1 40.3563 8.7043 15.0347
3426 1 38.7737 7.1217 16.6173
3427 1 40.3563 8.7043 18.1999
3428 1 38.7737 7.1217 19.7825
3429 1 40.3563 8.7043 21.3651
3430 1 38.7737 7.1217 22.9477
3431 1 40.3563 8.7043 24.5303
3432 1 38.7737 7.1217 26.1129
3433 1 40.3563 8.7043 27.6955
3434 1 38.7737 7.1217 29.2781
3435 1 40.3563 8.7043 30.8607
3436 1 38.7737 7.1217 32.4433
3437 1 40.3563 8.7043 34.0259
3438 1 38.7737 7.1217 35.6085
3439 1 40.3563 8.7043 37.1911
3440 1 38.7737 7.1217 38.7737
3441 1 40.3563 8.7043 40.3563
3442 1 38.7737 7.1217 41.9389
3443 1 40.3563 8.7043 43.5215
3444 1 38.7737 7.1217 45.1041
3445 1 40.3563 8.7043 46.6867
3446 1 38.7737 7.1217 48.2693
3447 1 40.3563 8.7043 49.8519
3448 1 38.7737 10.2869 0.7913
3449 1 40.3563 11.8695 2.3739
3450 1 38.7737 10.2869 3.9565
3451 1 40.3563 11.8695 5.5391
3452 1 38.7737 10.2869 7.1217
3453 1 40.3563 11.8695 8.7043
3454 1 38.7737 10.2869 10.2869
3455 1 40.3563 11.8695 11.8695
3456 1 38.7737 10.2869 13.4521
3457 1 40.3563 11.8695 15.0347
3458 1 38.7737 10.2869 16.6173
3459 1 40.3563 11.8695 18.1999
3460 1 38.7737 10.2869 19.7825
3461 1 40.3563 11.8695 21.3651
3462 1 38.7737 10.2869 22.9477
3463 1 40.3563 11.8695 24.5303
3464 1 38.7737 10.2869 26.1129
3465 1 40.3563 11.8695 27.6955
3466 1 38.7737 10.2869 29.2781
3467 1 40.3563 11.8695 30.8607
3468 1 38.7737 10.2869 32.4433
3469 1 40.3563 11.8695 34.0259
3470 1 38.7737 10.2869 35.6085
3471 1 40.3563 11.8695 37.1911
3472 1 38.7737 10.2869 38.7737
3473 1 40.3563 11.8695 40.3563
3474 1 38.7737 10.2869 41.9389
3475 1 40.3563 11.8695 43.5215
3476 1 38.7737 10.2869 45.1041
3477 1 40.3563 11.8695 46.6867
3478 1 38.7737 10.2869 48.2693
3479 1 40.3563 11.8695 49.8519
3480 1 38.7737 13.4521 0.7913
3481 1 40.3563 15.0347 2.3739
3482 1 38.7737 13.4521 3.9565
3483 1 40.3563 15.0347 5.5391
3484 1 38.7737 13.4521 7.1217
3485 1 40.3563 15.0347 8.7043
3486 1 38.7737 13.4521 10.2869
3487 1 40.3563 15.0347 11.8695
3488 1 38.7737 13.4521 13.4521
3489 1 40.3563 15.0347 15.0347
3490 1 38.7737 13.4521 16.6173
3491 1 40.3563 15.0347 18.1999
3492 1 38.7737 13.4521 19.7825
3493 1 40.3563 15.0347 21.3651
3494 1 38.7737 13.4521 22.9477
3495 1 40.3563 15.0347 24.5303
3496 1 38.7737 13.4521 26.1129
3497 1 40.3563 15.0347 27.6955
3498 1 38.7737 13.4521 29.2781
3499 1 40.3563 15.0347 30.8607
3500 1 38.7737 13.4521 32.4433
3501 1 40.3563 15.0347 34.0259
3502 1 38.7737 13.4521 35.6085
3503 1 40.3563 15.0347 37.1911
3504 1 38.7737 13.4521 38.7737
3505 1 40.3563 15.0347 40.3563
3506 1 38.7737 13.4521 41.9389
3507 1 40.3563 15.0347 43.5215
3508 1 38.7737 13.4521 45.1041
3509 1 40.3563 15.0347 46.6867
3510 1 38.7737 13.4521 48.2693
3511 1 40.3563 15.0347 49.8519
3512 1 38.7737 16.6173 0.7913
3513 1 40.3563 18.1999 2.3739
3514 1 38.7737 16.6173 3.9565
3515 1 40.3563 18.1999 5.5391
3516 1 38.7737 16.6173 7.1217
3517 1 40.3563 18.1999 8.7043
3518 1 38.7737 16.6173 10.2869
3519 1 40.3563 18.1999 11.8695
3520 1 38.7737 16.6173 13.4521
3521 1 40.3563 18.1999 15.0347
3522 1 38.7737 16.6173 16.6173
3523 1 40.3563 18.1999 18.1999
3524 1 38.7737 16.6173 19.7825
3525 1 40.3563 18.1999 21.3651
3526 1 38.7737 16.6173 22.9477
3527 1 40.3563 18.1999 24.5303
3528 1 38.7737 16.6173 26.1129
3529 1 40.3563 18.1999 27.6955
3530 1 38.7737 16.6173 29.2781
3531 1 40.3563 18.1999 30.8607
3532 1 38.7737 16.6173 32.4433
3533 1 40.3563 18.1999 34.0259
3534 1 38.7737 16.6173 35.6085
3535 1 40.3563 18.1999 37.1911
3536 1 38.7737 16.6173 38.7737
3537 1 40.3563 18.1999 40.3563
3538 1 38.7737 16.6173 41.9389
3539 1 40.3563 18.1999 43.5215
3540 1 38.7737 16.6173 45.1041
3541 1 40.3563 18.1999 46.6867
3542 1 38.7737 16.6173 48.2693
3543 1 40.3563 18.1999 49.8519
3544 1 38.7737 19.7825 0.7913
3545 1 40.3563 21.3651 2.3739
3546 1 38.7737 19.7825 3.9565
3547 1 40.3563 21.3651 5.5391
3548 1 38.7737 19.7825 7.1217
3549 1 40.3563 21.3651 8.7043
3550 1 38.7737 19.7825 10.2869
3551 1 40.3563 21.3651 11.8695
3552 1 38.7737 19.7825 13.4521
3553 1 40.3563 21.3651 15.0347
3554 1 38.7737 19.7825 16.6173
3555 1 40.3563 21.3651 18.1999
3556 1 38.7737 19.7825 19.7825
3557 1 40.3563 21.3651 21.3651
3558 1 38.7737 19.7825 22.9477
3559 1 40.3563 21.3651 24.5303
3560 1 38.7737 19.7825 26.1129
3561 1 40.3563 21.3651 27.6955
3562 1 38.7737 19.7825 29.2781
3563 1 40.3563 21.3651 30.8607
3564 1 38.7737 19.7825 32.4433
3565 1 40.3563 21.3651 34.0259
3566 1 38.7737 19.7825 35.6085
3567 1 40.3563 21.3651 37.1911
3568 1 38.7737 19.7825 38.7737
3569 1 40.3563 21.3651 40.3563
3570 1 38.7737 19.7825 41.9389
3571 1 40.3563 21.3651 43.5215
3572 1 38.7737 19.7825 45.1041
3573 1 40.3563 21.3651 46.6867
3574 1 38.7737 19.7825 48.2693
3575 1 40.3563 21.3651 49.8519
3576 1 38.7737 22.9477 0.7913
3577 1 40.3563 24.5303 2.3739
3578 1 38.7737 22.9477 3.9565
3579 1 40.3563 24.5303 5.5391
3580 1 38.7737 22.9477 7.1217
3581 1 40.3563 24.5303 8.7043
3582 1 38.7737 22.9477 10.2869
3583 1 40.3563 24.5303 11.8695
3584 1 38.7737 22.9477 13.4521
3585 1 40.3563 24.5303 15.0347
3586 1 38.7737 22.9477 16.6173
3587 1 40.3563 24.5303 18.1999
3588 1 38.7737 22.9477 19.7825
3589 1 40.3563 24.5303 21.3651
3590 1 38.7737 22.9477 22.9477
3591 1 40.3563 24.5303 24.5303
3592 1 38.7737 22.9477 26.1129
3593 1 40.3563 24.5303 27.6955
3594 1 38.7737 22.9477 29.2781
3595 1 40.3563 24.5303 30.8607
3596 1 38.7737 22.9477 32.4433
3597 1 40.3563 24.5303 34.0259
3598 1 38.7737 22.9477 35.6085
3599 1 40.3563 24.5303 37.1911
3600 1 38.7737 22.9477 38.7737
3601 1 40.3563 24.5303 40.3563
3602 1 38.7737 22.9477 41.9389
3603 1 40.3563 24.5303 43.5215
3604 1 38.7737 22.9477 45.1041
3605 1 40.3563 24.5303 46.6867
3606 1 38.7737 22.9477 48.2693
3607 1 40.3563 24.5303 49.8519
3608 1 38.7737 26.1129 0.7913
3609 1 40.3563 27.6955 2.3739
3610 1 38.7737 26.1129 3.9565
3611 1 40.3563 27.6955 5.5391
3612 1 38.7737 26.1129 7.1217
3613 1 40.3563 27.6955 8.7043
3614 1 38.7737 26.1129 10.2869
3615 1 40.3563 27.6955 11.8695
3616 1 38.7737 26.1129 13.4521
3617 1 40.3563 27.6955 15.0347
3618 1 38.7737 26.1129 16.6173
3619 1 40.3563 27.6955 18.1999
3620 1 38.7737 26.1129 19.7825
3621 1 40.3563 27.6955 21.3651
3622 1 38.7737 26.1129 22.9477
3623 1 40.3563 27.6955 24.5303
3624 1 38.7737 26.1129 26.1129
3625 1 40.3563 27.6955 27.6955
3626 1 38.7737 26.1129 29.2781
3627 1 40.3563 27.6955 30.8607
3628 1 38.7737 26.1129 32.4433
3629 1 40.3563 27.6955 34.0259
3630 1 38.7737 26.1129 35.6085
3631 1 40.3563 27.6955 37.1911
3632 1 38.7737 26.1129 38.7737
3633 1 40.3563 27.6955 40.3563
3634 1 38.7737 26.1129 41.9389
3635 1 40.3563 27.6955 43.5215
3636 1 38.7737 26.1129 45.1041
3637 1 40.3563 27.6955 46.6867
3638 1 38.7737 26.1129 48.2693
3639 1 40.3563 27.6955 49.8519
3640 1 38.7737 29.2781 0.7913
3641 1 40.3563 30.8607 2.3739
3642 1 38.7737 29.2781 3.9565
3643 1 40.3563 30.8607 5.5391
3644 1 38.7737 29.2781 7.1217
3645 1 40.3563 30.8607 8.7043
3646 1 38.7737 29.2781 10.2869
3647 1 40.3563 30.8607 11.8695
3648 1 38.7737 29.2781 13.4521
3649 1 40.3563 30.8607 15.0347
3650 1 38.7737 29.2781 16.6173
3651 1 40.3563 30.8607 18.1999
3652 1 38.7737 29.2781 19.7825
3653 1 40.3563 30.8607 21.3651
3654 1 38.7737 29.2781 22.9477
3655 1 40.3563 30.8607 24.5303
3656 1 38.7737 29.2781 26.1129
3657 1 40.3563 30.8607 27.6955
3658 1 38.7737 29.2781 29.2781
3659 1 40.3563 30.8607 30.8607
3660 1 38.7737 29.2781 32.4433
3661 1 40.3563 30.8607 34.0259
3662 1 38.7737 29.2781 35.6085
3663 1 40.3563 30.8607 37.1911
3664 1 38.7737 29.2781 38.7737
3665 1 40.3563 30.8607 40.3563
3666 1 38.7737 29.2781 41.9389
3667 1 40.3563 30.8607 43.5215
3668 1 38.7737 29.2781 45.1041
3669 1 40.3563 30.8607 46.6867
3670 1 38.7737 29.2781 48.2693
3671 1 40.3563 30.8607 49.8519
3672 1 38.7737 32.4433 0.7913
3673 1 40.3563 34.0259 2.3739
3674 1 38.7737 32.4433 3.9565
3675 1 40.3563 34.0259 5.5391
3676 1 38.7737 32.4433 7.1217
3677 1 40.3563 34.0259 8.7043
3678 1 38.7737 32.4433 10.2869
3679 1 40.3563 34.0259 11.8695
3680 1 38.7737 32.4433 13.4521
3681 1 40.3563 34.0259 15.0347
3682 1 38.7737 32.4433 16.6173
3683 1 40.3563 34.0259 18.1999
3684 1 38.7737 32.4433 19.7825
3685 1 40.3563 34.0259 21.3651
3686 1 38.7737 32.4433 22.9477
3687 1 40.3563 34.0259 24.5303
3688 1 38.7737 32.4433 26.1129
3689 1 40.3563 34.0259 27.6955
3690 1 38.7737 32.4433 29.2781
3691 1 40.3563 34.0259 30.8607
3692 1 38.7737 32.4433 32.4433
3693 1 40.3563 34.0259 34.0259
3694 1 38.7737 32.4433 35.6085
3695 1 40.3563 34.0259 37.1911
3696 1 38.7737 32.4433 38.7737
3697 1 40.3563 34.0259 40.3563
3698 1 38.7737 32.4433 41.9389
3699 1 40.3563 34.0259 43.5215
3700 1 38.7737 32.4433 45.1041
3701 1 40.3563 34.0259 46.6867
3702 1 38.7737 32.4433 48.2693
3703 1 40.3563 34.0259 49.8519
3704 1 38.7737 35.6085 0.7913
3705 1 40.3563 37.1911 2.3739
3706 1 38.7737 35.6085 3.9565
3707 1 40.3563 37.1911 5.5391
3708 1 38.7737 35.6085 7.1217
3709 1 40.3563 37.1911 8.7043
3710 1 38.7737 35.6085 10.2869
3711 1 40.3563 37.1911 11.8695
3712 1 38.7737 35.6085 13.4521
3713 1 40.3563 37.1911 15.0347
3714 1 38.7737 35.6085 16.6173
3715 1 40.3563 37.1911 18.1999
3716 1 38.7737 35.6085 19.7825
3717 1 40.3563 37.1911 21.3651
3718 1 38.7737 35.6085 22.9477
3719 1 40.3563 37.1911 24.5303
3720 1 38.7737 35.6085 26.1129
3721 1 40.3563 37.1911 27.6955
3722 1 38.7737 35.6085 29.2781
3723 1 40.3563 37.1911 30.8607
3724 1 38.7737 35.6085 32.4433
3725 1 40.3563 37.1911 34.0259
3726 1 38.7737 35.6085 35.6085
3727 1 40.3563 37.1911 37.1911
3728 1 38.7737 35.6085 38.7737
3729 1 40.3563 37.1911 40.3563
3730 1 38.7737 35.6085 41.9389
3731 1 40.3563 37.1911 43.5215
3732 1 38.7737 35.6085 45.1041
3733 1 40.3563 37.1911 46.6867
3734 1 38.7737 35.6085 48.2693
3735 1 40.3563 37.1911 49.8519
3736 1 38.7737 38.7737 0.7913
3737 1 40.3563 40.3563 2.3739
3738 1 38.7737 38.7737 3.9565
3739 1 40.3563 40.3563 5.5391
3740 1 38.7737 38.7737 7.1217
3741 1 40.3563 40.3563 8.7043
3742 1 38.7737 38.7737 10.2869
3743 1 40.3563 40.3563 11.8695
3744 1 38.7737 38.7737 13.4521
3745 1 40.3563 40.3563 15.0347
3746 1 38.7737 38.7737 16.6173
3747 1 40.3563 40.3563 18.1999
3748 1 38.7737 38.7737 19.7825
3749 1 40.3563 40.3563 21.3651
3750 1 38.7737 38.7737 22.9477
3751 1 40.3563 40.3563 24.5303
3752 1 38.7737 38.7737 26.1129
3753 1 40.3563 40.3563 27.6955
3754 1 38.7737 38.7737 29.2781
3755 1 40.3563 40.3563 30.8607
3756 1 38.7737 38.7737 32.4433
3757 1 40.3563 40.3563 34.0259
3758 1 38.7737 38.7737 35.6085
3759 1 40.3563 40.3563 37.1911
3760 1 38.7737 38.7737 38.7737
3761 1 40.3563 40.3563 40.3563
3762 1 38.7737 38.7737 41.9389
3763 1 40.3563 40.3563 43.5215
3764 1 38.7737 38.7737 45.1041
3765 1 40.3563 40.3563 46.6867
3766 1 38.7737 38.7737 48.2693
3767 1 40.3563 40.3563 49.8519
3768 1 38.7737 41.9389 0.7913
3769 1 40.3563 43.5215 2.3739
3770 1 38.7737 41.9389 3.9565
3771 1 40.3563 43.5215 5.5391
3772 1 38.7737 41.9389 7.1217
3773 1 40.3563 43.5215 8.7043
3774 1 38.7737 41.9389 10.2869
3775 1 40.3563 43.5215 11.8695
3776 1 38.7737 41.9389 13.4521
3777 1 40.3563 43.5215 15.0347
3778 1 38.7737 41.9389 16.6173
3779 1 40.3563 43.5215 18.1999
3780 1 38.7737 41.9389 19.7825
3781 1 40.3563 43.5215 21.3651
3782 1 38.7737 41.9389 22.9477
3783 1 40.3563 43.5215 24.5303
3784 1 38.7737 41.9389 26.1129
3785 1 40.3563 43.5215 27.6955
3786 1 38.7737 41.9389 29.2781
3787 1 40.3563 43.5215 30.8607
3788 1 38.7737 41.9389 32.4433
3789 1 40.3563 43.5215 34.0259
3790 1 38.7737 41.9389 35.6085
3791 1 40.3563 43.5215 37.1911
3792 1 38.7737 41.9389 38.7737
3793 1 40.3563 43.5215 40.3563
3794 1 38.7737 41.9389 41.9389
3795 1 40.3563 43.5215 43.5215
3796 1 38.7737 41.9389 45.1041
3797 1 40.3563 43.5215 46.6867
3798 1 38.7737 41.9389 48.2693
3799 1 40.3563 43.5215 49.8519
3800 1 38.7737 45.1041 0.7913
3801 1 40.3563 46.6867 2.3739
3802 1 38.7737 45.1041 3.9565
3803 1 40.3563 46.6867 5.5391
3804 1 38.7737 45.1041 7.1217
3805 1 40.3563 46.6867 8.7043
3806 1 38.7737 45.1041 10.2869
3807 1 40.3563 46.6867 11.8695
3808 1 38.7737 45.1041 13.4521
3809 1 40.3563 46.6867 15.0347
3810 1 38.7737 45.1041 16.6173
3811 1 40.3563 46.6867 18.1999
3812 1 38.7737 45.1041 19.7825
3813 1 40.3563 46.6867 21.3651
3814 1 38.7737 45.1041 22.9477
3815 1 40.3563 46.6867 24.5303
3816 1 38.7737 45.1041 26.1129
3817 1 40.3563 46.6867 27.6955
3818 1 38.7737 45.1041 29.2781
3819 1 40.3563 46.6867 30.8607
3820 1 38.7737 45.1041 32.4433
3821 1 40.3563 46.6867 34.0259
3822 1 38.7737 45.1041 35.6085
3823 1 40.3563 46.6867 37.1911
3824 1 38.7737 45.1041 38.7737
3825 1 40.3563 46.6867 40.3563
3826 1 38.7737 45.1041 41.9389
3827 1 40.3563 46.6867 43.5215
3828 1 38.7737 45.1041 45.1041
3829 1 40.3563 46.6867 46.6867
3830 1 38.7737 45.1041 48.2693
3831 1 40.3563 46.6867 49.8519
3832 1 38.7737 48.2693 0.7913
3833 1 40.3563 49.8519 2.3739
3834 1 38.7737 48.2693 3.9565
3835 1 40.3563 49.8519 5.5391
3836 1 38.7737 48.2693 7.1217
3837 1 40.3563 49.8519 8.7043
3838 1 38.7737 48.2693 10.2869
3839 1 40.3563 49.8519 11.8695
3840 1 38.7737 48.2693 13.4521
3841 1 40.3563 49.8519 15.0347
3842 1 38.7737 48.2693 16.6173
3843 1 40.3563 49.8519 18.1999
3844 1 38.7737 48.2693 19.7825
3845 1 40.3563 49.8519 21.3651
3846 1 38.7737 48.2693 22.9477
3847 1 40.3563 49.8519 24.5303
3848 1 38.7737 48.2693 26.1129
3849 1 40.3563 49.8519 27.6955
3850 1 38.7737 48.2693 29.2781
3851 1 40.3563 49.8519 30.8607
3852 1 38.7737 48.2693 32.4433
3853 1 40.3563 49.8519 34.0259
3854 1 38.7737 48.2693 35.6085
3855 1 40.3563 49.8519 37.1911
3856 1 38.7737 48.2693 38.7737
3857 1 40.3563 49.8519 40.3563
3858 1 38.7737 48.2693 41.9389
3859 1 40.3563 49.8519 43.5215
3860 1 38.7737 48.2693 45.1041
3861 1 40.3563 49.8519 46.6867
3862 1 38.7737 48.2693 48.2693
3863 1 40.3563 49.8519 49.8519
3864 1 41.9389 0.7913 0.7913
3865 1 43.5215 2.3739 2.3739
3866 1 41.9389 0.7913 3.9565
3867 1 43.5215 2.3739 5.5391
3868 1 41.9389 0.7913 7.1217
3869 1 43.5215 2.3739 8.7043
3870 1 41.9389 0.7913 10.2869
3871 1 43.5215 2.3739 11.8695
3872 1 41.9389 0.7913 13.4521
3873 1 43.5215 2.3739 15.0347
3874 1 41.9389 0.7913 16.6173
3875 1 43.5215 2.3739 18.1999
3876 1 41.9389 0.7913 19.7825
3877 1 43.5215 2.3739 21.3651
3878 1 41.9389 0.7913 22.9477
3879 1 43.5215 2.3739 24.5303
3880 1 41.9389 0.7913 26.1129
3881 1 43.5215 2.3739 27.6955
3882 1 41.9389 0.7913 29.2781
3883 1 43.5215 2.3739 30.8607
3884 1 41.9389 0.7913 32.4433
3885 1 43.5215 2.3739 34.0259
3886 1 41.9389 0.7913 35.6085
3887 1 43.5215 2.3739 37.1911
3888 1 41.9389 0.7913 38.7737
3889 1 43.5215 2.3739 40.3563
3890 1 41.9389 0.7913 41.9389
3891 1 43.5215 2.3739 43.5215
3892 1 41.9389 0.7913 45.1041
3893 1 43.5215 2.3739 46.6867
3894 1 41.9389 0.7913 48.2693
3895 1 43.5215 2.3739 49.8519
3896 1 41.9389 3.9565 0.7913
3897 1 43.5215 5.5391 2.3739
3898 1 41.9389 3.9565 3.9565
3899 1 43.5215 5.5391 5.5391
3900 1 41.9389 3.9565 7.1217
3901 1 43.5215 5.5391 8.7043
3902 1 41.9389 3.9565 10.2869
3903 1 43.5215 5.5391 11.8695
3904 1 41.9389 3.9565 13.4521
3905 1 43.5215 5.5391 15.0347
3906 1 41.9389 3.9565 16.6173
3907 1 43.5215 5.5391 18.1999
3908 1 41.9389 3.9565 19.7825
3909 1 43.5215 5.5391 21.3651
3910 1 41.9389 3.9565 22.9477
3911 1 43.5215 5.5391 24.5303
3912 1 41.9389 3.9565 26.1129
3913 1 43.5215 5.5391 27.6955
3914 1 41.9389 3.9565 29.2781
3915 1 43.5215 5.5391 30.8607
3916 1 41.9389 3.9565 32.4433
3917 1 43.5215 5.5391 34.0259
3918 1 41.9389 3.9565 35.6085
3919 1 43.5215 5.5391 37.1911
3920 1 41.9389 3.9565 38.7737
3921 1 43.5215 5.5391 40.3563
3922 1 41.9389 3.9565 41.9389
3923 1 43.5215 5.5391 43.5215
3924 1 41.9389 3.9565 45.1041
3925 1 43.5215 5.5391 46.6867
3926 1 41.9389 3.9565 48.2693
3927 1 43.5215 5.5391 49.8519
3928 1 41.9389 7.1217 0.7913
3929 1 43.5215 8.7043 2.3739
3930 1 41.9389 7.1217 3.9565
3931 1 43.5215 8.7043 5.5391
3932 1 41.9389 7.1217 7.1217
3933 1 43.5215 8.7043 8.7043
3934 1 41.9389 7.1217 10.2869
3935 1 43.5215 8.7043 11.8695
3936 1 41.9389 7.1217 13.4521
3937 1 43.5215 8.7043 15.0347
3938 1 41.9389 7.1217 16.6173
3939 1 43.5215 8.7043 18.1999
3940 1 41.9389 7.1217 19.7825
3941 1 43.5215 8.7043 21.3651
3942 1 41.9389 7.1217 22.9477
3943 1 43.5215 8.7043 24.5303
3944 1 41.9389 7.1217 26.1129
3945 1 43.5215 8.7043 27.6955
3946 1 41.9389 7.1217 29.2781
3947 1 43.5215 8.7043 30.8607
3948 1 41.9389 7.1217 32.4433
3949 1 43.5215 8.7043 34.0259
3950 1 41.9389 7.1217 35.6085
3951 1 43.5215 8.7043 37.1911
3952 1 41.9389 7.1217 38.7737
3953 1 43.5215 8.7043 40.3563
3954 1 41.9389 7.1217 41.9389
3955 1 43.5215 8.7043 43.5215
3956 1 41.9389 7.1217 45.1041
3957 1 43.5215 8.7043 46.6867
3958 1 41.9389 7.1217 48.2693
3959 1 43.5215 8.7043 49.8519
3960 1 41.9389 10.2869 0.7913
3961 1 43.5215 11.8695 2.3739
3962 1 41.9389 10.2869 3.9565
3963 1 43.5215 11.8695 5.5391
3964 1 41.9389 10.2869 7.1217
3965 1 43.5215 11.8695 8.7043
3966 1 41.9389 10.2869 10.2869
3967 1 43.5215 11.8695 11.8695
3968 1 41.9389 10.2869 13.4521
3969 1 43.5215 11.8695 15.0347
3970 1 41.9389 10.2869 16.6173
3971 1 43.5215 11.8695 18.1999
3972 1 41.9389 10.2869 19.7825
3973 1 43.5215 11.8695 21.3651
3974 1 41.9389 10.2869 22.9477
3975 1 43.5215 11.8695 24.5303
3976 1 41.9389 10.2869 26.1129
3977 1 43.5215 11.8695 27.6955
3978 1 41.9389 10.2869 29.2781
3979 1 43.5215 11.8695 30.8607
3980 1 41.9389 10.2869 32.4433
3981 1 43.5215 11.8695 34.0259
3982 1 41.9389 10.2869 35.6085
3983 1 43.5215 11.8695 37.1911
3984 1 41.9389 10.2869 38.7737
3985 1 43.5215 11.8695 40.3563
3986 1 41.9389 10.2869 41.9389
3987 1 43.5215 11.8695 43.5215
3988 1 41.9389 10.2869 45.1041
3989 1 43.5215 11.8695 46.6867
3990 1 41.9389 10.2869 48.2693
3991 1 43.5215 11.8695 49.8519
3992 1 41.9389 13.4521 0.7913
3993 1 43.5215 15.0347 2.3739
3994 1 41.9389 13.4521 3.9565
3995 1 43.5215 15.0347 5.5391
3996 1 41.9389 13.4521 7.1217
3997 1 43.5215 15.0347 8.7043
3998 1 41.9389 13.4521 10.2869
3999 1 43.5215 15.0347 11.8695
4000 1 41.9389 13.4521 13.4521
4001 1 43.5215 15.0347 15.0347
4002 1 41.9389 13.4521 16.6173
4003 1 43.5215 15.0347 18.1999
4004 1 41.9389 13.4521 19.7825
4005 1 43.5215 15.0347 21.3651
4006 1 41.9389 13.4521 22.9477
4007 1 43.5215 15.0347 24.5303
4008 1 41.9389 13.4521 26.1129
4009 1 43.5215 15.0347 27.6955
4010 1 41.9389 13.4521 29.2781
4011 1 43.5215 15.0347 30.8607
4012 1 41.9389 13.4521 32.4433
4013 1 43.5215 15.0347 34.0259
4014 1 41.9389 13.4521 35.6085
4015 1 43.5215 15.0347 37.1911
4016 1 41.9389 13.4521 38.7737
4017 1 43.5215 15.0347 40.3563
4018 1 41.9389 13.4521 41.9389
4019 1 43.5215 15.0347 43.5215
4020 1 41.9389 13.4521 45.1041
4021 1 43.5215 15.0347 46.6867
4022 1 41.9389 13.4521 48.2693
4023 1 43.5215 15.0347 49.8519
4024 1 41.9389 16.6173 0.7913
4025 1 43.5215 18.1999 2.3739
4026 1 41.9389 16.6173 3.9565
4027 1 43.5215 18.1999 5.5391
4028 1 41.9389 16.6173 7.1217
4029 1 43.5215 18.1999 8.7043
4030 1 41.9389 16.6173 10.2869
4031 1 43.5215 18.1999 11.8695
4032 1 41.9389 16.6173 13.4521
4033 1 43.5215 18.1999 15.0347
4034 1 41.9389 16.6173 16.6173
4035 1 43.5215 18.1999 18.1999
4036 1 41.9389 16.6173 19.7825
4037 1 43.5215 18.1999 21.3651
4038 1 41.9389 16.6173 22.9477
4039 1 43.5215 18.1999 24.5303
4040 1 41.9389 16.6173 26.1129
4041 1 43.5215 18.1999 27.6955
4042 1 41.9389 16.6173 29.2781
4043 1 43.5215 18.1999 30.8607
4044 1 41.9389 16.6173 32.4433
4045 1 43.5215 18.1999 34.0259
4046 1 41.9389 16.6173 35.6085
4047 1 43.5215 18.1999 37.1911
4048 1 41.9389 16.6173 38.7737
4049 1 43.5215 18.1999 40.3563
4050 1 41.9389 16.6173 41.9389
4051 1 43.5215 18.1999 43.5215
4052 1 41.9389 16.6173 45.1041
4053 1 43.5215 18.1999 46.6867
4054 1 41.9389 16.6173 48.2693
4055 1 43.5215 18.1999 49.8519
4056 1 41.9389 19.7825 0.7913
4057 1 43.5215 21.3651 2.3739
4058 1 41.9389 19.7825 3.9565
4059 1 43.5215 21.3651 5.5391
4060 1 41.9389 19.7825 7.1217
4061 1 43.5215 21.3651 8.7043
4062 1 41.9389 19.7825 10.2869
4063 1 43.5215 21.3651 11.8695
4064 1 41.9389 19.7825 13.4521
4065 1 43.5215 21.3651 15.0347
4066 1 41.9389 19.7825 16.6173
4067 1 43.5215 21.3651 18.1999
4068 1 41.9389 19.7825 19.7825
4069 1 43.5215 21.3651 21.3651
4070 1 41.9389 19.7825 22.9477
4071 1 43.5215 21.3651 24.5303
4072 1 41.9389 19.7825 26.1129
4073 1 43.5215 21.3651 27.6955
4074 1 41.9389 19.7825 29.2781
4075 1 43.5215 21.3651 30.8607
4076 1 41.9389 19.7825 32.4433
4077 1 43.5215 21.3651 34.0259
4078 1 41.9389 19.7825 35.6085
4079 1 43.5215 21.3651 37.1911
4080 1 41.9389 19.7825 38.7737
4081 1 43.5215 21.3651 40.3563
4082 1 41.9389 19.7825 41.9389
4083 1 43.5215 21.3651 43.5215
4084 1 41.9389 19.7825 45.1041
4085 1 43.5215 21.3651 46.6867
4086 1 41.9389 19.7825 48.2693
4087 1 43.5215 21.3651 49.8519
4088 1 41.9389 22.9477 0.7913
4089 1 43.5215 24.5303 2.3739
4090 1 41.9389 22.9477 3.9565
4091 1 43.5215 24.5303 5.5391
4092 1 41.9389 22.9477 7.1217
4093 1 43.5215 24.5303 8.7043
4094 1 41.9389 22.9477 10.2869
4095 1 43.5215 24.5303 11.8695
4096 1 41.9389 22.9477 13.4521
4097 1 43.5215 24.5303 15.0347
4098 1 41.9389 22.9477 16.6173
4099 1 43.5215 24.5303 18.1999
4100 1 41.9389 22.9477 19.7825
4101 1 43.5215 24.5303 21.3651
4102 1 41.9389 22.9477 22.9477
4103 1 43.5215 24.5303 24.5303
4104 1 41.9389 22.9477 26.1129
4105 1 43.5215 24.5303 27.6955
4106 1 41.9389 22.9477 29.2781
4107 1 43.5215 24.5303 30.8607
4108 1 41.9389 22.9477 32.4433
4109 1 43.5215 24.5303 34.0259
4110 1 41.9389 22.9477 35.6085
4111 1 43.5215 24.5303 37.1911
4112 1 41.9389 22.9477 38.7737
4113 1 43.5215 24.5303 40.3563
4114 1 41.9389 22.9477 41.9389
4115 1 43.5215 24.5303 43.5215
4116 1 41.9389 22.9477 45.1041
4117 1 43.5215 24.5303 46.6867
4118 1 41.9389 22.9477 48.2693
4119 1 43.5215 24.5303 49.8519
4120 1 41.9389 26.1129 0.7913
4121 1 43.5215 27.6955 2.3739
4122 1 41.9389 26.1129 3.9565
4123 1 43.5215 27.6955 5.5391
4124 1 41.9389 26.1129 7.1217
4125 1 43.5215 27.6955 8.7043
4126 1 41.9389 26.1129 10.2869
4127 1 43.5215 27.6955 11.8695
4128 1 41.9389 26.1129 13.4521
4129 1 43.5215 27.6955 15.0347
4130 1 41.9389 26.1129 16.6173
4131 1 43.5215 27.6955 18.1999
4132 1 41.9389 26.1129 19.7825
4133 1 43.5215 27.6955 21.3651
4134 1 41.9389 26.1129 22.9477
4135 1 43.5215 27.6955 24.5303
4136 1 41.9389 26.1129 26.1129
4137 1 43.5215 27.6955 27.6955
4138 1 41.9389 26.1129 29.2781
4139 1 43.5215 27.6955 30.8607
4140 1 41.9389 26.1129 32.4433
4141 1 43.5215 27.6955 34.0259
4142 1 41.9389 26.1129 35.6085
4143 1 43.5215 27.6955 37.1911
4144 1 41.9389 26.1129 38.7737
4145 1 43.5215 27.6955 40.3563
4146 1 41.9389 26.1129 41.9389
4147 1 43.5215 27.6955 43.5215
4148 1 41.9389 26.1129 45.1041
4149 1 43.5215 27.6955 46.6867
4150 1 41.9389 26.1129 48.2693
4151 1 43.5215 27.6955 49.8519
4152 1 41.9389 29.2781 0.7913
4153 1 43.5215 30.8607 2.3739
4154 1 41.9389 29.2781 3.9565
4155 1 43.5215 30.8607 5.5391
4156 1 41.9389 29.2781 7.1217
4157 1 43.5215 30.8607 8.7043
4158 1 41.9389 29.2781 10.2869
4159 1 43.5215 30.8607 11.8695
4160 1 41.9389 29.2781 13.4521
4161 1 43.5215 30.8607 15.0347
4162 1 41.9389 29.2781 16.6173
4163 1 43.5215 30.8607 18.1999
4164 1 41.9389 29.2781 19.7825
4165 1 43.5215 30.8607 21.3651
4166 1 41.9389 29.2781 22.9477
4167 1 43.5215 30.8607 24.5303
4168 1 41.9389 29.2781 26.1129
4169 1 43.5215 30.8607 27.6955
4170 1 41.9389 29.2781 29.2781
4171 1 43.5215 30.8607 30.8607
4172 1 41.9389 29.2781 32.4433
4173 1 43.5215 30.8607 34.0259
4174 1 41.9389 29.2781 35.6085
4175 1 43.5215 30.8607 37.1911
4176 1 41.9389 29.2781 38.7737
4177 1 43.5215 30.8607 40.3563
4178 1 41.9389 29.2781 41.9389
4179 1 43.5215 30.8607 43.5215
4180 1 41.9389 29.2781 45.1041
4181 1 43.5215 30.8607 46.6867
4182 1 41.9389 29.2781 48.2693
4183 1 43.5215 30.8607 49.8519
4184 1 41.9389 32.4433 0.7913
4185 1 43.5215 34.0259 2.3739
4186 1 41.9389 32.4433 3.9565
4187 1 43.5215 34.0259 5.5391
4188 1 41.9389 32.4433 7.1217
4189 1 43.5215 34.0259 8.7043
4190 1 41.9389 32.4433 10.2869
4191 1 43.5215 34.0259 11.8695
4192 1 41.9389 32.4433 13.4521
4193 1 43.5215 34.0259 15.0347
4194 1 41.9389 32.4433 16.6173
4195 1 43.5215 34.0259 18.1999
4196 1 41.9389 32.4433 19.7825
4197 1 43.5215 34.0259 21.3651
4198 1 41.9389 32.4433 22.9477
4199 1 43.5215 34.0259 24.5303
4200 1 41.9389 32.4433 26.1129
4201 1 43.5215 34.0259 27.6955
4202 1 41.9389 32.4433 29.2781
4203 1 43.5215 34.0259 30.8607
4204 1 41.9389 32.4433 32.4433
4205 1 43.5215 34.0259 34.0259
4206 1 41.9389 32.4433 35.6085
4207 1 43.5215 34.0259 37.1911
4208 1 41.9389 32.4433 38.7737
4209 1 43.5215 34.0259 40.3563
4210 1 41.9389 32.4433 41.9389
4211 1 43.5215 34.0259 43.5215
4212 1 41.9389 32.4433 45.1041
4213 1 43.5215 34.0259 46.6867
4214 1 41.9389 32.4433 48.2693
4215 1 43.5215 34.0259 49.8519
4216 1 41.9389 35.6085 0.7913
4217 1 43.5215 37.1911 2.3739
4218 1 41.9389 35.6085 3.9565
4219 1 43.5215 37.1911 5.5391
4220 1 41.9389 35.6085 7.1217
4221 1 43.5215 37.1911 8.7043
4222 1 41.9389 35.6085 10.2869
4223 1 43.5215 37.1911 11.8695
4224 1 41.9389 35.6085 13.4521
4225 1 43.5215 37.1911 15.0347
4226 1 41.9389 35.6085 16.6173
4227 1 43.5215 37.1911 18.1999
4228 1 41.9389 35.6085 19.7825
4229 1 43.5215 37.1911 21.3651
4230 1 41.9389 35.6085 22.9477
4231 1 43.5215 37.1911 24.5303
4232 1 41.9389 35.6085 26.1129
4233 1 43.5215 37.1911 27.6955
4234 1 41.9389 35.6085 29.2781
4235 1 43.5215 37.1911 30.8607
4236 1 41.9389 35.6085 32.4433
4237 1 43.5215 37.1911 34.0259
4238 1 41.9389 35.6085 35.6085
4239 1 43.5215 37.1911 37.1911
4240 1 41.9389 35.6085 38.7737
4241 1 43.5215 37.1911 40.3563
4242 1 41.9389 35.6085 41.9389
4243 1 43.5215 37.1911 43.5215
4244 1 41.9389 35.6085 45.1041
4245 1 43.5215 37.1911 46.6867
4246 1 41.9389 35.6085 48.2693
4247 1 43.5215 37.1911 49.8519
4248 1 41.9389 38.7737 0.7913
4249 1 43.5215 40.3563 2.3739
4250 1 41.9389 38.7737 3.9565
4251 1 43.5215 40.3563 5.5391
4252 1 41.9389 38.7737 7.1217
4253 1 43.5215 40.3563 8.7043
4254 1 41.9389 38.7737 10.2869
4255 1 43.5215 40.3563 11.8695
4256 1 41.9389 38.7737 13.4521
4257 1 43.5215 40.3563 15.0347
4258 1 41.9389 38.7737 16.6173
4259 1 43.5215 40.3563 18.1999
4260 1 41.9389 38.7737 19.7825
4261 1 43.5215 40.3563 21.3651
4262 1 41.9389 38.7737 22.9477
4263 1 43.5215 40.3563 24.5303
4264 1 41.9389 38.7737 26.1129
4265 1 43.5215 40.3563 27.6955
4266 1 41.9389 38.7737 29.2781
4267 1 43.5215 40.3563 30.8607
4268 1 41.9389 38.7737 32.4433
4269 1 43.5215 40.3563 34.0259
4270 1 41.9389 38.7737 35.6085
4271 1 43.5215 40.3563 37.1911
4272 1 41.9389 38.7737 38.7737
4273 1 43.5215 40.3563 40.3563
4274 1 41.9389 38.7737 41.9389
4275 1 43.5215 40.3563 43.5215
4276 1 41.9389 38.7737 45.1041
4277 1 43.5215 40.3563 46.6867
4278 1 41.9389 38.7737 48.2693
4279 1 43.5215 40.3563 49.8519
4280 1 41.9389 41.9389 0.7913
4281 1 43.5215 43.5215 2.3739
4282 1 41.9389 41.9389 3.9565
4283 1 43.5215 43.5215 5.5391
4284 1 41.9389 41.9389 7.1217
4285 1 43.5215 43.5215 8.7043
4286 1 41.9389 41.9389 10.2869
4287 1 43.5215 43.5215 11.8695
4288 1 41.9389 41.9389 13.4521
4289 1 43.5215 43.5215 15.0347
4290 1 41.9389 41.9389 16.6173
4291 1 43.5215 43.5215 18.1999
4292 1 41.9389 41.9389 19.7825
4293 1 43.5215 43.5215 21.3651
4294 1 41.9389 41.9389 22.9477
4295 1 43.5215 43.5215 24.5303
4296 1 41.9389 41.9389 26.1129
4297 1 43.5215 43.5215 27.6955
4298 1 41.9389 41.9389 29.2781
4299 1 43.5215 43.5215 30.8607
4300 1 41.9389 41.9389 32.4433
4301 1 43.5215 43.5215 34.0259
4302 1 41.9389 41.9389 35.6085
4303 1 43.5215 43.5215 37.1911
4304 1 41.9389 41.9389 38.7737
4305 1 43.5215 43.5215 40.3563
4306 1 41.9389 41.9389 41.9389
4307 1 43.5215 43.5215 43.5215
4308 1 41.9389 41.9389 45.1041
4309 1 43.5215 43.5215 46.6867
4310 1 41.9389 41.9389 48.2693
4311 1 43.5215 43.5215 49.8519
4312 1 41.9389 45.1041 0.7913
4313 1 43.5215 46.6867 2.3739
4314 1 41.9389 45.1041 3.9565
4315 1 43.5215 46.6867 5.5391
4316 1 41.9389 45.1041 7.1217
4317 1 43.5215 46.6867 8.7043
4318 1 41.9389 45.1041 10.2869
4319 1 43.5215 46.6867 11.8695
4320 1 41.9389 45.1041 13.4521
4321 1 43.5215 46.6867 15.0347
4322 1 41.9389 45.1041 16.6173
4323 1 43.5215 46.6867 18.1999
4324 1 41.9389 45.1041 19.7825
4325 1 43.5215 46.6867 21.3651
4326 1 41.9389 45.1041 22.9477
4327 1 43.5215 46.6867 24.5303
4328 1 41.9389 45.1041 26.1129
4329 1 43.5215 46.6867 27.6955
4330 1 41.9389 45.1041 29.2781
4331 1 43.5215 46.6867 30.8607
4332 1 41.9389 45.1041 32.4433
4333 1 43.5215 46.6867 34.0259
4334 1 41.9389 45.1041 35.6085
4335 1 43.5215 46.6867 37.1911
4336 1 41.9389 45.1041 38.7737
4337 1 43.5215 46.6867 40.3563
4338 1 41.9389 45.1041 41.9389
4339 1 43.5215 46.6867 43.5215
4340 1 41.9389 45.1041 45.1041
4341 1 43.5215 46.6867 46.6867
4342 1 41.9389 45.1041 48.2693
4343 1 43.5215 46.6867 49.8519
4344 1 41.9389 48.2693 0.7913
4345 1 43.5215 49.8519 2.3739
4346 1 41.9389 48.2693 3.9565
4347 1 43.5215 49.8519 5.5391
4348 1 41.9389 48.2693 7.1217
4349 1 43.5215 49.8519 8.7043
4350 1 41.9389 48.2693 10.2869
4351 1 43.5215 49.8519 11.8695
4352 1 41.9389 48.2693 13.4521
4353 1 43.5215 49.8519 15.0347
4354 1 41.9389 48.2693 16.6173
4355 1 43.5215 49.8519 18.1999
4356 1 41.9389 48.2693 19.7825
4357 1 43.5215 49.8519 21.3651
4358 1 41.9389 48.2693 22.9477
4359 1 43.5215 49.8519 24.5303
4360 1 41.9389 48.2693 26.1129
4361 1 43.5215 49.8519 27.6955
4362 1 41.9389 48.2693 29.2781
4363 1 43.5215 49.8519 30.8607
4364 1 41.9389 48.2693 32.4433
4365 1 43.5215 49.8519 34.0259
4366 1 41.9389 48.2693 35.6085
4367 1 43.5215 49.8519 37.1911
4368 1 41.9389 48.2693 38.7737
4369 1 43.5215 49.8519 40.3563
4370 1 41.9389 48.2693 41.9389
4371 1 43.5215 49.8519 43.5215
4372 1 41.9389 48.2693 45.1041
4373 1 43.5215 49.8519 46.6867
4374 1 41.9389 48.2693 48.2693
4375 1 43.5215 49.8519 49.8519
4376 1 45.1041 0.7913 0.7913
4377 1 46.6867 2.3739 2.3739
4378 1 45.1041 0.7913 3.9565
4379 1 46.6867 2.3739 5.5391
4380 1 45.1041 0.7913 7.1217
4381 1 46.6867 2.3739 8.7043
4382 1 45.1041 0.7913 10.2869
4383 1 46.6867 2.3739 11.8695
4384 1 45.1041 0.7913 13.4521
4385 1 46.6867 2.3739 15.0347
4386 1 45.1041 0.7913 16.6173
4387 1 46.6867 2.3739 18.1999
4388 1 45.1041 0.7913 19.7825
4389 1 46.6867 2.3739 21.3651
4390 1 45.1041 0.7913 22.9477
4391 1 46.6867 2.3739 24.5303
4392 1 45.1041 0.7913 26.1129
4393 1 46.6867 2.3739 27.6955
4394 1 45.1041 0.7913 29.2781
4395 1 46.6867 2.3739 30.8607
4396 1 45.1041 0.7913 32.4433
4397 1 46.6867 2.3739 34.0259
4398 1 45.1041 0.7913 35.6085
4399 1 46.6867 2.3739 37.1911
4400 1 45.1041 0.7913 38.7737
4401 1 46.6867 2.3739 40.3563
4402 1 45.1041 0.7913 41.9389
4403 1 46.6867 2.3739 43.5215
4404 1 45.1041 0.7913 45.1041
4405 1 46.6867 2.3739 46.6867
4406 1 45.1041 0.7913 48.2693
4407 1 46.6867 2.3739 49.8519
4408 1 45.1041 3.9565 0.7913
4409 1 46.6867 5.5391 2.3739
4410 1 45.1041 3.9565 3.9565
4411 1 46.6867 5.5391 5.5391
4412 1 45.1041 3.9565 7.1217
4413 1 46.6867 5.5391 8.7043
4414 1 45.1041 3.9565 10.2869
4415 1 46.6867 5.5391 11.8695
4416 1 45.1041 3.9565 13.4521
4417 1 46.6867 5.5391 15.0347
4418 1 45.1041 3.9565 16.6173
4419 1 46.6867 5.5391 18.1999
4420 1 45.1041 3.9565 19.7825
4421 1 46.6867 5.5391 21.3651
4422 1 45.1041 3.9565 22.9477
4423 1 46.6867 5.5391 24.5303
4424 1 45.1041 3.9565 26.1129
4425 1 46.6867 5.5391 27.6955
4426 1 45.1041 3.9565 29.2781
4427 1 46.6867 5.5391 30.8607
4428 1 45.1041 3.9565 32.4433
4429 1 46.6867 5.5391 34.0259
4430 1 45.1041 3.9565 35.6085
4431 1 46.6867 5.5391 37.1911
4432 1 45.1041 3.9565 38.7737
4433 1 46.6867 5.5391 40.3563
4434 1 45.1041 3.9565 41.9389
4435 1 46.6867 5.5391 43.5215
4436 1 45.1041 3.9565 45.1041
4437 1 46.6867 5.5391 46.6867
4438 1 45.1041 3.9565 48.2693
4439 1 46.6867 5.5391 49.8519
4440 1 45.1041 7.1217 0.7913
4441 1 46.6867 8.7043 2.3739
4442 1 45.1041 7.1217 3.9565
4443 1 46.6867 8.7043 5.5391
4444 1 45.1041 7.1217 7.1217
4445 1 46.6867 8.7043 8.7043
4446 1 45.1041 7.1217 10.2869
4447 1 46.6867 8.7043 11.8695
4448 1 45.1041 7.1217 13.4521
4449 1 46.6867 8.7043 15.0347
4450 1 45.1041 7.1217 16.6173
4451 1 46.6867 8.7043 18.1999
4452 1 45.1041 7.1217 19.7825
4453 1 46.6867 8.7043 21.3651
4454 1 45.1041 7.1217 22.9477
4455 1 46.6867 8.7043 24.5303
4456 1 45.1041 7.1217 26.1129
4457 1 46.6867 8.7043 27.6955
4458 1 45.1041 7.1217 29.2781
4459 1 46.6867 8.7043 30.8607
4460 1 45.1041 7.1217 32.4433
4461 1 46.6867 8.7043 34.0259
4462 1 45.1041 7.1217 35.6085
4463 1 46.6867 8.7043 37.1911
4464 1 45.1041 7.1217 38.7737
4465 1 46.6867 8.7043 40.3563
4466 1 45.1041 7.1217 41.9389
4467 1 46.6867 8.7043 43.5215
4468 1 45.1041 7.1217 45.1041
4469 1 46.6867 8.7043 46.6867
4470 1 45.1041 7.1217 48.2693
4471 1 46.6867 8.7043 49.8519
4472 1 45.1041 10.2869 0.7913
4473 1 46.6867 11.8695 2.3739
4474 1 45.1041 10.2869 3.9565
4475 1 46.6867 11.8695 5.5391
4476 1 45.1041 10.2869 7.1217
4477 1 46.6867 11.8695 8.7043
4478 1 45.1041 10.2869 10.2869
4479 1 46.6867 11.8695 11.8695
4480 1 45.1041 10.2869 13.4521
4481 1 46.6867 11.8695 15.0347
4482 1 45.1041 10.2869 16.6173
4483 1 46.6867 11.8695 18.1999
4484 1 45.1041 10.2869 19.7825
4485 1 46.6867 11.8695 21.3651
4486 1 45.1041 10.2869 22.9477
4487 1 46.6867 11.8695 24.5303
4488 1 45.1041 10.2869 26.1129
4489 1 46.6867 11.8695 27.6955
4490 1 45.1041 10.2869 29.2781
4491 1 46.6867 11.8695 30.8607
4492 1 45.1041 10.2869 32.4433
4493 1 46.6867 11.8695 34.0259
4494 1 45.1041 10.2869 35.6085
4495 1 46.6867 11.8695 37.1911
4496 1 45.1041 10.2869 38.7737
4497 1 46.6867 11.8695 40.3563
4498 1 45.1041 10.2869 41.9389
4499 1 46.6867 11.8695 43.5215
4500 1 45.1041 10.2869 45.1041
4501 1 46.6867 11.8695 46.6867
4502 1 45.1041 10.2869 48.2693
4503 1 46.6867 11.8695 49.8519
4504 1 45.1041 13.4521 0.7913
4505 1 46.6867 15.0347 2.3739
4506 1 45.1041 13.4521 3.9565
4507 1 46.6867 15.0347 5.5391
4508 1 45.1041 13.4521 7.1217
4509 1 46.6867 15.0347 8.7043
4510 1 45.1041 13.4521 10.2869
4511 1 46.6867 15.0347 11.8695
4512 1 45.1041 13.4521 13.4521
4513 1 46.6867 15.0347 15.0347
4514 1 45.1041 13.4521 16.6173
4515 1 46.6867 15.0347 18.1999
4516 1 45.1041 13.4521 19.7825
4517 1 46.6867 15.0347 21.3651
4518 1 45.1041 13.4521 22.9477
4519 1 46.6867 15.0347 24.5303
4520 1 45.1041 13.4521 26.1129
4521 1 46.6867 15.0347 27.6955
4522 1 45.1041 13.4521 29.2781
4523 1 46.6867 15.0347 30.8607
4524 1 45.1041 13.4521 32.4433
4525 1 46.6867 15.0347 34.0259
4526 1 45.1041 13.4521 35.6085
4527 1 46.6867 15.0347 37.1911
4528 1 45.1041 13.4521 38.7737
4529 1 46.6867 15.0347 40.3563
4530 1 45.1041 13.4521 41.9389
4531 1 46.6867 15.0347 43.5215
4532 1 45.1041 13.4521 45.1041
4533 1 46.6867 15.0347 46.6867
4534 1 45.1041 13.4521 48.2693
4535 1 46.6867 15.0347 49.8519
4536 1 45.1041 16.6173 0.7913
4537 1 46.6867 18.1999 2.3739
4538 1 45.1041 16.6173 3.9565
4539 1 46.6867 18.1999 5.5391
4540 1 45.1041 16.6173 7.1217
4541 1 46.6867 18.1999 8.7043
4542 1 45.1041 16.6173 10.2869
4543 1 46.6867 18.1999 11.8695
4544 1 45.1041 16.6173 13.4521
4545 1 46.6867 18.1999 15.0347
4546 1 45.1041 16.6173 16.6173
4547 1 46.6867 18.1999 18.1999
4548 1 45.1041 16.6173 19.7825
4549 1 46.6867 18.1999 21.3651
4550 1 45.1041 16.6173 22.9477
4551 1 46.6867 18.1999 24.5303
4552 1 45.1041 16.6173 26.1129
4553 1 46.6867 18.1999 27.6955
4554 1 45.1041 16.6173 29.2781
4555 1 46.6867 18.1999 30.8607
4556 1 45.1041 16.6173 32.4433
4557 1 46.6867 18.1999 34.0259
4558 1 45.1041 16.6173 35.6085
4559 1 46.6867 18.1999 37.1911
4560 1 45.1041 16.6173 38.7737
4561 1 46.6867 18.1999 40.3563
4562 1 45.1041 16.6173 41.9389
4563 1 46.6867 18.1999 43.5215
4564 1 45.1041 16.6173 45.1041
4565 1 46.6867 18.1999 46.6867
4566 1 45.1041 16.6173 48.2693
4567 1 46.6867 18.1999 49.8519
4568 1 45.1041 19.7825 0.7913
4569 1 46.6867 21.3651 2.3739
4570 1 45.1041 19.7825 3.9565
4571 1 46.6867 21.3651 5.5391
4572 1 45.1041 19.7825 7.1217
4573 1 46.6867 21.3651 8.7043
4574 1 45.1041 19.7825 10.2869
4575 1 46.6867 21.3651 11.8695
4576 1 45.1041 19.7825 13.4521
4577 1 46.6867 21.3651 15.0347
4578 1 45.1041 19.7825 16.6173
4579 1 46.6867 21.3651 18.1999
4580 1 45.1041 19.7825 19.7825
4581 1 46.6867 21.3651 21.3651
4582 1 45.1041 19.7825 22.9477
4583 1 46.6867 21.3651 24.5303
4584 1 45.1041 19.7825 26.1129
4585 1 46.6867 21.3651 27.6955
4586 1 45.1041 19.7825 29.2781
4587 1 46.6867 21.3651 30.8607
4588 1 45.1041 19.7825 32.4433
4589 1 46.6867 21.3651 34.0259
4590 1 45.1041 19.7825 35.6085
4591 1 46.6867 21.3651 37.1911
4592 1 45.1041 19.7825 38.7737
4593 1 46.6867 21.3651 40.3563
4594 1 45.1041 19.7825 41.9389
4595 1 46.6867 21.3651 43.5215
4596 1 45.1041 19.7825 45.1041
4597 1 46.6867 21.3651 46.6867
4598 1 45.1041 19.7825 48.2693
4599 1 46.6867 21.3651 49.8519
4600 1 45.1041 22.9477 0.7913
4601 1 46.6867 24.5303 2.3739
4602 1 45.1041 22.9477 3.9565
4603 1 46.6867 24.5303 5.5391
4604 1 45.1041 22.9477 7.1217
4605 1 46.6867 24.5303 8.7043
4606 1 45.1041 22.9477 10.2869
4607 1 46.6867 24.5303 11.8695
4608 1 45.1041 22.9477 13.4521
4609 1 46.6867 24.5303 15.0347
4610 1 45.1041 22.9477 16.6173
4611 1 46.6867 24.5303 18.1999
4612 1 45.1041 22.9477 19.7825
4613 1 46.6867 24.5303 21.3651
4614 1 45.1041 22.9477 22.9477
4615 1 46.6867 24.5303 24.5303
4616 1 45.1041 22.9477 26.1129
4617 1 46.6867 24.5303 27.6955
4618 1 45.1041 22.9477 29.2781
4619 1 46.6867 24.5303 30.8607
4620 1 45.1041 22.9477 32.4433
4621 1 46.6867 24.5303 34.0259
4622 1 45.1041 22.9477 35.6085
4623 1 46.6867 24.5303 37.1911
4624 1 45.1041 22.9477 38.7737
4625 1 46.6867 24.5303 40.3563
4626 1 45.1041 22.9477 41.9389
4627 1 46.6867 24.5303 43.5215
4628 1 45.1041 22.9477 45.1041
4629 1 46.6867 24.5303 46.6867
4630 1 45.1041 22.9477 48.2693
4631 1 46.6867 24.5303 49.8519
4632 1 45.1041 26.1129 0.7913
4633 1 46.6867 27.6955 2.3739
4634 1 45.1041 26.1129 3.9565
4635 1 46.6867 27.6955 5.5391
4636 1 45.1041 26.1129 7.1217
4637 1 46.6867 27.6955 8.7043
4638 1 45.1041 26.1129 10.2869
4639 1 46.6867 27.6955 11.8695
4640 1 45.1041 26.1129 13.4521
4641 1 46.6867 27.6955 15.0347
4642 1 45.1041 26.1129 16.6173
4643 1 46.6867 27.6955 18.1999
4644 1 45.1041 26.1129 19.7825
4645 1 46.6867 27.6955 21.3651
4646 1 45.1041 26.1129 22.9477
4647 1 46.6867 27.6955 24.5303
4648 1 45.1041 26.1129 26.1129
4649 1 46.6867 27.6955 27.6955
4650 1 45.1041 26.1129 29.2781
4651 1 46.6867 27.6955 30.8607
4652 1 45.1041 26.1129 32.4433
4653 1 46.6867 27.6955 34.0259
4654 1 45.1041 26.1129 35.6085
4655 1 46.6867 27.6955 37.1911
4656 1 45.1041 26.1129 38.7737
4657 1 46.6867 27.6955 40.3563
4658 1 45.1041 26.1129 41.9389
4659 1 46.6867 27.6955 43.5215
4660 1 45.1041 26.1129 45.1041
4661 1 46.6867 27.6955 46.6867
4662 1 45.1041 26.1129 48.2693
4663 1 46.6867 27.6955 49.8519
4664 1 45.1041 29.2781 0.7913
4665 1 46.6867 30.8607 2.3739
4666 1 45.1041 29.2781 3.9565
4667 1 46.6867 30.8607 5.5391
4668 1 45.1041 29.2781 7.1217
4669 1 46.6867 30.8607 8.7043
4670 1 45.1041 29.2781 10.2869
4671 1 46.6867 30.8607 11.8695
4672 1 45.1041 29.2781 13.4521
4673 1 46.6867 30.8607 15.0347
4674 1 45.1041 29.2781 16.6173
4675 1 46.6867 30.8607 18.1999
4676 1 45.1041 29.2781 19.7825
4677 1 46.6867 30.8607 21.3651
4678 1 45.1041 29.2781 22.9477
4679 1 46.6867 30.8607 24.5303
4680 1 45.1041 29.2781 26.1129
4681 1 46.6867 30.8607 27.6955
4682 1 45.1041 29.2781 29.2781
4683 1 46.6867 30.8607 30.8607
4684 1 45.1041 29.2781 32.4433
4685 1 46.6867 30.8607 34.0259
4686 1 45.1041 29.2781 35.6085
4687 1 46.6867 30.8607 37.1911
4688 1 45.1041 29.2781 38.7737
4689 1 46.6867 30.8607 40.3563
4690 1 45.1041 29.2781 41.9389
4691 1 46.6867 30.8607 43.5215
4692 1 45.1041 29.2781 45.1041
4693 1 46.6867 30.8607 46.6867
4694 1 45.1041 29.2781 48.2693
4695 1 46.6867 30.8607 49.8519
4696 1 45.1041 32.4433 0.7913
4697 1 46.6867 34.0259 2.3739
4698 1 45.1041 32.4433 3.9565
4699 1 46.6867 34.0259 5.5391
4700 1 45.1041 32.4433 7.1217
4701 1 46.6867 34.0259 8.7043
4702 1 45.1041 32.4433 10.2869
4703 1 46.6867 34.0259 11.8695
4704 1 45.1041 32.4433 13.4521
4705 1 46.6867 34.0259 15.0347
4706 1 45.1041 32.4433 16.6173
4707 1 46.6867 34.0259 18.1999
4708 1 45.1041 32.4433 19.7825
4709 1 46.6867 34.0259 21.3651
4710 1 45.1041 32.4433 22.9477
4711 1 46.6867 34.0259 24.5303
4712 1 45.1041 32.4433 26.1129
4713 1 46.6867 34.0259 27.6955
4714 1 45.1041 32.4433 29.2781
4715 1 46.6867 34.0259 30.8607
4716 1 45.1041 32.4433 32.4433
4717 1 46.6867 34.0259 34.0259
4718 1 45.1041 32.4433 35.6085
4719 1 46.6867 34.0259 37.1911
4720 1 45.1041 32.4433 38.7737
4721 1 46.6867 34.0259 40.3563
4722 1 45.1041 32.4433 41.9389
4723 1 46.6867 34.0259 43.5215
4724 1 45.1041 32.4433 45.1041
4725 1 46.6867 34.0259 46.6867
4726 1 45.1041 32.4433 48.2693
4727 1 46.6867 34.0259 49.8519
4728 1 45.1041 35.6085 0.7913
4729 1 46.6867 37.1911 2.3739
4730 1 45.1041 35.6085 3.9565
4731 1 46.6867 37.1911 5.5391
4732 1 45.1041 35.6085 7.1217
4733 1 46.6867 37.1911 8.7043
4734 1 45.1041 35.6085 10.2869
4735 1 46.6867 37.1911 11.8695
4736 1 45.1041 35.6085 13.4521
4737 1 46.6867 37.1911 15.0347
4738 1 45.1041 35.6085 16.6173
4739 1 46.6867 37.1911 18.1999
4740 1 45.1041 35.6085 19.7825
4741 1 46.6867 37.1911 21.3651
4742 1 45.1041 35.6085 22.9477
4743 1 46.6867 37.1911 24.5303
4744 1 45.1041 35.6085 26.1129
4745 1 46.6867 37.1911 27.6955
4746 1 45.1041 35.6085 29.2781
4747 1 46.6867 37.1911 30.8607
4748 1 45.1041 35.6085 32.4433
4749 1 46.6867 37.1911 34.0259
4750 1 45.1041 35.6085 35.6085
4751 1 46.6867 37.1911 37.1911
4752 1 45.1041 35.6085 38.7737
4753 1 46.6867 37.1911 40.3563
4754 1 45.1041 35.6085 41.9389
4755 1 46.6867 37.1911 43.5215
4756 1 45.1041 35.6085 45.1041
4757 1 46.6867 37.1911 46.6867
4758 1 45.1041 35.6085 48.2693
4759 1 46.6867 37.1911 49.8519
4760 1 45.1041 38.7737 0.7913
4761 1 46.6867 40.3563 2.3739
4762 1 45.1041 38.7737 3.9565
4763 1 46.6867 40.3563 5.5391
4764 1 45.1041 38.7737 7.1217
4765 1 46.6867 40.3563 8.7043
4766 1 45.1041 38.7737 10.2869
4767 1 46.6867 40.3563 11.8695
4768 1 45.1041 38.7737 13.4521
4769 1 46.6867 40.3563 15.0347
4770 1 45.1041 38.7737 16.6173
4771 1 46.6867 40.3563 18.1999
4772 1 45.1041 38.7737 19.7825
4773 1 46.6867 40.3563 21.3651
4774 1 45.1041 38.7737 22.9477
4775 1 46.6867 40.3563 24.5303
4776 1 45.1041 38.7737 26.1129
4777 1 46.6867 40.3563 27.6955
4778 1 45.1041 38.7737 29.2781
4779 1 46.6867 40.3563 30.8607
4780 1 45.1041 38.7737 32.4433
4781 1 46.6867 40.3563 34.0259
4782 1 45.1041 38.7737 35.6085
4783 1 46.6867 40.3563 37.1911
4784 1 45.1041 38.7737 38.7737
4785 1 46.6867 40.3563 40.3563
4786 1 45.1041 38.7737 41.9389
4787 1 46.6867 40.3563 43.5215
4788 1 45.1041 38.7737 45.1041
4789 1 46.6867 40.3563 46.6867
4790 1 45.1041 38.7737 48.2693
4791 1 46.6867 40.3563 49.8519
4792 1 45.1041 41.9389 0.7913
4793 1 46.6867 43.5215 2.3739
4794 1 45.1041 41.9389 3.9565
4795 1 46.6867 43.5215 5.5391
4796 1 45.1041 41.9389 7.1217
4797 1 46.6867 43.5215 8.7043
4798 1 45.1041 41.9389 10.2869
4799 1 46.6867 43.5215 11.8695
4800 1 45.1041 41.9389 13.4521
4801 1 46.6867 43.5215 15.0347
4802 1 45.1041 41.9389 16.6173
4803 1 46.6867 43.5215 18.1999
4804 1 45.1041 41.9389 19.7825
4805 1 46.6867 43.5215 21.3651
4806 1 45.1041 41.9389 22.9477
4807 1 46.6867 43.5215 24.5303
4808 1 45.1041 41.9389 26.1129
4809 1 46.6867 43.5215 27.6955
4810 1 45.1041 41.9389 29.2781
4811 1 46.6867 43.5215 30.8607
4812 1 45.1041 41.9389 32.4433
4813 1 46.6867 43.5215 34.0259
4814 1 45.1041 41.9389 35.6085
4815 1 46.6867 43.5215 37.1911
4816 1 45.1041 41.9389 38.7737
4817 1 46.6867 43.5215 40.3563
4818 1 45.1041 41.9389 41.9389
4819 1 46.6867 43.5215 43.5215
4820 1 45.1041 41.9389 45.1041
4821 1 46.6867 43.5215 46.6867
4822 1 45.1041 41.9389 48.2693
4823 1 46.6867 43.5215 49.8519
4824 1 45.1041 45.1041 0.7913
4825 1 46.6867 46.6867 2.3739
4826 1 45.1041 45.1041 3.9565
4827 1 46.6867 46.6867 5.5391
4828 1 45.1041 45.1041 7.1217
4829 1 46.6867 46.6867 8.7043
4830 1 45.1041 45.1041 10.2869
4831 1 46.6867 46.6867 11.8695
4832 1 45.1041 45.1041 13.4521
4833 1 46.6867 46.6867 15.0347
4834 1 45.1041 45.1041 16.6173
4835 1 46.6867 46.6867 18.1999
4836 1 45.1041 45.1041 19.7825
4837 1 46.6867 46.6867 21.3651
4838 1 45.1041 45.1041 22.9477
4839 1 46.6867 46.6867 24.5303
4840 1 45.1041 45.1041 26.1129
4841 1 46.6867 46.6867 27.6955
4842 1 45.1041 45.1041 29.2781
4843 1 46.6867 46.6867 30.8607
4844 1 45.1041 45.1041 32.4433
4845 1 46.6867 46.6867 34.0259
4846 1 45.1041 45.1041 35.6085
4847 1 46.6867 46.6867 37.1911
4848 1 45.1041 45.1041 38.7737
4849 1 46.6867 46.6867 40.3563
4850 1 45.1041 45.1041 41.9389
4851 1 46.6867 46.6867 43.5215
4852 1 45.1041 45.1041 45.1041
4853 1 46.6867 46.6867 46.6867
4854 1 45.1041 45.1041 48.2693
4855 1 46.6867 46.6867 49.8519
4856 1 45.1041 48.2693 0.7913
4857 1 46.6867 49.8519 2.3739
4858 1 45.1041 48.2693 3.9565
4859 1 46.6867 49.8519 5.5391
4860 1 45.1041 48.2693 7.1217
4861 1 46.6867 49.8519 8.7043
4862 1 45.1041 48.2693 10.2869
4863 1 46.6867 49.8519 11.8695
4864 1 45.1041 48.2693 13.4521
4865 1 46.6867 49.8519 15.0347
4866 1 45.1041 48.2693 16.6173
4867 1 46.6867 49.8519 18.1999
4868 1 45.1041 48.2693 19.7825
4869 1 46.6867 49.8519 21.3651
4870 1 45.1041 48.2693 22.9477
4871 1 46.6867 49.8519 24.5303
4872 1 45.1041 48.2693 26.1129
4873 1 46.6867 49.8519 27.6955
4874 1 45.1041 48.2693 29.2781
4875 1 46.6867 49.8519 30.8607
4876 1 45.1041 48.2693 32.4433
4877 1 46.6867 49.8519 34.0259
4878 1 45.1041 48.2693 35.6085
4879 1 46.6867 49.8519 37.1911
4880 1 45.1041 48.2693 38.7737
4881 1 46.6867 49.8519 40.3563
4882 1 45.1041 48.2693 41.9389
4883 1 46.6867 49.8519 43.5215
4884 1 45.1041 48.2693 45.1041
4885 1 46.6867 49.8519 46.6867
4886 1 45.1041 48.2693 48.2693
4887 1 46.6867 49.8519 49.8519
4888 1 48.2693 0.7913 0.7913
4889 1 49.8519 2.3739 2.3739
4890 1 48.2693 0.7913 3.9565
4891 1 49.8519 2.3739 5.5391
4892 1 48.2693 0.7913 7.1217
4893 1 49.8519 2.3739 8.7043
4894 1 48.2693 0.7913 10.2869
4895 1 49.8519 2.3739 11.8695
4896 1 48.2693 0.7913 13.4521
4897 1 49.8519 2.3739 15.0347
4898 1 48.2693 0.7913 16.6173
4899 1 49.8519 2.3739 18.1999
4900 1 48.2693 0.7913 19.7825
4901 1 49.8519 2.3739 21.3651
4902 1 48.2693 0.7913 22.9477
4903 1 49.8519 2.3739 24.5303
4904 1 48.2693 0.7913 26.1129
4905 1 49.8519 2.3739 27.6955
4906 1 48.2693 0.7913 29.2781
4907 1 49.8519 2.3739 30.8607
4908 1 48.2693 0.7913 32.4433
4909 1 49.8519 2.3739 34.0259
4910 1 48.2693 0.7913 35.6085
4911 1 49.8519 2.3739 37.1911
4912 1 48.2693 0.7913 38.7737
4913 1 49.8519 2.3739 40.3563
4914 1 48.2693 0.7913 41.9389
4915 1 49.8519 2.3739 43.5215
4916 1 48.2693 0.7913 45.1041
4917 1 49.8519 2.3739 46.6867
4918 1 48.2693 0.7913 48.2693
4919 1 49.8519 2.3739 49.8519
4920 1 48.2693 3.9565 0.7913
4921 1 49.8519 5.5391 2.3739
4922 1 48.2693 3.9565 3.9565
4923 1 49.8519 5.5391 5.5391
4924 1 48.2693 3.9565 7.1217
4925 1 49.8519 5.5391 8.7043
4926 1 48.2693 3.9565 10.2869
4927 1 49.8519 5.5391 11.8695
4928 1 48.2693 3.9565 13.4521
4929 1 49.8519 5.5391 15.0347
4930 1 48.2693 3.9565 16.6173
4931 1 49.8519 5.5391 18.1999
4932 1 48.2693 3.9565 19.7825
4933 1 49.8519 5.5391 21.3651
4934 1 48.2693 3.9565 22.9477
4935 1 49.8519 5.5391 24.5303
4936 1 48.2693 3.9565 26.1129
4937 1 49.8519 5.5391 27.6955
4938 1 48.2693 3.9565 29.2781
4939 1 49.8519 5.5391 30.8607
4940 1 48.2693 3.9565 32.4433
4941 1 49.8519 5.5391 34.0259
4942 1 48.2693 3.9565 35.6085
4943 1 49.8519 5.5391 37.1911
4944 1 48.2693 3.9565 38.7737
4945 1 49.8519 5.5391 40.3563
4946 1 48.2693 3.9565 41.9389
4947 1 49.8519 5.5391 43.5215
4948 1 48.2693 3.9565 45.1041
4949 1 49.8519 5.5391 46.6867
4950 1 48.2693 3.9565 48.2693
4951 1 49.8519 5.5391 49.8519
4952 1 48.2693 7.1217 0.7913
4953 1 49.8519 8.7043 2.3739
4954 1 48.2693 7.1217 3.9565
4955 1 49.8519 8.7043 5.5391
4956 1 48.2693 7.1217 7.1217
4957 1 49.8519 8.7043 8.7043
4958 1 48.2693 7.1217 10.2869
4959 1 49.8519 8.7043 11.8695
4960 1 48.2693 7.1217 13.4521
4961 1 49.8519 8.7043 15.0347
4962 1 48.2693 7.1217 16.6173
4963 1 49.8519 8.7043 18.1999
4964 1 48.2693 7.1217 19.7825
4965 1 49.8519 8.7043 21.3651
4966 1 48.2693 7.1217 22.9477
4967 1 49.8519 8.7043 24.5303
4968 1 48.2693 7.1217 26.1129
4969 1 49.8519 8.7043 27.6955
4970 1 48.2693 7.1217 29.2781
4971 1 49.8519 8.7043 30.8607
4972 1 48.2693 7.1217 32.4433
4973 1 49.8519 8.7043 34.0259
4974 1 48.2693 7.1217 35.6085
4975 1 49.8519 8.7043 37.1911
4976 1 48.2693 7.1217 38.7737
4977 1 49.8519 8.7043 40.3563
4978 1 48.2693 7.1217 41.9389
4979 1 49.8519 8.7043 43.5215
4980 1 48.2693 7.1217 45.1041
4981 1 49.8519 8.7043 46.6867
4982 1 48.2693 7.1217 48.2693
4983 1 49.8519 8.7043 49.8519
4984 1 48.2693 10.2869 0.7913
4985 1 49.8519 11.8695 2.3739
4986 1 48.2693 10.2869 3.9565
4987 1 49.8519 11.8695 5.5391
4988 1 48.2693 10.2869 7.1217
4989 1 49.8519 11.8695 8.7043
4990 1 48.2693 10.2869 10.2869
4991 1 49.8519 11.8695 11.8695
4992 1 48.2693 10.2869 13.4521
4993 1 49.8519 11.8695 15.0347
4994 1 48.2693 10.2869 16.6173
4995 1 49.8519 11.8695 18.1999
4996 1 48.2693 10.2869 19.7825
4997 1 49.8519 11.8695 21.3651
4998 1 48.2693 10.2869 22.9477
4999 1 49.8519 11.8695 24.5303
5000 1 48.2693 10.2869 26.1129
5001 1 49.8519 11.8695 27.6955
5002 1 48.2693 10.2869 29.2781
5003 1 49.8519 11.8695 30.8607
5004 1 48.2693 10.2869 32.4433
5005 1 49.8519 11.8695 34.0259
5006 1 48.2693 10.2869 35.6085
5007 1 49.8519 11.8695 37.1911
5008 1 48.2693 10.2869 38.7737
5009 1 49.8519 11.8695 40.3563
5010 1 48.2693 10.2869 41.9389
5011 1 49.8519 11.8695 43.5215
5012 1 48.2693 10.2869 45.1041
5013 1 49.8519 11.8695 46.6867
5014 1 48.2693 10.2869 48.2693
5015 1 49.8519 11.8695 49.8519
5016 1 48.2693 13.4521 0.7913
5017 1 49.8519 15.0347 2.3739
5018 1 48.2693 13.4521 3.9565
5019 1 49.8519 15.0347 5.5391
5020 1 48.2693 13.4521 7.1217
5021 1 49.8519 15.0347 8.7043
5022 1 48.2693 13.4521 10.2869
5023 1 49.8519 15.0347 11.8695
5024 1 48.2693 13.4521 13.4521
5025 1 49.8519 15.0347 15.0347
5026 1 48.2693 13.4521 16.6173
5027 1 49.8519 15.0347 18.1999
5028 1 48.2693 13.4521 19.7825
5029 1 49.8519 15.0347 21.3651
5030 1 48.2693 13.4521 22.9477
5031 1 49.8519 15.0347 24.5303
5032 1 48.2693 13.4521 26.1129
5033 1 49.8519 15.0347 27.6955
5034 1 48.2693 13.4521 29.2781
5035 1 49.8519 15.0347 30.8607
5036 1 48.2693 13.4521 32.4433
5037 1 49.8519 15.0347 34.0259
5038 1 48.2693 13.4521 35.6085
5039 1 49.8519 15.0347 37.1911
5040 1 48.2693 13.4521 38.7737
5041 1 49.8519 15.0347 40.3563
5042 1 48.2693 13.4521 41.9389
5043 1 49.8519 15.0347 43.5215
5044 1 48.2693 13.4521 45.1041
5045 1 49.8519 15.0347 46.6867
5046 1 48.2693 13.4521 48.2693
5047 1 49.8519 15.0347 49.8519
5048 1 48.2693 16.6173 0.7913
5049 1 49.8519 18.1999 2.3739
5050 1 48.2693 16.6173 3.9565
5051 1 49.8519 18.1999 5.5391
5052 1 48.2693 16.6173 7.1217
5053 1 49.8519 18.1999 8.7043
5054 1 48.2693 16.6173 10.2869
5055 1 49.8519 18.1999 11.8695
5056 1 48.2693 16.6173 13.4521
5057 1 49.8519 18.1999 15.0347
5058 1 48.2693 16.6173 16.6173
5059 1 49.8519 18.1999 18.1999
5060 1 48.2693 16.6173 19.7825
5061 1 49.8519 18.1999 21.3651
5062 1 48.2693 16.6173 22.9477
5063 1 49.8519 18.1999 24.5303
5064 1 48.2693 16.6173 26.1129
5065 1 49.8519 18.1999 27.6955
5066 1 48.2693 16.6173 29.2781
5067 1 49.8519 18.1999 30.8607
5068 1 48.2693 16.6173 32.4433
5069 1 49.8519 18.1999 34.0259
5070 1 48.2693 16.6173 35.6085
5071 1 49.8519 18.1999 37.1911
5072 1 48.2693 16.6173 38.7737
5073 1 49.8519 18.1999 40.3563
5074 1 48.2693 16.6173 41.9389
5075 1 49.8519 18.1999 43.5215
5076 1 48.2693 16.6173 45.1041
5077 1 49.8519 18.1999 46.6867
5078 1 48.2693 16.6173 48.2693
5079 1 49.8519 18.1999 49.8519
5080 1 48.2693 19.7825 0.7913
5081 1 49.8519 21.3651 2.3739
5082 1 48.2693 19.7825 3.9565
5083 1 49.8519 21.3651 5.5391
5084 1 48.2693 19.7825 7.1217
5085 1 49.8519 21.3651 8.7043
5086 1 48.2693 19.7825 10.2869
5087 1 49.8519 21.3651 11.8695
5088 1 48.2693 19.7825 13.4521
5089 1 49.8519 21.3651 15.0347
5090 1 48.2693 19.7825 16.6173
5091 1 49.8519 21.3651 18.1999
5092 1 48.2693 19.7825 19.7825
5093 1 49.8519 21.3651 21.3651
5094 1 48.2693 19.7825 22.9477
5095 1 49.8519 21.3651 24.5303
5096 1 48.2693 19.7825 26.1129
5097 1 49.8519 21.3651 27.6955
5098 1 48.2693 19.7825 29.2781
5099 1 49.8519 21.3651 30.8607
5100 1 48.2693 19.7825 32.4433
5101 1 49.8519 21.3651 34.0259
5102 1 48.2693 19.7825 35.6085
5103 1 49.8519 21.3651 37.1911
5104 1 48.2693 19.7825 38.7737
5105 1 49.8519 21.3651 40.3563
5106 1 48.2693 19.7825 41.9389
5107 1 49.8519 21.3651 43.5215
5108 1 48.2693 19.7825 45.1041
5109 1 49.8519 21.3651 46.6867
5110 1 48.2693 19.7825 48.2693
5111 1 49.8519 21.3651 49.8519
5112 1 48.2693 22.9477 0.7913
5113 1 49.8519 24.5303 2.3739
5114 1 48.2693 22.9477 3.9565
5115 1 49.8519 24.5303 5.5391
5116 1 48.2693 22.9477 7.1217
5117 1 49.8519 24.5303 8.7043
5118 1 48.2693 22.9477 10.2869
5119 1 49.8519 24.5303 11.8695
5120 1 48.2693 22.9477 13.4521
5121 1 49.8519 24.5303 15.0347
5122 1 48.2693 22.9477 16.6173
5123 1 49.8519 24.5303 18.1999
5124 1 48.2693 22.9477 19.7825
5125 1 49.8519 24.5303 21.3651
5126 1 48.2693 22.9477 22.9477
5127 1 49.8519 24.5303 24.5303
5128 1 48.2693 22.9477 26.1129
5129 1 49.8519 24.5303 27.6955
5130 1 48.2693 22.9477 29.2781
5131 1 49.8519 24.5303 30.8607
5132 1 48.2693 22.9477 32.4433
5133 1 49.8519 24.5303 34.0259
5134 1 48.2693 22.9477 35.6085
5135 1 49.8519 24.5303 37.1911
5136 1 48.2693 22.9477 38.7737
5137 1 49.8519 24.5303 40.3563
5138 1 48.2693 22.9477 41.9389
5139 1 49.8519 24.5303 43.5215
5140 1 48.2693 22.9477 45.1041
5141 1 49.8519 24.5303 46.6867
5142 1 48.2693 22.9477 48.2693
5143 1 49.8519 24.5303 49.8519
5144 1 48.2693 26.1129 0.7913
5145 1 49.8519 27.6955 2.3739
5146 1 48.2693 26.1129 3.9565
5147 1 49.8519 27.6955 5.5391
5148 1 48.2693 26.1129 7.1217
5149 1 49.8519 27.6955 8.7043
5150 1 48.2693 26.1129 10.2869
5151 1 49.8519 27.6955 11.8695
5152 1 48.2693 26.1129 13.4521
5153 1 49.8519 27.6955 15.0347
5154 1 48.2693 26.1129 16.6173
5155 1 49.8519 27.6955 18.1999
5156 1 48.2693 26.1129 19.7825
5157 1 49.8519 27.6955 21.3651
5158 1 48.2693 26.1129 22.9477
5159 1 49.8519 27.6955 24.5303
5160 1 48.2693 26.1129 26.1129
5161 1 49.8519 27.6955 27.6955
5162 1 48.2693 26.1129 29.2781
5163 1 49.8519 27.6955 30.8607
5164 1 48.2693 26.1129 32.4433
5165 1 49.8519 27.6955 34.0259
5166 1 48.2693 26.1129 35.6085
5167 1 49.8519 27.6955 37.1911
5168 1 48.2693 26.1129 38.7737
5169 1 49.8519 27.6955 40.3563
5170 1 48.2693 26.1129 41.9389
5171 1 49.8519 27.6955 43.5215
5172 1 48.2693 26.1129 45.1041
5173 1 49.8519 27.6955 46.6867
5174 1 48.2693 26.1129 48.2693
5175 1 49.8519 27.6955 49.8519
5176 1 48.2693 29.2781 0.7913
5177 1 49.8519 30.8607 2.3739
5178 1 48.2693 29.2781 3.9565
5179 1 49.8519 30.8607 5.5391
5180 1 48.2693 29.2781 7.1217
5181 1 49.8519 30.8607 8.7043
5182 1 48.2693 29.2781 10.2869
5183 1 49.8519 30.8607 11.8695
5184 1 48.2693 29.2781 13.4521
5185 1 49.8519 30.8607 15.0347
5186 1 48.2693 29.2781 16.6173
5187 1 49.8519 30.8607 18.1999
5188 1 48.2693 29.2781 19.7825
5189 1 49.8519 30.8607 21.3651
5190 1 48.2693 29.2781 22.9477
5191 1 49.8519 30.8607 24.5303
5192 1 48.2693 29.2781 26.1129
5193 1 49.8519 30.8607 27.6955
5194 1 48.2693 29.2781 29.2781
5195 1 49.8519 30.8607 30.8607
5196 1 48.2693 29.2781 32.4433
5197 1 49.8519 30.8607 34.0259
5198 1 48.2693 29.2781 35.6085
5199 1 49.8519 30.8607 37.1911
5200 1 48.2693 29.2781 38.7737
5201 1 49.8519 30.8607 40.3563
5202 1 48.2693 29.2781 41.9389
5203 1 49.8519 30.8607 43.5215
5204 1 48.2693 29.2781 45.1041
5205 1 49.8519 30.8607 46.6867
5206 1 48.2693 29.2781 48.2693
5207 1 49.8519 30.8607 49.8519
5208 1 48.2693 32.4433 0.7913
5209 1 49.8519 34.0259 2.3739
5210 1 48.2693 32.4433 3.9565
5211 1 49.8519 34.0259 5.5391
5212 1 48.2693 32.4433 7.1217
5213 1 49.8519 34.0259 8.7043
5214 1 48.2693 32.4433 10.2869
5215 1 49.8519 34.0259 11.8695
5216 1 48.2693 32.4433 13.4521
5217 1 49.8519 34.0259 15.0347
5218 1 48.2693 32.4433 16.6173
5219 1 49.8519 34.0259 18.1999
5220 1 48.2693 32.4433 19.7825
5221 1 49.8519 34.0259 21.3651
5222 1 48.2693 32.4433 22.9477
5223 1 49.8519 34.0259 24.5303
5224 1 48.2693 32.4433 26.1129
5225 1 49.8519 34.0259 27.6955
5226 1 48.2693 32.4433 29.2781
5227 1 49.8519 34.0259 30.8607
5228 1 48.2693 32.4433 32.4433
5229 1 49.8519 34.0259 34.0259
5230 1 48.2693 32.4433 35.6085
5231 1 49.8519 34.0259 37.1911
5232 1 48.2693 32.4433 38.7737
5233 1 49.8519 34.0259 40.3563
5234 1 48.2693 32.4433 41.9389
5235 1 49.8519 34.0259 43.5215
5236 1 48.2693 32.4433 45.1041
5237 1 49.8519 34.0259 46.6867
5238 1 48.2693 32.4433 48.2693
5239 1 49.8519 34.0259 49.8519
5240 1 48.2693 35.6085 0.7913
5241 1 49.8519 37.1911 2.3739
5242 1 48.2693 35.6085 3.9565
5243 1 49.8519 37.1911 5.5391
5244 1 48.2693 35.6085 7.1217
5245 1 49.8519 37.1911 8.7043
5246 1 48.2693 35.6085 10.2869
5247 1 49.8519 37.1911 11.8695
5248 1 48.2693 35.6085 13.4521
5249 1 49.8519 37.1911 15.0347
5250 1 48.2693 35.6085 16.6173
5251 1 49.8519 37.1911 18.1999
5252 1 48.2693 35.6085 19.7825
5253 1 49.8519 37.1911 21.3651
5254 1 48.2693 35.6085 22.9477
5255 1 49.8519 37.1911 24.5303
5256 1 48.2693 35.6085 26.1129
5257 1 49.8519 37.1911 27.6955
5258 1 48.2693 35.6085 29.2781
5259 1 49.8519 37.1911 30.8607
5260 1 48.2693 35.6085 32.4433
5261 1 49.8519 37.1911 34.0259
5262 1 48.2693 35.6085 35.6085
5263 1 49.8519 37.1911 37.1911
5264 1 48.2693 35.6085 38.7737
5265 1 49.8519 37.1911 40.3563
5266 1 48.2693 35.6085 41.9389
5267 1 49.8519 37.1911 43.5215
5268 1 48.2693 35.6085 45.1041
5269 1 49.8519 37.1911 46.6867
5270 1 48.2693 35.6085 48.2693
5271 1 49.8519 37.1911 49.8519
5272 1 48.2693 38.7737 0.7913
5273 1 49.8519 40.3563 2.3739
5274 1 48.2693 38.7737 3.9565
5275 1 49.8519 40.3563 5.5391
5276 1 48.2693 38.7737 7.1217
5277 1 49.8519 40.3563 8.7043
5278 1 48.2693 38.7737 10.2869
5279 1 49.8519 40.3563 11.8695
5280 1 48.2693 38.7737 13.4521
5281 1 49.8519 40.3563 15.0347
5282 1 48.2693 38.7737 16.6173
5283 1 49.8519 40.3563 18.1999
5284 1 48.2693 38.7737 19.7825
5285 1 49.8519 40.3563 21.3651
5286 1 48.2693 38.7737 22.9477
5287 1 49.8519 40.3563 24.5303
5288 1 48.2693 38.7737 26.1129
5289 1 49.8519 40.3563 27.6955
5290 1 48.2693 38.7737 29.2781
5291 1 49.8519 40.3563 30.8607
5292 1 48.2693 38.7737 32.4433
5293 1 49.8519 40.3563 34.0259
5294 1 48.2693 38.7737 35.6085
5295 1 49.8519 40.3563 37.1911
5296 1 48.2693 38.7737 38.7737
5297 1 49.8519 40.3563 40.3563
5298 1 48.2693 38.7737 41.9389
5299 1 49.8519 40.3563 43.5215
5300 1 48.2693 38.7737 45.1041
5301 1 49.8519 40.3563 46.6867
5302 1 48.2693 38.7737 48.2693
5303 1 49.8519 40.3563 49.8519
5304 1 48.2693 41.9389 0.7913
5305 1 49.8519 43.5215 2.3739
5306 1 48.2693 41.9389 3.9565
5307 1 49.8519 43.5215 5.5391
5308 1 48.2693 41.9389 7.1217
5309 1 49.8519 43.5215 8.7043
5310 1 48.2693 41.9389 10.2869
5311 1 49.8519 43.5215 11.8695
5312 1 48.2693 41.9389 13.4521
5313 1 49.8519 43.5215 15.0347
5314 1 48.2693 41.9389 16.6173
5315 1 49.8519 43.5215 18.1999
5316 1 48.2693 41.9389 19.7825
5317 1 49.8519 43.5215 21.3651
5318 1 48.2693 41.9389 22.9477
5319 1 49.8519 43.5215 24.5303
5320 1 48.2693 41.9389 26.1129
5321 1 49.8519 43.5215 27.6955
5322 1 48.2693 41.9389 29.2781
5323 1 49.8519 43.5215 30.8607
5324 1 48.2693 41.9389 32.4433
5325 1 49.8519 43.5215 34.0259
5326 1 48.2693 41.9389 35.6085
5327 1 49.8519 43.5215 37.1911
5328 1 48.2693 41.9389 38.7737
5329 1 49.8519 43.5215 40.3563
5330 1 48.2693 41.9389 41.9389
5331 1 49.8519 43.5215 43.5215
5332 1 48.2693 41.9389 45.1041
5333 1 49.8519 43.5215 46.6867
5334 1 48.2693 41.9389 48.2693
5335 1 49.8519 43.5215 49.8519
5336 1 48.2693 45.1041 0.7913
5337 1 49.8519 46.6867 2.3739
5338 1 48.2693 45.1041 3.9565
5339 1 49.8519 46.6867 5.5391
5340 1 48.2693 45.1041 7.1217
5341 1 49.8519 46.6867 8.7043
5342 1 48.2693 45.1041 10.2869
5343 1 49.8519 46.6867 11.8695
5344 1 48.2693 45.1041 13.4521
5345 1 49.8519 46.6867 15.0347
5346 1 48.2693 45.1041 16.6173
5347 1 49.8519 46.6867 18.1999
5348 1 48.2693 45.1041 19.7825
5349 1 49.8519 46.6867 21.3651
5350 1 48.2693 45.1041 22.9477
5351 1 49.8519 46.6867 24.5303
5352 1 48.2693 45.1041 26.1129
5353 1 49.8519 46.6867 27.6955
5354 1 48.2693 45.1041 29.2781
5355 1 49.8519 46.6867 30.8607
5356 1 48.2693 45.1041 32.4433
5357 1 49.8519 46.6867 34.0259
5358 1 48.2693 45.1041 35.6085
5359 1 49.8519 46.6867 37.1911
5360 1 48.2693 45.1041 38.7737
5361 1 49.8519 46.6867 40.3563
5362 1 48.2693 45.1041 41.9389
5363 1 49.8519 46.6867 43.5215
5364 1 48.2693 45.1041 45.1041
5365 1 49.8519 46.6867 46.6867
5366 1 48.2693 45.1041 48.2693
5367 1 49.8519 46.6867 49.8519
5368 1 48.2693 48.2693 0.7913
5369 1 49.8519 49.8519 2.3739
5370 1 48.2693 48.2693 3.9565
5371 1 49.8519 49.8519 5.5391
5372 1 48.2693 48.2693 7.1217
5373 1 49.8519 49.8519 8.7043
5374 1 48.2693 48.2693 10.2869
5375 1 49.8519 49.8519 11.8695
5376 1 48.2693 48.2693 13.4521
5377 1 49.8519 49.8519 15.0347
5378 1 48.2693 48.2693 16.6173
5379 1 49.8519 49.8519 18.1999
5380 1 48.2693 48.2693 19.7825
5381 1 49.8519 49.8519 21.3651
5382 1 48.2693 48.2693 22.9477
5383 1 49.8519 49.8519 24.5303
5384 1 48.2693 48.2693 26.1129
5385 1 49.8519 49.8519 27.6955
5386 1 48.2693 48.2693 29.2781
5387 1 49.8519 49.8519 30.8607
5388 1 48.2693 48.2693 32.4433
5389 1 49.8519 49.8519 34.0259
5390 1 48.2693 48.2693 35.6085
5391 1 49.8519 49.8519 37.1911
5392 1 48.2693 48.2693 38.7737
5393 1 49.8519 49.8519 40.3563
5394 1 48.2693 48.2693 41.9389
5395 1 49.8519 49.8519 43.5215
5396 1 48.2693 48.2693 45.1041
5397 1 49.8519 49.8519 46.6867
5398 1 48.2693 48.2693 48.2693
5399 1 49.8519 49.8519 49.8519
5400 1 13.4521 0.7913 0.7913
5401 1 15.0347 2.3739 2.3739
5402 1 13.4521 0.7913 3.9565
5403 1 15.0347 2.3739 5.5391
5404 1 13.4521 0.7913 7.1217
5405 1 15.0347 2.3739 8.7043
5406 1 13.4521 0.7913 10.2869
5407 1 15.0347 2.3739 11.8695
5408 1 13.4521 3.9565 0.7913
5409 1 15.0347 5.5391 2.3739
5410 1 13.4521 3.9565 3.9565
5411 1 15.0347 5.5391 5.5391
5412 1 13.4521 3.9565 7.1217
5413 1 15.0347 5.5391 8.7043
5414 1 13.4521 3.9565 10.2869
5415 1 15.0347 5.5391 11.8695
5416 1 13.4521 7.1217 0.7913
5417 1 15.0347 8.7043 2.3739
5418 1 13.4521 7.1217 3.9565
5419 1 15.0347 8.7043 5.5391
5420 1 13.4521 7.1217 7.1217
5421 1 15.0347 8.7043 8.7043
5422 1 13.4521 7.1217 10.2869
5423 1 15.0347 8.7043 11.8695
5424 1 13.4521 10.2869 0.7913
5425 1 15.0347 11.8695 2.3739
5426 1 13.4521 10.2869 3.9565
5427 1 15.0347 11.8695 5.5391
5428 1 13.4521 10.2869 7.1217
5429 1 15.0347 11.8695 8.7043
5430 1 13.4521 10.2869 10.2869
5431 1 15.0347 11.8695 11.8695
5432 1 13.4521 13.4521 0.7913
5433 1 15.0347 15.0347 2.3739
5434 1 13.4521 13.4521 3.9565
5435 1 15.0347 15.0347 5.5391
5436 1 13.4521 13.4521 7.1217
5437 1 15.0347 15.0347 8.7043
5438 1 13.4521 13.4521 10.2869
5439 1 15.0347 15.0347 11.8695
5440 1 13.4521 16.6173 0.7913
5441 1 15.0347 18.1999 2.3739
5442 1 13.4521 16.6173 3.9565
5443 1 15.0347 18.1999 5.5391
5444 1 13.4521 16.6173 7.1217
5445 1 15.0347 18.1999 8.7043
5446 1 13.4521 16.6173 10.2869
5447 1 15.0347 18.1999 11.8695
5448 1 13.4521 19.7825 0.7913
5449 1 15.0347 21.3651 2.3739
5450 1 13.4521 19.7825 3.9565
5451 1 15.0347 21.3651 5.5391
5452 1 13.4521 19.7825 7.1217
5453 1 15.0347 21.3651 8.7043
5454 1 13.4521 19.7825 10.2869
5455 1 15.0347 21.3651 11.8695
5456 1 13.4521 22.9477 0.7913
5457 1 15.0347 24.5303 2.3739
5458 1 13.4521 22.9477 3.9565
5459 1 15.0347 24.5303 5.5391
5460 1 13.4521 22.9477 7.1217
5461 1 15.0347 24.5303 8.7043
5462 1 13.4521 22.9477 10.2869
5463 1 15.0347 24.5303 11.8695
5464 1 13.4521 26.1129 0.7913
5465 1 15.0347 27.6955 2.3739
5466 1 13.4521 26.1129 3.9565
5467 1 15.0347 27.6955 5.5391
5468 1 13.4521 26.1129 7.1217
5469 1 15.0347 27.6955 8.7043
5470 1 13.4521 26.1129 10.2869
5471 1 15.0347 27.6955 11.8695
5472 1 13.4521 29.2781 0.7913
5473 1 15.0347 30.8607 2.3739
5474 1 13.4521 29.2781 3.9565
5475 1 15.0347 30.8607 5.5391
5476 1 13.4521 29.2781 7.1217
5477 1 15.0347 30.8607 8.7043
5478 1 13.4521 29.2781 10.2869
5479 1 15.0347 30.8607 11.8695
5480 1 13.4521 32.4433 0.7913
5481 1 15.0347 34.0259 2.3739
5482 1 13.4521 32.4433 3.9565
5483 1 15.0347 34.0259 5.5391
5484 1 13.4521 32.4433 7.1217
5485 1 15.0347 34.0259 8.7043
5486 1 13.4521 32.4433 10.2869
5487 1 15.0347 34.0259 11.8695
5488 1 13.4521 35.6085 0.7913
5489 1 15.0347 37.1911 2.3739
5490 1 13.4521 35.6085 3.9565
5491 1 15.0347 37.1911 5.5391
5492 1 13.4521 35.6085 7.1217
5493 1 15.0347 37.1911 8.7043
5494 1 13.4521 35.6085 10.2869
5495 1 15.0347 37.1911 11.8695
5496 1 13.4521 38.7737 0.7913
5497 1 15.0347 40.3563 2.3739
5498 1 13.4521 38.7737 3.9565
5499 1 15.0347 40.3563 5.5391
5500 1 13.4521 38.7737 7.1217
5501 1 15.0347 40.3563 8.7043
5502 1 13.4521 38.7737 10.2869
5503 1 15.0347 40.3563 11.8695
5504 1 13.4521 41.9389 0.7913
5505 1 15.0347 43.5215 2.3739
5506 1 13.4521 41.9389 3.9565
5507 1 15.0347 43.5215 5.5391
5508 1 13.4521 41.9389 7.1217
5509 1 15.0347 43.5215 8.7043
5510 1 13.4521 41.9389 10.2869
5511 1 15.0347 43.5215 11.8695
5512 1 13.4521 45.1041 0.7913
5513 1 15.0347 46.6867 2.3739
5514 1 13.4521 45.1041 3.9565
5515 1 15.0347 46.6867 5.5391
5516 1 13.4521 45.1041 7.1217
5517 1 15.0347 46.6867 8.7043
5518 1 13.4521 45.1041 10.2869
5519 1 15.0347 46.6867 11.8695
5520 1 13.4521 48.2693 0.7913
5521 1 15.0347 49.8519 2.3739
5522 1 13.4521 48.2693 3.9565
5523 1 15.0347 49.8519 5.5391
5524 1 13.4521 48.2693 7.1217
5525 1 15.0347 49.8519 8.7043
5526 1 13.4521 48.2693 10.2869
5527 1 15.0347 49.8519 11.8695
5528 1 16.6173 0.7913 0.7913
5529 1 18.1999 2.3739 2.3739
5530 1 16.6173 0.7913 3.9565
5531 1 18.1999 2.3739 5.5391
5532 1 16.6173 0.7913 7.1217
5533 1 18.1999 2.3739 8.7043
5534 1 16.6173 0.7913 10.2869
5535 1 18.1999 2.3739 11.8695
5536 1 16.6173 3.9565 0.7913
5537 1 18.1999 5.5391 2.3739
5538 1 16.6173 3.9565 3.9565
5539 1 18.1999 5.5391 5.5391
5540 1 16.6173 3.9565 7.1217
5541 1 18.1999 5.5391 8.7043
5542 1 16.6173 3.9565 10.2869
5543 1 18.1999 5.5391 11.8695
5544 1 16.6173 7.1217 0.7913
5545 1 18.1999 8.7043 2.3739
5546 1 16.6173 7.1217 3.9565
5547 1 18.1999 8.7043 5.5391
5548 1 16.6173 7.1217 7.1217
5549 1 18.1999 8.7043 8.7043
5550 1 16.6173 7.1217 10.2869
5551 1 18.1999 8.7043 11.8695
5552 1 16.6173 10.2869 0.7913
5553 1 18.1999 11.8695 2.3739
5554 1 16.6173 10.2869 3.9565
5555 1 18.1999 11.8695 5.5391
5556 1 16.6173 10.2869 7.1217
5557 1 18.1999 11.8695 8.7043
5558 1 16.6173 10.2869 10.2869
5559 1 18.1999 11.8695 11.8695
5560 1 16.6173 13.4521 0.7913
5561 1 18.1999 15.0347 2.3739
5562 1 16.6173 13.4521 3.9565
5563 1 18.1999 15.0347 5.5391
5564 1 16.6173 13.4521 7.1217
5565 1 18.1999 15.0347 8.7043
5566 1 16.6173 13.4521 10.2869
5567 1 18.1999 15.0347 11.8695
5568 1 16.6173 16.6173 0.7913
5569 1 18.1999 18.1999 2.3739
5570 1 16.6173 16.6173 3.9565
5571 1 18.1999 18.1999 5.5391
5572 1 16.6173 16.6173 7.1217
5573 1 18.1999 18.1999 8.7043
5574 1 16.6173 16.6173 10.2869
5575 1 18.1999 18.1999 11.8695
5576 1 16.6173 19.7825 0.7913
5577 1 18.1999 21.3651 2.3739
5578 1 16.6173 19.7825 3.9565
5579 1 18.1999 21.3651 5.5391
5580 1 16.6173 19.7825 7.1217
5581 1 18.1999 21.3651 8.7043
5582 1 16.6173 19.7825 10.2869
5583 1 18.1999 21.3651 11.8695
5584 1 16.6173 22.9477 0.7913
5585 1 18.1999 24.5303 2.3739
5586 1 16.6173 22.9477 3.9565
5587 1 18.1999 24.5303 5.5391
5588 1 16.6173 22.9477 7.1217
5589 1 18.1999 24.5303 8.7043
5590 1 16.6173 22.9477 10.2869
5591 1 18.1999 24.5303 11.8695
5592 1 16.6173 26.1129 0.7913
5593 1 18.1999 27.6955 2.3739
5594 1 16.6173 26.1129 3.9565
5595 1 18.1999 27.6955 5.5391
5596 1 16.6173 26.1129 7.1217
5597 1 18.1999 27.6955 8.7043
5598 1 16.6173 26.1129 10.2869
5599 1 18.1999 27.6955 11.8695
5600 1 16.6173 29.2781 0.7913
5601 1 18.1999 30.8607 2.3739
5602 1 16.6173 29.2781 3.9565
5603 1 18.1999 30.8607 5.5391
5604 1 16.6173 29.2781 7.1217
5605 1 18.1999 30.8607 8.7043
5606 1 16.6173 29.2781 10.2869
5607 1 18.1999 30.8607 11.8695
5608 1 16.6173 32.4433 0.7913
5609 1 18.1999 34.0259 2.3739
5610 1 16.6173 32.4433 3.9565
5611 1 18.1999 34.0259 5.5391
5612 1 16.6173 32.4433 7.1217
5613 1 18.1999 34.0259 8.7043
5614 1 16.6173 32.4433 10.2869
5615 1 18.1999 34.0259 11.8695
5616 1 16.6173 35.6085 0.7913
5617 1 18.1999 37.1911 2.3739
5618 1 16.6173 35.6085 3.9565
5619 1 18.1999 37.1911 5.5391
5620 1 16.6173 35.6085 7.1217
5621 1 18.1999 37.1911 8.7043
5622 1 16.6173 35.6085 10.2869
5623 1 18.1999 37.1911 11.8695
5624 1 16.6173 38.7737 0.7913
5625 1 18.1999 40.3563 2.3739
5626 1 16.6173 38.7737 3.9565
5627 1 18.1999 40.3563 5.5391
5628 1 16.6173 38.7737 7.1217
5629 1 18.1999 40.3563 8.7043
5630 1 16.6173 38.7737 10.2869
5631 1 18.1999 40.3563 11.8695
5632 1 16.6173 41.9389 0.7913
5633 1 18.1999 43.5215 2.3739
5634 1 16.6173 41.9389 3.9565
5635 1 18.1999 43.5215 5.5391
5636 1 16.6173 41.9389 7.1217
5637 1 18.1999 43.5215 8.7043
5638 1 16.6173 41.9389 10.2869
5639 1 18.1999 43.5215 11.8695
5640 1 16.6173 45.1041 0.7913
5641 1 18.1999 46.6867 2.3739
5642 1 16.6173 45.1041 3.9565
5643 1 18.1999 46.6867 5.5391
5644 1 16.6173 45.1041 7.1217
5645 1 18.1999 46.6867 8.7043
5646 1 16.6173 45.1041 10.2869
5647 1 18.1999 46.6867 11.8695
5648 1 16.6173 48.2693 0.7913
5649 1 18.1999 49.8519 2.3739
5650 1 16.6173 48.2693 3.9565
5651 1 18.1999 49.8519 5.5391
5652 1 16.6173 48.2693 7.1217
5653 1 18.1999 49.8519 8.7043
5654 1 16.6173 48.2693 10.2869
5655 1 18.1999 49.8519 11.8695
5656 1 19.7825 0.7913 0.7913
5657 1 21.3651 2.3739 2.3739
5658 1 19.7825 0.7913 3.9565
5659 1 21.3651 2.3739 5.5391
5660 1 19.7825 0.7913 7.1217
5661 1 21.3651 2.3739 8.7043
5662 1 19.7825 0.7913 10.2869
5663 1 21.3651 2.3739 11.8695
5664 1 19.7825 3.9565 0.7913
5665 1 21.3651 5.5391 2.3739
5666 1 19.7825 3.9565 3.9565
5667 1 21.3651 5.5391 5.5391
5668 1 19.7825 3.9565 7.1217
5669 1 21.3651 5.5391 8.7043
5670 1 19.7825 3.9565 10.2869
5671 1 21.3651 5.5391 11.8695
5672 1 19.7825 7.1217 0.7913
5673 1 21.3651 8.7043 2.3739
5674 1 19.7825 7.1217 3.9565
5675 1 21.3651 8.7043 5.5391
5676 1 19.7825 7.1217 7.1217
5677 1 21.3651 8.7043 8.7043
5678 1 19.7825 7.1217 10.2869
5679 1 21.3651 8.7043 11.8695
5680 1 19.7825 10.2869 0.7913
5681 1 21.3651 11.8695 2.3739
5682 1 19.7825 10.2869 3.9565
5683 1 21.3651 11.8695 5.5391
5684 1 19.7825 10.2869 7.1217
5685 1 21.3651 11.8695 8.7043
5686 1 19.7825 10.2869 10.2869
5687 1 21.3651 11.8695 11.8695
5688 1 19.7825 13.4521 0.7913
5689 1 21.3651 15.0347 2.3739
5690 1 19.7825 13.4521 3.9565
5691 1 21.3651 15.0347 5.5391
5692 1 19.7825 13.4521 7.1217
5693 1 21.3651 15.0347 8.7043
5694 1 19.7825 13.4521 10.2869
5695 1 21.3651 15.0347 11.8695
5696 1 19.7825 16.6173 0.7913
5697 1 21.3651 18.1999 2.3739
5698 1 19.7825 16.6173 3.9565
5699 1 21.3651 18.1999 5.5391
5700 1 19.7825 16.6173 7.1217
5701 1 21.3651 18.1999 8.7043
5702 1 19.7825 16.6173 10.2869
5703 1 21.3651 18.1999 11.8695
5704 1 19.7825 19.7825 0.7913
5705 1 21.3651 21.3651 2.3739
5706 1 19.7825 19.7825 3.9565
5707 1 21.3651 21.3651 5.5391
5708 1 19.7825 19.7825 7.1217
5709 1 21.3651 21.3651 8.7043
5710 1 19.7825 19.7825 10.2869
5711 1 21.3651 21.3651 11.8695
5712 1 19.7825 22.9477 0.7913
5713 1 21.3651 24.5303 2.3739
5714 1 19.7825 22.9477 3.9565
5715 1 21.3651 24.5303 5.5391
5716 1 19.7825 22.9477 7.1217
5717 1 21.3651 24.5303 8.7043
5718 1 19.7825 22.9477 10.2869
5719 1 21.3651 24.5303 11.8695
5720 1 19.7825 26.1129 0.7913
5721 1 21.3651 27.6955 2.3739
5722 1 19.7825 26.1129 3.9565
5723 1 21.3651 27.6955 5.5391
5724 1 19.7825 26.1129 7.1217
5725 1 21.3651 27.6955 8.7043
5726 1 19.7825 26.1129 10.2869
5727 1 21.3651 27.6955 11.8695
5728 1 19.7825 29.2781 0.7913
5729 1 21.3651 30.8607 2.3739
5730 1 19.7825 29.2781 3.9565
5731 1 21.3651 30.8607 5.5391
5732 1 19.7825 29.2781 7.1217
5733 1 21.3651 30.8607 8.7043
5734 1 19.7825 29.2781 10.2869
5735 1 21.3651 30.8607 11.8695
5736 1 19.7825 32.4433 0.7913
5737 1 21.3651 34.0259 2.3739
5738 1 19.7825 32.4433 3.9565
5739 1 21.3651 34.0259 5.5391
5740 1 19.7825 32.4433 7.1217
5741 1 21.3651 34.0259 8.7043
5742 1 19.7825 32.4433 10.2869
5743 1 21.3651 34.0259 11.8695
5744 1 19.7825 35.6085 0.7913
5745 1 21.3651 37.1911 2.3739
5746 1 19.7825 35.6085 3.9565
5747 1 21.3651 37.1911 5.5391
5748 1 19.7825 35.6085 7.1217
5749 1 21.3651 37.1911 8.7043
5750 1 19.7825 35.6085 10.2869
5751 1 21.3651 37.1911 11.8695
5752 1 19.7825 38.7737 0.7913
5753 1 21.3651 40.3563 2.3739
5754 1 19.7825 38.7737 3.9565
5755 1 21.3651 40.3563 5.5391
5756 1 19.7825 38.7737 7.1217
5757 1 21.3651 40.3563 8.7043
5758 1 19.7825 38.7737 10.2869
5759 1 21.3651 40.3563 11.8695
5760 1 19.7825 41.9389 0.7913
5761 1 21.3651 43.5215 2.3739
5762 1 19.7825 41.9389 3.9565
5763 1 21.3651 43.5215 5.5391
5764 1 19.7825 41.9389 7.1217
5765 1 21.3651 43.5215 8.7043
5766 1 19.7825 41.9389 10.2869
5767 1 21.3651 43.5215 11.8695
5768 1 19.7825 45.1041 0.7913
5769 1 21.3651 46.6867 2.3739
5770 1 19.7825 45.1041 3.9565
5771 1 21.3651 46.6867 5.5391
5772 1 19.7825 45.1041 7.1217
5773 1 21.3651 46.6867 8.7043
5774 1 19.7825 45.1041 10.2869
5775 1 21.3651 46.6867 11.8695
5776 1 19.7825 48.2693 0.7913
5777 1 21.3651 49.8519 2.3739
5778 1 19.7825 48.2693 3.9565
5779 1 21.3651 49.8519 5.5391
5780 1 19.7825 48.2693 7.1217
5781 1 21.3651 49.8519 8.7043
5782 1 19.7825 48.2693 10.2869
5783 1 21.3651 49.8519 11.8695
5784 1 22.9477 0.7913 0.7913
5785 1 24.5303 2.3739 2.3739
5786 1 22.9477 0.7913 3.9565
5787 1 24.5303 2.3739 5.5391
5788 1 22.9477 0.7913 7.1217
5789 1 24.5303 2.3739 8.7043
5790 1 22.9477 0.7913 10.2869
5791 1 24.5303 2.3739 11.8695
5792 1 22.9477 3.9565 0.7913
5793 1 24.5303 5.5391 2.3739
5794 1 22.9477 3.9565 3.9565
5795 1 24.5303 5.5391 5.5391
5796 1 22.9477 3.9565 7.1217
5797 1 24.5303 5.5391 8.7043
5798 1 22.9477 3.9565 10.2869
5799 1 24.5303 5.5391 11.8695
5800 1 22.9477 7.1217 0.7913
5801 1 24.5303 8.7043 2.3739
5802 1 22.9477 7.1217 3.9565
5803 1 24.5303 8.7043 5.5391
5804 1 22.9477 7.1217 7.1217
5805 1 24.5303 8.7043 8.7043
5806 1 22.9477 7.1217 10.2869
5807 1 24.5303 8.7043 11.8695
5808 1 22.9477 10.2869 0.7913
5809 1 24.5303 11.8695 2.3739
5810 1 22.9477 10.2869 3.9565
5811 1 24.5303 11.8695 5.5391
5812 1 22.9477 10.2869 7.1217
5813 1 24.5303 11.8695 8.7043
5814 1 22.9477 10.2869 10.2869
5815 1 24.5303 11.8695 11.8695
5816 1 22.9477 13.4521 0.7913
5817 1 24.5303 15.0347 2.3739
5818 1 22.9477 13.4521 3.9565
5819 1 24.5303 15.0347 5.5391
5820 1 22.9477 13.4521 7.1217
5821 1 24.5303 15.0347 8.7043
5822 1 22.9477 13.4521 10.2869
5823 1 24.5303 15.0347 11.8695
5824 1 22.9477 16.6173 0.7913
5825 1 24.5303 18.1999 2.3739
5826 1 22.9477 16.6173 3.9565
5827 1 24.5303 18.1999 5.5391
5828 1 22.9477 16.6173 7.1217
5829 1 24.5303 18.1999 8.7043
5830 1 22.9477 16.6173 10.2869
5831 1 24.5303 18.1999 11.8695
5832 1 22.9477 19.7825 0.7913
5833 1 24.5303 21.3651 2.3739
5834 1 22.9477 19.7825 3.9565
5835 1 24.5303 21.3651 5.5391
5836 1 22.9477 19.7825 7.1217
5837 1 24.5303 21.3651 8.7043
5838 1 22.9477 19.7825 10.2869
5839 1 24.5303 21.3651 11.8695
5840 1 22.9477 22.9477 0.7913
5841 1 24.5303 24.5303 2.3739
5842 1 22.9477 22.9477 3.9565
5843 1 24.5303 24.5303 5.5391
5844 1 22.9477 22.9477 7.1217
5845 1 24.5303 24.5303 8.7043
5846 1 22.9477 22.9477 10.2869
5847 1 24.5303 24.5303 11.8695
5848 1 22.9477 26.1129 0.7913
5849 1 24.5303 27.6955 2.3739
5850 1 22.9477 26.1129 3.9565
5851 1 24.5303 27.6955 5.5391
5852 1 22.9477 26.1129 7.1217
5853 1 24.5303 27.6955 8.7043
5854 1 22.9477 26.1129 10.2869
5855 1 24.5303 27.6955 11.8695
5856 1 22.9477 29.2781 0.7913
5857 1 24.5303 30.8607 2.3739
5858 1 22.9477 29.2781 3.9565
5859 1 24.5303 30.8607 5.5391
5860 1 22.9477 29.2781 7.1217
5861 1 24.5303 30.8607 8.7043
5862 1 22.9477 29.2781 10.2869
5863 1 24.5303 30.8607 11.8695
5864 1 22.9477 32.4433 0.7913
5865 1 24.5303 34.0259 2.3739
5866 1 22.9477 32.4433 3.9565
5867 1 24.5303 34.0259 5.5391
5868 1 22.9477 32.4433 7.1217
5869 1 24.5303 34.0259 8.7043
5870 1 22.9477 32.4433 10.2869
5871 1 24.5303 34.0259 11.8695
5872 1 22.9477 35.6085 0.7913
5873 1 24.5303 37.1911 2.3739
5874 1 22.9477 35.6085 3.9565
5875 1 24.5303 37.1911 5.5391
5876 1 22.9477 35.6085 7.1217
5877 1 24.5303 37.1911 8.7043
5878 1 22.9477 35.6085 10.2869
5879 1 24.5303 37.1911 11.8695
5880 1 22.9477 38.7737 0.7913
5881 1 24.5303 40.3563 2.3739
5882 1 22.9477 38.7737 3.9565
5883 1 24.5303 40.3563 5.5391
5884 1 22.9477 38.7737 7.1217
5885 1 24.5303 40.3563 8.7043
5886 1 22.9477 38.7737 10.2869
5887 1 24.5303 40.3563 11.8695
5888 1 22.9477 41.9389 0.7913
5889 1 24.5303 43.5215 2.3739
5890 1 22.9477 41.9389 3.9565
5891 1 24.5303 43.5215 5.5391
5892 1 22.9477 41.9389 7.1217
5893 1 24.5303 43.5215 8.7043
5894 1 22.9477 41.9389 10.2869
5895 1 24.5303 43.5215 11.8695
5896 1 22.9477 45.1041 0.7913
5897 1 24.5303 46.6867 2.3739
5898 1 22.9477 45.1041 3.9565
5899 1 24.5303 46.6867 5.5391
5900 1 22.9477 45.1041 7.1217
5901 1 24.5303 46.6867 8.7043
5902 1 22.9477 45.1041 10.2869
5903 1 24.5303 46.6867 11.8695
5904 1 22.9477 48.2693 0.7913
5905 1 24.5303 49.8519 2.3739
5906 1 22.9477 48.2693 3.9565
5907 1 24.5303 49.8519 5.5391
5908 1 22.9477 48.2693 7.1217
5909 1 24.5303 49.8519 8.7043
5910 1 22.9477 48.2693 10.2869
5911 1 24.5303 49.8519 11.8695
5912 1 26.1129 0.7913 0.7913
5913 1 27.6955 2.3739 2.3739
5914 1 26.1129 0.7913 3.9565
5915 1 27.6955 2.3739 5.5391
5916 1 26.1129 0.7913 7.1217
5917 1 27.6955 2.3739 8.7043
5918 1 26.1129 0.7913 10.2869
5919 1 27.6955 2.3739 11.8695
5920 1 26.1129 3.9565 0.7913
5921 1 27.6955 5.5391 2.3739
5922 1 26.1129 3.9565 3.9565
5923 1 27.6955 5.5391 5.5391
5924 1 26.1129 3.9565 7.1217
5925 1 27.6955 5.5391 8.7043
5926 1 26.1129 3.9565 10.2869
5927 1 27.6955 5.5391 11.8695
5928 1 26.1129 7.1217 0.7913
5929 1 27.6955 8.7043 2.3739
5930 1 26.1129 7.1217 3.9565
5931 1 27.6955 8.7043 5.5391
5932 1 26.1129 7.1217 7.1217
5933 1 27.6955 8.7043 8.7043
5934 1 26.1129 7.1217 10.2869
5935 1 27.6955 8.7043 11.8695
5936 1 26.1129 10.2869 0.7913
5937 1 27.6955 11.8695 2.3739
5938 1 26.1129 10.2869 3.9565
5939 1 27.6955 11.8695 5.5391
5940 1 26.1129 10.2869 7.1217
5941 1 27.6955 11.8695 8.7043
5942 1 26.1129 10.2869 10.2869
5943 1 27.6955 11.8695 11.8695
5944 1 26.1129 13.4521 0.7913
5945 1 27.6955 15.0347 2.3739
5946 1 26.1129 13.4521 3.9565
5947 1 27.6955 15.0347 5.5391
5948 1 26.1129 13.4521 7.1217
5949 1 27.6955 15.0347 8.7043
5950 1 26.1129 13.4521 10.2869
5951 1 27.6955 15.0347 11.8695
5952 1 26.1129 16.6173 0.7913
5953 1 27.6955 18.1999 2.3739
5954 1 26.1129 16.6173 3.9565
5955 1 27.6955 18.1999 5.5391
5956 1 26.1129 16.6173 7.1217
5957 1 27.6955 18.1999 8.7043
5958 1 26.1129 16.6173 10.2869
5959 1 27.6955 18.1999 11.8695
5960 1 26.1129 19.7825 0.7913
5961 1 27.6955 21.3651 2.3739
5962 1 26.1129 19.7825 3.9565
5963 1 27.6955 21.3651 5.5391
5964 1 26.1129 19.7825 7.1217
5965 1 27.6955 21.3651 8.7043
5966 1 26.1129 19.7825 10.2869
5967 1 27.6955 21.3651 11.8695
5968 1 26.1129 22.9477 0.7913
5969 1 27.6955 24.5303 2.3739
5970 1 26.1129 22.9477 3.9565
5971 1 27.6955 24.5303 5.5391
5972 1 26.1129 22.9477 7.1217
5973 1 27.6955 24.5303 8.7043
5974 1 26.1129 22.9477 10.2869
5975 1 27.6955 24.5303 11.8695
5976 1 26.1129 26.1129 0.7913
5977 1 27.6955 27.6955 2.3739
5978 1 26.1129 26.1129 3.9565
5979 1 27.6955 27.6955 5.5391
5980 1 26.1129 26.1129 7.1217
5981 1 27.6955 27.6955 8.7043
5982 1 26.1129 26.1129 10.2869
5983 1 27.6955 27.6955 11.8695
5984 1 26.1129 29.2781 0.7913
5985 1 27.6955 30.8607 2.3739
5986 1 26.1129 29.2781 3.9565
5987 1 27.6955 30.8607 5.5391
5988 1 26.1129 29.2781 7.1217
5989 1 27.6955 30.8607 8.7043
5990 1 26.1129 29.2781 10.2869
5991 1 27.6955 30.8607 11.8695
5992 1 26.1129 32.4433 0.7913
5993 1 27.6955 34.0259 2.3739
5994 1 26.1129 32.4433 3.9565
5995 1 27.6955 34.0259 5.5391
5996 1 26.1129 32.4433 7.1217
5997 1 27.6955 34.0259 8.7043
5998 1 26.1129 32.4433 10.2869
5999 1 27.6955 34.0259 11.8695
6000 1 26.1129 35.6085 0.7913
6001 1 27.6955 37.1911 2.3739
6002 1 26.1129 35.6085 3.9565
6003 1 27.6955 37.1911 5.5391
6004 1 26.1129 35.6085 7.1217
6005 1 27.6955 37.1911 8.7043
6006 1 26.1129 35.6085 10.2869
6007 1 27.6955 37.1911 11.8695
6008 1 26.1129 38.7737 0.7913
6009 1 27.6955 40.3563 2.3739
6010 1 26.1129 38.7737 3.9565
6011 1 27.6955 40.3563 5.5391
6012 1 26.1129 38.7737 7.1217
6013 1 27.6955 40.3563 8.7043
6014 1 26.1129 38.7737 10.2869
6015 1 27.6955 40.3563 11.8695
6016 1 26.1129 41.9389 0.7913
6017 1 27.6955 43.5215 2.3739
6018 1 26.1129 41.9389 3.9565
6019 1 27.6955 43.5215 5.5391
6020 1 26.1129 41.9389 7.1217
6021 1 27.6955 43.5215 8.7043
6022 1 26.1129 41.9389 10.2869
6023 1 27.6955 43.5215 11.8695
6024 1 26.1129 45.1041 0.7913
6025 1 27.6955 46.6867 2.3739
6026 1 26.1129 45.1041 3.9565
6027 1 27.6955 46.6867 5.5391
6028 1 26.1129 45.1041 7.1217
6029 1 27.6955 46.6867 8.7043
6030 1 26.1129 45.1041 10.2869
6031 1 27.6955 46.6867 11.8695
6032 1 26.1129 48.2693 0.7913
6033 1 27.6955 49.8519 2.3739
6034 1 26.1129 48.2693 3.9565
6035 1 27.6955 49.8519 5.5391
6036 1 26.1129 48.2693 7.1217
6037 1 27.6955 49.8519 8.7043
6038 1 26.1129 48.2693 10.2869
6039 1 27.6955 49.8519 11.8695
6040 1 29.2781 0.7913 0.7913
6041 1 30.8607 2.3739 2.3739
6042 1 29.2781 0.7913 3.9565
6043 1 30.8607 2.3739 5.5391
6044 1 29.2781 0.7913 7.1217
6045 1 30.8607 2.3739 8.7043
6046 1 29.2781 0.7913 10.2869
6047 1 30.8607 2.3739 11.8695
6048 1 29.2781 3.9565 0.7913
6049 1 30.8607 5.5391 2.3739
6050 1 29.2781 3.9565 3.9565
6051 1 30.8607 5.5391 5.5391
6052 1 29.2781 3.9565 7.1217
6053 1 30.8607 5.5391 8.7043
6054 1 29.2781 3.9565 10.2869
6055 1 30.8607 5.5391 11.8695
6056 1 29.2781 7.1217 0.7913
6057 1 30.8607 8.7043 2.3739
6058 1 29.2781 7.1217 3.9565
6059 1 30.8607 8.7043 5.5391
6060 1 29.2781 7.1217 7.1217
6061 1 30.8607 8.7043 8.7043
6062 1 29.2781 7.1217 10.2869
6063 1 30.8607 8.7043 11.8695
6064 1 29.2781 10.2869 0.7913
6065 1 30.8607 11.8695 2.3739
6066 1 29.2781 10.2869 3.9565
6067 1 30.8607 11.8695 5.5391
6068 1 29.2781 10.2869 7.1217
6069 1 30.8607 11.8695 8.7043
6070 1 29.2781 10.2869 10.2869
6071 1 30.8607 11.8695 11.8695
6072 1 29.2781 13.4521 0.7913
6073 1 30.8607 15.0347 2.3739
6074 1 29.2781 13.4521 3.9565
6075 1 30.8607 15.0347 5.5391
6076 1 29.2781 13.4521 7.1217
6077 1 30.8607 15.0347 8.7043
6078 1 29.2781 13.4521 10.2869
6079 1 30.8607 15.0347 11.8695
6080 1 29.2781 16.6173 0.7913
6081 1 30.8607 18.1999 2.3739
6082 1 29.2781 16.6173 3.9565
6083 1 30.8607 18.1999 5.5391
6084 1 29.2781 16.6173 7.1217
6085 1 30.8607 18.1999 8.7043
6086 1 29.2781 16.6173 10.2869
6087 1 30.8607 18.1999 11.8695
6088 1 29.2781 19.7825 0.7913
6089 1 30.8607 21.3651 2.3739
6090 1 29.2781 19.7825 3.9565
6091 1 30.8607 21.3651 5.5391
6092 1 29.2781 19.7825 7.1217
6093 1 30.8607 21.3651 8.7043
6094 1 29.2781 19.7825 10.2869
6095 1 30.8607 21.3651 11.8695
6096 1 29.2781 22.9477 0.7913
6097 1 30.8607 24.5303 2.3739
6098 1 29.2781 22.9477 3.9565
6099 1 30.8607 24.5303 5.5391
6100 1 29.2781 22.9477 7.1217
6101 1 30.8607 24.5303 8.7043
6102 1 29.2781 22.9477 10.2869
6103 1 30.8607 24.5303 11.8695
6104 1 29.2781 26.1129 0.7913
6105 1 30.8607 27.6955 2.3739
6106 1 29.2781 26.1129 3.9565
6107 1 30.8607 27.6955 5.5391
6108 1 29.2781 26.1129 7.1217
6109 1 30.8607 27.6955 8.7043
6110 1 29.2781 26.1129 10.2869
6111 1 30.8607 27.6955 11.8695
6112 1 29.2781 29.2781 0.7913
6113 1 30.8607 30.8607 2.3739
6114 1 29.2781 29.2781 3.9565
6115 1 30.8607 30.8607 5.5391
6116 1 29.2781 29.2781 7.1217
6117 1 30.8607 30.8607 8.7043
6118 1 29.2781 29.2781 10.2869
6119 1 30.8607 30.8607 11.8695
6120 1 29.2781 32.4433 0.7913
6121 1 30.8607 34.0259 2.3739
6122 1 29.2781 32.4433 3.9565
6123 1 30.8607 34.0259 5.5391
6124 1 29.2781 32.4433 7.1217
6125 1 30.8607 34.0259 8.7043
6126 1 29.2781 32.4433 10.2869
6127 1 30.8607 34.0259 11.8695
6128 1 29.2781 35.6085 0.7913
6129 1 30.8607 37.1911 2.3739
6130 1 29.2781 35.6085 3.9565
6131 1 30.8607 37.1911 5.5391
6132 1 29.2781 35.6085 7.1217
6133 1 30.8607 37.1911 8.7043
6134 1 29.2781 35.6085 10.2869
6135 1 30.8607 37.1911 11.8695
6136 1 29.2781 38.7737 0.7913
6137 1 30.8607 40.3563 2.3739
6138 1 29.2781 38.7737 3.9565
6139 1 30.8607 40.3563 5.5391
6140 1 29.2781 38.7737 7.1217
6141 1 30.8607 40.3563 8.7043
6142 1 29.2781 38.7737 10.2869
6143 1 30.8607 40.3563 11.8695
6144 1 29.2781 41.9389 0.7913
6145 1 30.8607 43.5215 2.3739
6146 1 29.2781 41.9389 3.9565
6147 1 30.8607 43.5215 5.5391
6148 1 29.2781 41.9389 7.1217
6149 1 30.8607 43.5215 8.7043
6150 1 29.2781 41.9389 10.2869
6151 1 30.8607 43.5215 11.8695
6152 1 29.2781 45.1041 0.7913
6153 1 30.8607 46.6867 2.3739
6154 1 29.2781 45.1041 3.9565
6155 1 30.8607 46.6867 5.5391
6156 1 29.2781 45.1041 7.1217
6157 1 30.8607 46.6867 8.7043
6158 1 29.2781 45.1041 10.2869
6159 1 30.8607 46.6867 11.8695
6160 1 29.2781 48.2693 0.7913
6161 1 30.8607 49.8519 2.3739
6162 1 29.2781 48.2693 3.9565
6163 1 30.8607 49.8519 5.5391
6164 1 29.2781 48.2693 7.1217
6165 1 30.8607 49.8519 8.7043
6166 1 29.2781 48.2693 10.2869
6167 1 30.8607 49.8519 11.8695
6168 1 32.4433 0.7913 0.7913
6169 1 34.0259 2.3739 2.3739
6170 1 32.4433 0.7913 3.9565
6171 1 34.0259 2.3739 5.5391
6172 1 32.4433 0.7913 7.1217
6173 1 34.0259 2.3739 8.7043
6174 1 32.4433 0.7913 10.2869
6175 1 34.0259 2.3739 11.8695
6176 1 32.4433 3.9565 0.7913
6177 1 34.0259 5.5391 2.3739
6178 1 32.4433 3.9565 3.9565
6179 1 34.0259 5.5391 5.5391
6180 1 32.4433 3.9565 7.1217
6181 1 34.0259 5.5391 8.7043
6182 1 32.4433 3.9565 10.2869
6183 1 34.0259 5.5391 11.8695
6184 1 32.4433 7.1217 0.7913
6185 1 34.0259 8.7043 2.3739
6186 1 32.4433 7.1217 3.9565
6187 1 34.0259 8.7043 5.5391
6188 1 32.4433 7.1217 7.1217
6189 1 34.0259 8.7043 8.7043
6190 1 32.4433 7.1217 10.2869
6191 1 34.0259 8.7043 11.8695
6192 1 32.4433 10.2869 0.7913
6193 1 34.0259 11.8695 2.3739
6194 1 32.4433 10.2869 3.9565
6195 1 34.0259 11.8695 5.5391
6196 1 32.4433 10.2869 7.1217
6197 1 34.0259 11.8695 8.7043
6198 1 32.4433 10.2869 10.2869
6199 1 34.0259 11.8695 11.8695
6200 1 32.4433 13.4521 0.7913
6201 1 34.0259 15.0347 2.3739
6202 1 32.4433 13.4521 3.9565
6203 1 34.0259 15.0347 5.5391
6204 1 32.4433 13.4521 7.1217
6205 1 34.0259 15.0347 8.7043
6206 1 32.4433 13.4521 10.2869
6207 1 34.0259 15.0347 11.8695
6208 1 32.4433 16.6173 0.7913
6209 1 34.0259 18.1999 2.3739
6210 1 32.4433 16.6173 3.9565
6211 1 34.0259 18.1999 5.5391
6212 1 32.4433 16.6173 7.1217
6213 1 34.0259 18.1999 8.7043
6214 1 32.4433 16.6173 10.2869
6215 1 34.0259 18.1999 11.8695
6216 1 32.4433 19.7825 0.7913
6217 1 34.0259 21.3651 2.3739
6218 1 32.4433 19.7825 3.9565
6219 1 34.0259 21.3651 5.5391
6220 1 32.4433 19.7825 7.1217
6221 1 34.0259 21.3651 8.7043
6222 1 32.4433 19.7825 10.2869
6223 1 34.0259 21.3651 11.8695
6224 1 32.4433 22.9477 0.7913
6225 1 34.0259 24.5303 2.3739
6226 1 32.4433 22.9477 3.9565
6227 1 34.0259 24.5303 5.5391
6228 1 32.4433 22.9477 7.1217
6229 1 34.0259 24.5303 8.7043
6230 1 32.4433 22.9477 10.2869
6231 1 34.0259 24.5303 11.8695
6232 1 32.4433 26.1129 0.7913
6233 1 34.0259 27.6955 2.3739
6234 1 32.4433 26.1129 3.9565
6235 1 34.0259 27.6955 5.5391
6236 1 32.4433 26.1129 7.1217
6237 1 34.0259 27.6955 8.7043
6238 1 32.4433 26.1129 10.2869
6239 1 34.0259 27.6955 11.8695
6240 1 32.4433 29.2781 0.7913
6241 1 34.0259 30.8607 2.3739
6242 1 32.4433 29.2781 3.9565
6243 1 34.0259 30.8607 5.5391
6244 1 32.4433 29.2781 7.1217
6245 1 34.0259 30.8607 8.7043
6246 1 32.4433 29.2781 10.2869
6247 1 34.0259 30.8607 11.8695
6248 1 32.4433 32.4433 0.7913
6249 1 34.0259 34.0259 2.3739
6250 1 32.4433 32.4433 3.9565
6251 1 34.0259 34.0259 5.5391
6252 1 32.4433 32.4433 7.1217
6253 1 34.0259 34.0259 8.7043
6254 1 32.4433 32.4433 10.2869
6255 1 34.0259 34.0259 11.8695
6256 1 32.4433 35.6085 0.7913
6257 1 34.0259 37.1911 2.3739
6258 1 32.4433 35.6085 3.9565
6259 1 34.0259 37.1911 5.5391
6260 1 32.4433 35.6085 7.1217
6261 1 34.0259 37.1911 8.7043
6262 1 32.4433 35.6085 10.2869
6263 1 34.0259 37.1911 11.8695
6264 1 32.4433 38.7737 0.7913
6265 1 34.0259 40.3563 2.3739
6266 1 32.4433 38.7737 3.9565
6267 1 34.0259 40.3563 5.5391
6268 1 32.4433 38.7737 7.1217
6269 1 34.0259 40.3563 8.7043
6270 1 32.4433 38.7737 10.2869
6271 1 34.0259 40.3563 11.8695
6272 1 32.4433 41.9389 0.7913
6273 1 34.0259 43.5215 2.3739
6274 1 32.4433 41.9389 3.9565
6275 1 34.0259 43.5215 5.5391
6276 1 32.4433 41.9389 7.1217
6277 1 34.0259 43.5215 8.7043
6278 1 32.4433 41.9389 10.2869
6279 1 34.0259 43.5215 11.8695
6280 1 32.4433 45.1041 0.7913
6281 1 34.0259 46.6867 2.3739
6282 1 32.4433 45.1041 3.9565
6283 1 34.0259 46.6867 5.5391
6284 1 32.4433 45.1041 7.1217
6285 1 34.0259 46.6867 8.7043
6286 1 32.4433 45.1041 10.2869
6287 1 34.0259 46.6867 11.8695
6288 1 32.4433 48.2693 0.7913
6289 1 34.0259 49.8519 2.3739
6290 1 32.4433 48.2693 3.9565
6291 1 34.0259 49.8519 5.5391
6292 1 32.4433 48.2693 7.1217
6293 1 34.0259 49.8519 8.7043
6294 1 32.4433 48.2693 10.2869
6295 1 34.0259 49.8519 11.8695
6296 1 13.4521 0.7913 35.6085
6297 1 15.0347 2.3739 37.1911
6298 1 13.4521 0.7913 38.7737
6299 1 15.0347 2.3739 40.3563
6300 1 13.4521 0.7913 41.9389
6301 1 15.0347 2.3739 43.5215
6302 1 13.4521 0.7913 45.1041
6303 1 15.0347 2.3739 46.6867
6304 1 13.4521 0.7913 48.2693
6305 1 15.0347 2.3739 49.8519
6306 1 13.4521 3.9565 35.6085
6307 1 15.0347 5.5391 37.1911
6308 1 13.4521 3.9565 38.7737
6309 1 15.0347 5.5391 40.3563
6310 1 13.4521 3.9565 41.9389
6311 1 15.0347 5.5391 43.5215
6312 1 13.4521 3.9565 45.1041
6313 1 15.0347 5.5391 46.6867
6314 1 13.4521 3.9565 48.2693
6315 1 15.0347 5.5391 49.8519
6316 1 13.4521 7.1217 35.6085
6317 1 15.0347 8.7043 37.1911
6318 1 13.4521 7.1217 38.7737
6319 1 15.0347 8.7043 40.3563
6320 1 13.4521 7.1217 41.9389
6321 1 15.0347 8.7043 43.5215
6322 1 13.4521 7.1217 45.1041
6323 1 15.0347 8.7043 46.6867
6324 1 13.4521 7.1217 48.2693
6325 1 15.0347 8.7043 49.8519
6326 1 13.4521 10.2869 35.6085
6327 1 15.0347 11.8695 37.1911
6328 1 13.4521 10.2869 38.7737
6329 1 15.0347 11.8695 40.3563
6330 1 13.4521 10.2869 41.9389
6331 1 15.0347 11.8695 43.5215
6332 1 13.4521 10.2869 45.1041
6333 1 15.0347 11.8695 46.6867
6334 1 13.4521 10.2869 48.2693
6335 1 15.0347 11.8695 49.8519
6336 1 13.4521 13.4521 35.6085
6337 1 15.0347 15.0347 37.1911
6338 1 13.4521 13.4521 38.7737
6339 1 15.0347 15.0347 40.3563
6340 1 13.4521 13.4521 41.9389
6341 1 15.0347 15.0347 43.5215
6342 1 13.4521 13.4521 45.1041
6343 1 15.0347 15.0347 46.6867
6344 1 13.4521 13.4521 48.2693
6345 1 15.0347 15.0347 49.8519
6346 1 13.4521 16.6173 35.6085
6347 1 15.0347 18.1999 37.1911
6348 1 13.4521 16.6173 38.7737
6349 1 15.0347 18.1999 40.3563
6350 1 13.4521 16.6173 41.9389
6351 1 15.0347 18.1999 43.5215
6352 1 13.4521 16.6173 45.1041
6353 1 15.0347 18.1999 46.6867
6354 1 13.4521 16.6173 48.2693
6355 1 15.0347 18.1999 49.8519
6356 1 13.4521 19.7825 35.6085
6357 1 15.0347 21.3651 37.1911
6358 1 13.4521 19.7825 38.7737
6359 1 15.0347 21.3651 40.3563
6360 1 13.4521 19.7825 41.9389
6361 1 15.0347 21.3651 43.5215
6362 1 13.4521 19.7825 45.1041
6363 1 15.0347 21.3651 46.6867
6364 1 13.4521 19.7825 48.2693
6365 1 15.0347 21.3651 49.8519
6366 1 13.4521 22.9477 35.6085
6367 1 15.0347 24.5303 37.1911
6368 1 13.4521 22.9477 38.7737
6369 1 15.0347 24.5303 40.3563
6370 1 13.4521 22.9477 41.9389
6371 1 15.0347 24.5303 43.5215
6372 1 13.4521 22.9477 45.1041
6373 1 15.0347 24.5303 46.6867
6374 1 13.4521 22.9477 48.2693
6375 1 15.0347 24.5303 49.8519
6376 1 13.4521 26.1129 35.6085
6377 1 15.0347 27.6955 37.1911
6378 1 13.4521 26.1129 38.7737
6379 1 15.0347 27.6955 40.3563
6380 1 13.4521 26.1129 41.9389
6381 1 15.0347 27.6955 43.5215
6382 1 13.4521 26.1129 45.1041
6383 1 15.0347 27.6955 46.6867
6384 1 13.4521 26.1129 48.2693
6385 1 15.0347 27.6955 49.8519
6386 1 13.4521 29.2781 35.6085
6387 1 15.0347 30.8607 37.1911
6388 1 13.4521 29.2781 38.7737
6389 1 15.0347 30.8607 40.3563
6390 1 13.4521 29.2781 41.9389
6391 1 15.0347 30.8607 43.5215
6392 1 13.4521 29.2781 45.1041
6393 1 15.0347 30.8607 46.6867
6394 1 13.4521 29.2781 48.2693
6395 1 15.0347 30.8607 49.8519
6396 1 13.4521 32.4433 35.6085
6397 1 15.0347 34.0259 37.1911
6398 1 13.4521 32.4433 38.7737
6399 1 15.0347 34.0259 40.3563
6400 1 13.4521 32.4433 41.9389
6401 1 15.0347 34.0259 43.5215
6402 1 13.4521 32.4433 45.1041
6403 1 15.0347 34.0259 46.6867
6404 1 13.4521 32.4433 48.2693
6405 1 15.0347 34.0259 49.8519
6406 1 13.4521 35.6085 35.6085
6407 1 15.0347 37.1911 37.1911
6408 1 13.4521 35.6085 38.7737
6409 1 15.0347 37.1911 40.3563
6410 1 13.4521 35.6085 41.9389
6411 1 15.0347 37.1911 43.5215
6412 1 13.4521 35.6085 45.1041
6413 1 15.0347 37.1911 46.6867
6414 1 13.4521 35.6085 48.2693
6415 1 15.0347 37.1911 49.8519
6416 1 13.4521 38.7737 35.6085
6417 1 15.0347 40.3563 37.1911
6418 1 13.4521 38.7737 38.7737
6419 1 15.0347 40.3563 40.3563
6420 1 13.4521 38.7737 41.9389
6421 1 15.0347 40.3563 43.5215
6422 1 13.4521 38.7737 45.1041
6423 1 15.0347 40.3563 46.6867
6424 1 13.4521 38.7737 48.2693
6425 1 15.0347 40.3563 49.8519
6426 1 13.4521 41.9389 35.6085
6427 1 15.0347 43.5215 37.1911
6428 1 13.4521 41.9389 38.7737
6429 1 15.0347 43.5215 40.3563
6430 1 13.4521 41.9389 41.9389
6431 1 15.0347 43.5215 43.5215
6432 1 13.4521 41.9389 45.1041
6433 1 15.0347 43.5215 46.6867
6434 1 13.4521 41.9389 48.2693
6435 1 15.0347 43.5215 49.8519
6436 1 13.4521 45.1041 35.6085
6437 1 15.0347 46.6867 37.1911
6438 1 13.4521 45.1041 38.7737
6439 1 15.0347 46.6867 40.3563
6440 1 13.4521 45.1041 41.9389
6441 1 15.0347 46.6867 43.5215
6442 1 13.4521 45.1041 45.1041
6443 1 15.0347 46.6867 46.6867
6444 1 13.4521 45.1041 48.2693
6445 1 15.0347 46.6867 49.8519
6446 1 13.4521 48.2693 35.6085
6447 1 15.0347 49.8519 37.1911
6448 1 13.4521 48.2693 38.7737
6449 1 15.0347 49.8519 40.3563
6450 1 13.4521 48.2693 41.9389
6451 1 15.0347 49.8519 43.5215
6452 1 13.4521 48.2693 45.1041
6453 1 15.0347 49.8519 46.6867
6454 1 13.4521 48.2693 48.2693
6455 1 15.0347 49.8519 49.8519
6456 1 16.6173 0.7913 35.6085
6457 1 18.1999 2.3739 37.1911
6458 1 16.6173 0.7913 38.7737
6459 1 18.1999 2.3739 40.3563
6460 1 16.6173 0.7913 41.9389
6461 1 18.1999 2.3739 43.5215
6462 1 16.6173 0.7913 45.1041
6463 1 18.1999 2.3739 46.6867
6464 1 16.6173 0.7913 48.2693
6465 1 18.1999 2.3739 49.8519
6466 1 16.6173 3.9565 35.6085
6467 1 18.1999 5.5391 37.1911
6468 1 16.6173 3.9565 38.7737
6469 1 18.1999 5.5391 40.3563
6470 1 16.6173 3.9565 41.9389
6471 1 18.1999 5.5391 43.5215
6472 1 16.6173 3.9565 45.1041
6473 1 18.1999 5.5391 46.6867
6474 1 16.6173 3.9565 48.2693
6475 1 18.1999 5.5391 49.8519
6476 1 16.6173 7.1217 35.6085
6477 1 18.1999 8.7043 37.1911
6478 1 16.6173 7.1217 38.7737
6479 1 18.1999 8.7043 40.3563
6480 1 16.6173 7.1217 41.9389
6481 1 18.1999 8.7043 43.5215
6482 1 16.6173 7.1217 45.1041
6483 1 18.1999 8.7043 46.6867
6484 1 16.6173 7.1217 48.2693
6485 1 18.1999 8.7043 49.8519
6486 1 16.6173 10.2869 35.6085
6487 1 18.1999 11.8695 37.1911
6488 1 16.6173 10.2869 38.7737
6489 1 18.1999 11.8695 40.3563
6490 1 16.6173 10.2869 41.9389
6491 1 18.1999 11.8695 43.5215
6492 1 16.6173 10.2869 45.1041
6493 1 18.1999 11.8695 46.6867
6494 1 16.6173 10.2869 48.2693
6495 1 18.1999 11.8695 49.8519
6496 1 16.6173 13.4521 35.6085
6497 1 18.1999 15.0347 37.1911
6498 1 16.6173 13.4521 38.7737
6499 1 18.1999 15.0347 40.3563
6500 1 16.6173 13.4521 41.9389
6501 1 18.1999 15.0347 43.5215
6502 1 16.6173 13.4521 45.1041
6503 1 18.1999 15.0347 46.6867
6504 1 16.6173 13.4521 48.2693
6505 1 18.1999 15.0347 49.8519
6506 1 16.6173 16.6173 35.6085
6507 1 18.1999 18.1999 37.1911
6508 1 16.6173 16.6173 38.7737
6509 1 18.1999 18.1999 40.3563
6510 1 16.6173 16.6173 41.9389
6511 1 18.1999 18.1999 43.5215
6512 1 16.6173 16.6173 45.1041
6513 1 18.1999 18.1999 46.6867
6514 1 16.6173 16.6173 48.2693
6515 1 18.1999 18.1999 49.8519
6516 1 16.6173 19.7825 35.6085
6517 1 18.1999 21.3651 37.1911
6518 1 16.6173 19.7825 38.7737
6519 1 18.1999 21.3651 40.3563
6520 1 16.6173 19.7825 41.9389
6521 1 18.1999 21.3651 43.5215
6522 1 16.6173 19.7825 45.1041
6523 1 18.1999 21.3651 46.6867
6524 1 16.6173 19.7825 48.2693
6525 1 18.1999 21.3651 49.8519
6526 1 16.6173 22.9477 35.6085
6527 1 18.1999 24.5303 37.1911
6528 1 16.6173 22.9477 38.7737
6529 1 18.1999 24.5303 40.3563
6530 1 16.6173 22.9477 41.9389
6531 1 18.1999 24.5303 43.5215
6532 1 16.6173 22.9477 45.1041
6533 1 18.1999 24.5303 46.6867
6534 1 16.6173 22.9477 48.2693
6535 1 18.1999 24.5303 49.8519
6536 1 16.6173 26.1129 35.6085
6537 1 18.1999 27.6955 37.1911
6538 1 16.6173 26.1129 38.7737
6539 1 18.1999 27.6955 40.3563
6540 1 16.6173 26.1129 41.9389
6541 1 18.1999 27.6955 43.5215
6542 1 16.6173 26.1129 45.1041
6543 1 18.1999 27.6955 46.6867
6544 1 16.6173 26.1129 48.2693
6545 1 18.1999 27.6955 49.8519
6546 1 16.6173 29.2781 35.6085
6547 1 18.1999 30.8607 37.1911
6548 1 16.6173 29.2781 38.7737
6549 1 18.1999 30.8607 40.3563
6550 1 16.6173 29.2781 41.9389
6551 1 18.1999 30.8607 43.5215
6552 1 16.6173 29.2781 45.1041
6553 1 18.1999 30.8607 46.6867
6554 1 16.6173 29.2781 48.2693
6555 1 18.1999 30.8607 49.8519
6556 1 16.6173 32.4433 35.6085
6557 1 18.1999 34.0259 37.1911
6558 1 16.6173 32.4433 38.7737
6559 1 18.1999 34.0259 40.3563
6560 1 16.6173 32.4433 41.9389
6561 1 18.1999 34.0259 43.5215
6562 1 16.6173 32.4433 45.1041
6563 1 18.1999 34.0259 46.6867
6564 1 16.6173 32.4433 48.2693
6565 1 18.1999 34.0259 49.8519
6566 1 16.6173 35.6085 35.6085
6567 1 18.1999 37.1911 37.1911
6568 1 16.6173 35.6085 38.7737
6569 1 18.1999 37.1911 40.3563
6570 1 16.6173 35.6085 41.9389
6571 1 18.1999 37.1911 43.5215
6572 1 16.6173 35.6085 45.1041
6573 1 18.1999 37.1911 46.6867
6574 1 16.6173 35.6085 48.2693
6575 1 18.1999 37.1911 49.8519
6576 1 16.6173 38.7737 35.6085
6577 1 18.1999 40.3563 37.1911
6578 1 16.6173 38.7737 38.7737
6579 1 18.1999 40.3563 40.3563
6580 1 16.6173 38.7737 41.9389
6581 1 18.1999 40.3563 43.5215
6582 1 16.6173 38.7737 45.1041
6583 1 18.1999 40.3563 46.6867
6584 1 16.6173 38.7737 48.2693
6585 1 18.1999 40.3563 49.8519
6586 1 16.6173 41.9389 35.6085
6587 1 18.1999 43.5215 37.1911
6588 1 16.6173 41.9389 38.7737
6589 1 18.1999 43.5215 40.3563
6590 1 16.6173 41.9389 41.9389
6591 1 18.1999 43.5215 43.5215
6592 1 16.6173 41.9389 45.1041
6593 1 18.1999 43.5215 46.6867
6594 1 16.6173 41.9389 48.2693
6595 1 18.1999 43.5215 49.8519
6596 1 16.6173 45.1041 35.6085
6597 1 18.1999 46.6867 37.1911
6598 1 16.6173 45.1041 38.7737
6599 1 18.1999 46.6867 40.3563
6600 1 16.6173 45.1041 41.9389
6601 1 18.1999 46.6867 43.5215
6602 1 16.6173 45.1041 45.1041
6603 1 18.1999 46.6867 46.6867
6604 1 16.6173 45.1041 48.2693
6605 1 18.1999 46.6867 49.8519
6606 1 16.6173 48.2693 35.6085
6607 1 18.1999 49.8519 37.1911
6608 1 16.6173 48.2693 38.7737
6609 1 18.1999 49.8519 40.3563
6610 1 16.6173 48.2693 41.9389
6611 1 18.1999 49.8519 43.5215
6612 1 16.6173 48.2693 45.1041
6613 1 18.1999 49.8519 46.6867
6614 1 16.6173 48.2693 48.2693
6615 1 18.1999 49.8519 49.8519
6616 1 19.7825 0.7913 35.6085
6617 1 21.3651 2.3739 37.1911
6618 1 19.7825 0.7913 38.7737
6619 1 21.3651 2.3739 40.3563
6620 1 19.7825 0.7913 41.9389
6621 1 21.3651 2.3739 43.5215
6622 1 19.7825 0.7913 45.1041
6623 1 21.3651 2.3739 46.6867
6624 1 19.7825 0.7913 48.2693
6625 1 21.3651 2.3739 49.8519
6626 1 19.7825 3.9565 35.6085
6627 1 21.3651 5.5391 37.1911
6628 1 19.7825 3.9565 38.7737
6629 1 21.3651 5.5391 40.3563
6630 1 19.7825 3.9565 41.9389
6631 1 21.3651 5.5391 43.5215
6632 1 19.7825 3.9565 45.1041
6633 1 21.3651 5.5391 46.6867
6634 1 19.7825 3.9565 48.2693
6635 1 21.3651 5.5391 49.8519
6636 1 19.7825 7.1217 35.6085
6637 1 21.3651 8.7043 37.1911
6638 1 19.7825 7.1217 38.7737
6639 1 21.3651 8.7043 40.3563
6640 1 19.7825 7.1217 41.9389
6641 1 21.3651 8.7043 43.5215
6642 1 19.7825 7.1217 45.1041
6643 1 21.3651 8.7043 46.6867
6644 1 19.7825 7.1217 48.2693
6645 1 21.3651 8.7043 49.8519
6646 1 19.7825 10.2869 35.6085
6647 1 21.3651 11.8695 37.1911
6648 1 19.7825 10.2869 38.7737
6649 1 21.3651 11.8695 40.3563
6650 1 19.7825 10.2869 41.9389
6651 1 21.3651 11.8695 43.5215
6652 1 19.7825 10.2869 45.1041
6653 1 21.3651 11.8695 46.6867
6654 1 19.7825 10.2869 48.2693
6655 1 21.3651 11.8695 49.8519
6656 1 19.7825 13.4521 35.6085
6657 1 21.3651 15.0347 37.1911
6658 1 19.7825 13.4521 38.7737
6659 1 21.3651 15.0347 40.3563
6660 1 19.7825 13.4521 41.9389
6661 1 21.3651 15.0347 43.5215
6662 1 19.7825 13.4521 45.1041
6663 1 21.3651 15.0347 46.6867
6664 1 19.7825 13.4521 48.2693
6665 1 21.3651 15.0347 49.8519
6666 1 19.7825 16.6173 35.6085
6667 1 21.3651 18.1999 37.1911
6668 1 19.7825 16.6173 38.7737
6669 1 21.3651 18.1999 40.3563
6670 1 19.7825 16.6173 41.9389
6671 1 21.3651 18.1999 43.5215
6672 1 19.7825 16.6173 45.1041
6673 1 21.3651 18.1999 46.6867
6674 1 19.7825 16.6173 48.2693
6675 1 21.3651 18.1999 49.8519
6676 1 19.7825 19.7825 35.6085
6677 1 21.3651 21.3651 37.1911
6678 1 19.7825 19.7825 38.7737
6679 1 21.3651 21.3651 40.3563
6680 1 19.7825 19.7825 41.9389
6681 1 21.3651 21.3651 43.5215
6682 1 19.7825 19.7825 45.1041
6683 1 21.3651 21.3651 46.6867
6684 1 19.7825 19.7825 48.2693
6685 1 21.3651 21.3651 49.8519
6686 1 19.7825 22.9477 35.6085
6687 1 21.3651 24.5303 37.1911
6688 1 19.7825 22.9477 38.7737
6689 1 21.3651 24.5303 40.3563
6690 1 19.7825 22.9477 41.9389
6691 1 21.3651 24.5303 43.5215
6692 1 19.7825 22.9477 45.1041
6693 1 21.3651 24.5303 46.6867
6694 1 19.7825 22.9477 48.2693
6695 1 21.3651 24.5303 49.8519
6696 1 19.7825 26.1129 35.6085
6697 1 21.3651 27.6955 37.1911
6698 1 19.7825 26.1129 38.7737
6699 1 21.3651 27.6955 40.3563
6700 1 19.7825 26.1129 41.9389
6701 1 21.3651 27.6955 43.5215
6702 1 19.7825 26.1129 45.1041
6703 1 21.3651 27.6955 46.6867
6704 1 19.7825 26.1129 48.2693
6705 1 21.3651 27.6955 49.8519
6706 1 19.7825 29.2781 35.6085
6707 1 21.3651 30.8607 37.1911
6708 1 19.7825 29.2781 38.7737
6709 1 21.3651 30.8607 40.3563
6710 1 19.7825 29.2781 41.9389
6711 1 21.3651 30.8607 43.5215
6712 1 19.7825 29.2781 45.1041
6713 1 21.3651 30.8607 46.6867
6714 1 19.7825 29.2781 48.2693
6715 1 21.3651 30.8607 49.8519
6716 1 19.7825 32.4433 35.6085
6717 1 21.3651 34.0259 37.1911
6718 1 19.7825 32.4433 38.7737
6719 1 21.3651 34.0259 40.3563
6720 1 19.7825 32.4433 41.9389
6721 1 21.3651 34.0259 43.5215
6722 1 19.7825 32.4433 45.1041
6723 1 21.3651 34.0259 46.6867
6724 1 19.7825 32.4433 48.2693
6725 1 21.3651 34.0259 49.8519
6726 1 19.7825 35.6085 35.6085
6727 1 21.3651 37.1911 37.1911
6728 1 19.7825 35.6085 38.7737
6729 1 21.3651 37.1911 40.3563
6730 1 19.7825 35.6085 41.9389
6731 1 21.3651 37.1911 43.5215
6732 1 19.7825 35.6085 45.1041
6733 1 21.3651 37.1911 46.6867
6734 1 19.7825 35.6085 48.2693
6735 1 21.3651 37.1911 49.8519
6736 1 19.7825 38.7737 35.6085
6737 1 21.3651 40.3563 37.1911
6738 1 19.7825 38.7737 38.7737
6739 1 21.3651 40.3563 40.3563
6740 1 19.7825 38.7737 41.9389
6741 1 21.3651 40.3563 43.5215
6742 1 19.7825 38.7737 45.1041
6743 1 21.3651 40.3563 46.6867
6744 1 19.7825 38.7737 48.2693
6745 1 21.3651 40.3563 49.8519
6746 1 19.7825 41.9389 35.6085
6747 1 21.3651 43.5215 37.1911
6748 1 19.7825 41.9389 38.7737
6749 1 21.3651 43.5215 40.3563
6750 1 19.7825 41.9389 41.9389
6751 1 21.3651 43.5215 43.5215
6752 1 19.7825 41.9389 45.1041
6753 1 21.3651 43.5215 46.6867
6754 1 19.7825 41.9389 48.2693
6755 1 21.3651 43.5215 49.8519
6756 1 19.7825 45.1041 35.6085
6757 1 21.3651 46.6867 37.1911
6758 1 19.7825 45.1041 38.7737
6759 1 21.3651 46.6867 40.3563
6760 1 19.7825 45.1041 41.9389
6761 1 21.3651 46.6867 43.5215
6762 1 19.7825 45.1041 45.1041
6763 1 21.3651 46.6867 46.6867
6764 1 19.7825 45.1041 48.2693
6765 1 21.3651 46.6867 49.8519
6766 1 19.7825 48.2693 35.6085
6767 1 21.3651 49.8519 37.1911
6768 1 19.7825 48.2693 38.7737
6769 1 21.3651 49.8519 40.3563
6770 1 19.7825 48.2693 41.9389
6771 1 21.3651 49.8519 43.5215
6772 1 19.7825 48.2693 45.1041
6773 1 21.3651 49.8519 46.6867
6774 1 19.7825 48.2693 48.2693
6775 1 21.3651 49.8519 49.8519
6776 1 22.9477 0.7913 35.6085
6777 1 24.5303 2.3739 37.1911
6778 1 22.9477 0.7913 38.7737
6779 1 24.5303 2.3739 40.3563
6780 1 22.9477 0.7913 41.9389
6781 1 24.5303 2.3739 43.5215
6782 1 22.9477 0.7913 45.1041
6783 1 24.5303 2.3739 46.6867
6784 1 22.9477 0.7913 48.2693
6785 1 24.5303 2.3739 49.8519
6786 1 22.9477 3.9565 35.6085
6787 1 24.5303 5.5391 37.1911
6788 1 22.9477 3.9565 38.7737
6789 1 24.5303 5.5391 40.3563
6790 1 22.9477 3.9565 41.9389
6791 1 24.5303 5.5391 43.5215
6792 1 22.9477 3.9565 45.1041
6793 1 24.5303 5.5391 46.6867
6794 1 22.9477 3.9565 48.2693
6795 1 24.5303 5.5391 49.8519
6796 1 22.9477 7.1217 35.6085
6797 1 24.5303 8.7043 37.1911
6798 1 22.9477 7.1217 38.7737
6799 1 24.5303 8.7043 40.3563
6800 1 22.9477 7.1217 41.9389
6801 1 24.5303 8.7043 43.5215
6802 1 22.9477 7.1217 45.1041
6803 1 24.5303 8.7043 46.6867
6804 1 22.9477 7.1217 48.2693
6805 1 24.5303 8.7043 49.8519
6806 1 22.9477 10.2869 35.6085
6807 1 24.5303 11.8695 37.1911
6808 1 22.9477 10.2869 38.7737
6809 1 24.5303 11.8695 40.3563
6810 1 22.9477 10.2869 41.9389
6811 1 24.5303 11.8695 43.5215
6812 1 22.9477 10.2869 45.1041
6813 1 24.5303 11.8695 46.6867
6814 1 22.9477 10.2869 48.2693
6815 1 24.5303 11.8695 49.8519
6816 1 22.9477 13.4521 35.6085
6817 1 24.5303 15.0347 37.1911
6818 1 22.9477 13.4521 38.7737
6819 1 24.5303 15.0347 40.3563
6820 1 22.9477 13.4521 41.9389
6821 1 24.5303 15.0347 43.5215
6822 1 22.9477 13.4521 45.1041
6823 1 24.5303 15.0347 46.6867
6824 1 22.9477 13.4521 48.2693
6825 1 24.5303 15.0347 49.8519
6826 1 22.9477 16.6173 35.6085
6827 1 24.5303 18.1999 37.1911
6828 1 22.9477 16.6173 38.7737
6829 1 24.5303 18.1999 40.3563
6830 1 22.9477 16.6173 41.9389
6831 1 24.5303 18.1999 43.5215
6832 1 22.9477 16.6173 45.1041
6833 1 24.5303 18.1999 46.6867
6834 1 22.9477 16.6173 48.2693
6835 1 24.5303 18.1999 49.8519
6836 1 22.9477 19.7825 35.6085
6837 1 24.5303 21.3651 37.1911
6838 1 22.9477 19.7825 38.7737
6839 1 24.5303 21.3651 40.3563
6840 1 22.9477 19.7825 41.9389
6841 1 24.5303 21.3651 43.5215
6842 1 22.9477 19.7825 45.1041
6843 1 24.5303 21.3651 46.6867
6844 1 22.9477 19.7825 48.2693
6845 1 24.5303 21.3651 49.8519
6846 1 22.9477 22.9477 35.6085
6847 1 24.5303 24.5303 37.1911
6848 1 22.9477 22.9477 38.7737
6849 1 24.5303 24.5303 40.3563
6850 1 22.9477 22.9477 41.9389
6851 1 24.5303 24.5303 43.5215
6852 1 22.9477 22.9477 45.1041
6853 1 24.5303 24.5303 46.6867
6854 1 22.9477 22.9477 48.2693
6855 1 24.5303 24.5303 49.8519
6856 1 22.9477 26.1129 35.6085
6857 1 24.5303 27.6955 37.1911
6858 1 22.9477 26.1129 38.7737
6859 1 24.5303 27.6955 40.3563
6860 1 22.9477 26.1129 41.9389
6861 1 24.5303 27.6955 43.5215
6862 1 22.9477 26.1129 45.1041
6863 1 24.5303 27.6955 46.6867
6864 1 22.9477 26.1129 48.2693
6865 1 24.5303 27.6955 49.8519
6866 1 22.9477 29.2781 35.6085
6867 1 24.5303 30.8607 37.1911
6868 1 22.9477 29.2781 38.7737
6869 1 24.5303 30.8607 40.3563
6870 1 22.9477 29.2781 41.9389
6871 1 24.5303 30.8607 43.5215
6872 1 22.9477 29.2781 45.1041
6873 1 24.5303 30.8607 46.6867
6874 1 22.9477 29.2781 48.2693
6875 1 24.5303 30.8607 49.8519
6876 1 22.9477 32.4433 35.6085
6877 1 24.5303 34.0259 37.1911
6878 1 22.9477 32.4433 38.7737
6879 1 24.5303 34.0259 40.3563
6880 1 22.9477 32.4433 41.9389
6881 1 24.5303 34.0259 43.5215
6882 1 22.9477 32.4433 45.1041
6883 1 24.5303 34.0259 46.6867
6884 1 22.9477 32.4433 48.2693
6885 1 24.5303 34.0259 49.8519
6886 1 22.9477 35.6085 35.6085
6887 1 24.5303 37.1911 37.1911
6888 1 22.9477 35.6085 38.7737
6889 1 24.5303 37.1911 40.3563
6890 1 22.9477 35.6085 41.9389
6891 1 24.5303 37.1911 43.5215
6892 1 22.9477 35.6085 45.1041
6893 1 24.5303 37.1911 46.6867
6894 1 22.9477 35.6085 48.2693
6895 1 24.5303 37.1911 49.8519
6896 1 22.9477 38.7737 35.6085
6897 1 24.5303 40.3563 37.1911
6898 1 22.9477 38.7737 38.7737
6899 1 24.5303 40.3563 40.3563
6900 1 22.9477 38.7737 41.9389
6901 1 24.5303 40.3563 43.5215
6902 1 22.9477 38.7737 45.1041
6903 1 24.5303 40.3563 46.6867
6904 1 22.9477 38.7737 48.2693
6905 1 24.5303 40.3563 49.8519
6906 1 22.9477 41.9389 35.6085
6907 1 24.5303 43.5215 37.1911
6908 1 22.9477 41.9389 38.7737
6909 1 24.5303 43.5215 40.3563
6910 1 22.9477 41.9389 41.9389
6911 1 24.5303 43.5215 43.5215
6912 1 22.9477 41.9389 45.1041
6913 1 24.5303 43.5215 46.6867
6914 1 22.9477 41.9389 48.2693
6915 1 24.5303 43.5215 49.8519
6916 1 22.9477 45.1041 35.6085
6917 1 24.5303 46.6867 37.1911
6918 1 22.9477 45.1041 38.7737
6919 1 24.5303 46.6867 40.3563
6920 1 22.9477 45.1041 41.9389
6921 1 24.5303 46.6867 43.5215
6922 1 22.9477 45.1041 45.1041
6923 1 24.5303 46.6867 46.6867
6924 1 22.9477 45.1041 48.2693
6925 1 24.5303 46.6867 49.8519
6926 1 22.9477 48.2693 35.6085
6927 1 24.5303 49.8519 37.1911
6928 1 22.9477 48.2693 38.7737
6929 1 24.5303 49.8519 40.3563
6930 1 22.9477 48.2693 41.9389
6931 1 24.5303 49.8519 43.5215
6932 1 22.9477 48.2693 45.1041
6933 1 24.5303 49.8519 46.6867
6934 1 22.9477 48.2693 48.2693
6935 1 24.5303 49.8519 49.8519
6936 1 26.1129 0.7913 35.6085
6937 1 27.6955 2.3739 37.1911
6938 1 26.1129 0.7913 38.7737
6939 1 27.6955 2.3739 40.3563
6940 1 26.1129 0.7913 41.9389
6941 1 27.6955 2.3739 43.5215
6942 1 26.1129 0.7913 45.1041
6943 1 27.6955 2.3739 46.6867
6944 1 26.1129 0.7913 48.2693
6945 1 27.6955 2.3739 49.8519
6946 1 26.1129 3.9565 35.6085
6947 1 27.6955 5.5391 37.1911
6948 1 26.1129 3.9565 38.7737
6949 1 27.6955 5.5391 40.3563
6950 1 26.1129 3.9565 41.9389
6951 1 27.6955 5.5391 43.5215
6952 1 26.1129 3.9565 45.1041
6953 1 27.6955 5.5391 46.6867
6954 1 26.1129 3.9565 48.2693
6955 1 27.6955 5.5391 49.8519
6956 1 26.1129 7.1217 35.6085
6957 1 27.6955 8.7043 37.1911
6958 1 26.1129 7.1217 38.7737
6959 1 27.6955 8.7043 40.3563
6960 1 26.1129 7.1217 41.9389
6961 1 27.6955 8.7043 43.5215
6962 1 26.1129 7.1217 45.1041
6963 1 27.6955 8.7043 46.6867
6964 1 26.1129 7.1217 48.2693
6965 1 27.6955 8.7043 49.8519
6966 1 26.1129 10.2869 35.6085
6967 1 27.6955 11.8695 37.1911
6968 1 26.1129 10.2869 38.7737
6969 1 27.6955 11.8695 40.3563
6970 1 26.1129 10.2869 41.9389
6971 1 27.6955 11.8695 43.5215
6972 1 26.1129 10.2869 45.1041
6973 1 27.6955 11.8695 46.6867
6974 1 26.1129 10.2869 48.2693
6975 1 27.6955 11.8695 49.8519
6976 1 26.1129 13.4521 35.6085
6977 1 27.6955 15.0347 37.1911
6978 1 26.1129 13.4521 38.7737
6979 1 27.6955 15.0347 40.3563
6980 1 26.1129 13.4521 41.9389
6981 1 27.6955 15.0347 43.5215
6982 1 26.1129 13.4521 45.1041
6983 1 27.6955 15.0347 46.6867
6984 1 26.1129 13.4521 48.2693
6985 1 27.6955 15.0347 49.8519
6986 1 26.1129 16.6173 35.6085
6987 1 27.6955 18.1999 37.1911
6988 1 26.1129 16.6173 38.7737
6989 1 27.6955 18.1999 40.3563
6990 1 26.1129 16.6173 41.9389
6991 1 27.6955 18.1999 43.5215
6992 1 26.1129 16.6173 45.1041
6993 1 27.6955 18.1999 46.6867
6994 1 26.1129 16.6173 48.2693
6995 1 27.6955 18.1999 49.8519
6996 1 26.1129 19.7825 35.6085
6997 1 27.6955 21.3651 37.1911
6998 1 26.1129 19.7825 38.7737
6999 1 27.6955 21.3651 40.3563
7000 1 26.1129 19.7825 41.9389
7001 1 27.6955 21.3651 43.5215
7002 1 26.1129 19.7825 45.1041
7003 1 27.6955 21.3651 46.6867
7004 1 26.1129 19.7825 48.2693
7005 1 27.6955 21.3651 49.8519
7006 1 26.1129 22.9477 35.6085
7007 1 27.6955 24.5303 37.1911
7008 1 26.1129 22.9477 38.7737
7009 1 27.6955 24.5303 40.3563
7010 1 26.1129 22.9477 41.9389
7011 1 27.6955 24.5303 43.5215
7012 1 26.1129 22.9477 45.1041
7013 1 27.6955 24.5303 46.6867
7014 1 26.1129 22.9477 48.2693
7015 1 27.6955 24.5303 49.8519
7016 1 26.1129 26.1129 35.6085
7017 1 27.6955 27.6955 37.1911
7018 1 26.1129 26.1129 38.7737
7019 1 27.6955 27.6955 40.3563
7020 1 26.1129 26.1129 41.9389
7021 1 27.6955 27.6955 43.5215
7022 1 26.1129 26.1129 45.1041
7023 1 27.6955 27.6955 46.6867
7024 1 26.1129 26.1129 48.2693
7025 1 27.6955 27.6955 49.8519
7026 1 26.1129 29.2781 35.6085
7027 1 27.6955 30.8607 37.1911
7028 1 26.1129 29.2781 38.7737
7029 1 27.6955 30.8607 40.3563
7030 1 26.1129 29.2781 41.9389
7031 1 27.6955 30.8607 43.5215
7032 1 26.1129 29.2781 45.1041
7033 1 27.6955 30.8607 46.6867
7034 1 26.1129 29.2781 48.2693
7035 1 27.6955 30.8607 49.8519
7036 1 26.1129 32.4433 35.6085
7037 1 27.6955 34.0259 37.1911
7038 1 26.1129 32.4433 38.7737
7039 1 27.6955 34.0259 40.3563
7040 1 26.1129 32.4433 41.9389
7041 1 27.6955 34.0259 43.5215
7042 1 26.1129 32.4433 45.1041
7043 1 27.6955 34.0259 46.6867
7044 1 26.1129 32.4433 48.2693
7045 1 27.6955 34.0259 49.8519
7046 1 26.1129 35.6085 35.6085
7047 1 27.6955 37.1911 37.1911
7048 1 26.1129 35.6085 38.7737
7049 1 27.6955 37.1911 40.3563
7050 1 26.1129 35.6085 41.9389
7051 1 27.6955 37.1911 43.5215
7052 1 26.1129 35.6085 45.1041
7053 1 27.6955 37.1911 46.6867
7054 1 26.1129 35.6085 48.2693
7055 1 27.6955 37.1911 49.8519
7056 1 26.1129 38.7737 35.6085
7057 1 27.6955 40.3563 37.1911
7058 1 26.1129 38.7737 38.7737
7059 1 27.6955 40.3563 40.3563
7060 1 26.1129 38.7737 41.9389
7061 1 27.6955 40.3563 43.5215
7062 1 26.1129 38.7737 45.1041
7063 1 27.6955 40.3563 46.6867
7064 1 26.1129 38.7737 48.2693
7065 1 27.6955 40.3563 49.8519
7066 1 26.1129 41.9389 35.6085
7067 1 27.6955 43.5215 37.1911
7068 1 26.1129 41.9389 38.7737
7069 1 27.6955 43.5215 40.3563
7070 1 26.1129 41.9389 41.9389
7071 1 27.6955 43.5215 43.5215
7072 1 26.1129 41.9389 45.1041
7073 1 27.6955 43.5215 46.6867
7074 1 26.1129 41.9389 48.2693
7075 1 27.6955 43.5215 49.8519
7076 1 26.1129 45.1041 35.6085
7077 1 27.6955 46.6867 37.1911
7078 1 26.1129 45.1041 38.7737
7079 1 27.6955 46.6867 40.3563
7080 1 26.1129 45.1041 41.9389
7081 1 27.6955 46.6867 43.5215
7082 1 26.1129 45.1041 45.1041
7083 1 27.6955 46.6867 46.6867
7084 1 26.1129 45.1041 48.2693
7085 1 27.6955 46.6867 49.8519
7086 1 26.1129 48.2693 35.6085
7087 1 27.6955 49.8519 37.1911
7088 1 26.1129 48.2693 38.7737
7089 1 27.6955 49.8519 40.3563
7090 1 26.1129 48.2693 41.9389
7091 1 27.6955 49.8519 43.5215
7092 1 26.1129 48.2693 45.1041
7093 1 27.6955 49.8519 46.6867
7094 1 26.1129 48.2693 48.2693
7095 1 27.6955 49.8519 49.8519
7096 1 29.2781 0.7913 35.6085
7097 1 30.8607 2.3739 37.1911
7098 1 29.2781 0.7913 38.7737
7099 1 30.8607 2.3739 40.3563
7100 1 29.2781 0.7913 41.9389
7101 1 30.8607 2.3739 43.5215
7102 1 29.2781 0.7913 45.1041
7103 1 30.8607 2.3739 46.6867
7104 1 29.2781 0.7913 48.2693
7105 1 30.8607 2.3739 49.8519
7106 1 29.2781 3.9565 35.6085
7107 1 30.8607 5.5391 37.1911
7108 1 29.2781 3.9565 38.7737
7109 1 30.8607 5.5391 40.3563
7110 1 29.2781 3.9565 41.9389
7111 1 30.8607 5.5391 43.5215
7112 1 29.2781 3.9565 45.1041
7113 1 30.8607 5.5391 46.6867
7114 1 29.2781 3.9565 48.2693
7115 1 30.8607 5.5391 49.8519
7116 1 29.2781 7.1217 35.6085
7117 1 30.8607 8.7043 37.1911
7118 1 29.2781 7.1217 38.7737
7119 1 30.8607 8.7043 40.3563
7120 1 29.2781 7.1217 41.9389
7121 1 30.8607 8.7043 43.5215
7122 1 29.2781 7.1217 45.1041
7123 1 30.8607 8.7043 46.6867
7124 1 29.2781 7.1217 48.2693
7125 1 30.8607 8.7043 49.8519
7126 1 29.2781 10.2869 35.6085
7127 1 30.8607 11.8695 37.1911
7128 1 29.2781 10.2869 38.7737
7129 1 30.8607 11.8695 40.3563
7130 1 29.2781 10.2869 41.9389
7131 1 30.8607 11.8695 43.5215
7132 1 29.2781 10.2869 45.1041
7133 1 30.8607 11.8695 46.6867
7134 1 29.2781 10.2869 48.2693
7135 1 30.8607 11.8695 49.8519
7136 1 29.2781 13.4521 35.6085
7137 1 30.8607 15.0347 37.1911
7138 1 29.2781 13.4521 38.7737
7139 1 30.8607 15.0347 40.3563
7140 1 29.2781 13.4521 41.9389
7141 1 30.8607 15.0347 43.5215
7142 1 29.2781 13.4521 45.1041
7143 1 30.8607 15.0347 46.6867
7144 1 29.2781 13.4521 48.2693
7145 1 30.8607 15.0347 49.8519
7146 1 29.2781 16.6173 35.6085
7147 1 30.8607 18.1999 37.1911
7148 1 29.2781 16.6173 38.7737
7149 1 30.8607 18.1999 40.3563
7150 1 29.2781 16.6173 41.9389
7151 1 30.8607 18.1999 43.5215
7152 1 29.2781 16.6173 45.1041
7153 1 30.8607 18.1999 46.6867
7154 1 29.2781 16.6173 48.2693
7155 1 30.8607 18.1999 49.8519
7156 1 29.2781 19.7825 35.6085
7157 1 30.8607 21.3651 37.1911
7158 1 29.2781 19.7825 38.7737
7159 1 30.8607 21.3651 40.3563
7160 1 29.2781 19.7825 41.9389
7161 1 30.8607 21.3651 43.5215
7162 1 29.2781 19.7825 45.1041
7163 1 30.8607 21.3651 46.6867
7164 1 29.2781 19.7825 48.2693
7165 1 30.8607 21.3651 49.8519
7166 1 29.2781 22.9477 35.6085
7167 1 30.8607 24.5303 37.1911
7168 1 29.2781 22.9477 38.7737
7169 1 30.8607 24.5303 40.3563
7170 1 29.2781 22.9477 41.9389
7171 1 30.8607 24.5303 43.5215
7172 1 29.2781 22.9477 45.1041
7173 1 30.8607 24.5303 46.6867
7174 1 29.2781 22.9477 48.2693
7175 1 30.8607 24.5303 49.8519
7176 1 29.2781 26.1129 35.6085
7177 1 30.8607 27.6955 37.1911
7178 1 29.2781 26.1129 38.7737
7179 1 30.8607 27.6955 40.3563
7180 1 29.2781 26.1129 41.9389
7181 1 30.8607 27.6955 43.5215
7182 1 29.2781 26.1129 45.1041
7183 1 30.8607 27.6955 46.6867
7184 1 29.2781 26.1129 48.2693
7185 1 30.8607 27.6955 49.8519
7186 1 29.2781 29.2781 35.6085
7187 1 30.8607 30.8607 37.1911
7188 1 29.2781 29.2781 38.7737
7189 1 30.8607 30.8607 40.3563
7190 1 29.2781 29.2781 41.9389
7191 1 30.8607 30.8607 43.5215
7192 1 29.2781 29.2781 45.1041
7193 1 30.8607 30.8607 46.6867
7194 1 29.2781 29.2781 48.2693
7195 1 30.8607 30.8607 49.8519
7196 1 29.2781 32.4433 35.6085
7197 1 30.8607 34.0259 37.1911
7198 1 29.2781 32.4433 38.7737
7199 1 30.8607 34.0259 40.3563
7200 1 29.2781 32.4433 41.9389
7201 1 30.8607 34.0259 43.5215
7202 1 29.2781 32.4433 45.1041
7203 1 30.8607 34.0259 46.6867
7204 1 29.2781 32.4433 48.2693
7205 1 30.8607 34.0259 49.8519
7206 1 29.2781 35.6085 35.6085
7207 1 30.8607 37.1911 37.1911
7208 1 29.2781 35.6085 38.7737
7209 1 30.8607 37.1911 40.3563
7210 1 29.2781 35.6085 41.9389
7211 1 30.8607 37.1911 43.5215
7212 1 29.2781 35.6085 45.1041
7213 1 30.8607 37.1911 46.6867
7214 1 29.2781 35.6085 48.2693
7215 1 30.8607 37.1911 49.8519
7216 1 29.2781 38.7737 35.6085
7217 1 30.8607 40.3563 37.1911
7218 1 29.2781 38.7737 38.7737
7219 1 30.8607 40.3563 40.3563
7220 1 29.2781 38.7737 41.9389
7221 1 30.8607 40.3563 43.5215
7222 1 29.2781 38.7737 45.1041
7223 1 30.8607 40.3563 46.6867
7224 1 29.2781 38.7737 48.2693
7225 1 30.8607 40.3563 49.8519
7226 1 29.2781 41.9389 35.6085
7227 1 30.8607 43.5215 37.1911
7228 1 29.2781 41.9389 38.7737
7229 1 30.8607 43.5215 40.3563
7230 1 29.2781 41.9389 41.9389
7231 1 30.8607 43.5215 43.5215
7232 1 29.2781 41.9389 45.1041
7233 1 30.8607 43.5215 46.6867
7234 1 29.2781 41.9389 48.2693
7235 1 30.8607 43.5215 49.8519
7236 1 29.2781 45.1041 35.6085
7237 1 30.8607 46.6867 37.1911
7238 1 29.2781 45.1041 38.7737
7239 1 30.8607 46.6867 40.3563
7240 1 29.2781 45.1041 41.9389
7241 1 30.8607 46.6867 43.5215
7242 1 29.2781 45.1041 45.1041
7243 1 30.8607 46.6867 46.6867
7244 1 29.2781 45.1041 48.2693
7245 1 30.8607 46.6867 49.8519
7246 1 29.2781 48.2693 35.6085
7247 1 30.8607 49.8519 37.1911
7248 1 29.2781 48.2693 38.7737
7249 1 30.8607 49.8519 40.3563
7250 1 29.2781 48.2693 41.9389
7251 1 30.8607 49.8519 43.5215
7252 1 29.2781 48.2693 45.1041
7253 1 30.8607 49.8519 46.6867
7254 1 29.2781 48.2693 48.2693
7255 1 30.8607 49.8519 49.8519
7256 1 32.4433 0.7913 35.6085
7257 1 34.0259 2.3739 37.1911
7258 1 32.4433 0.7913 38.7737
7259 1 34.0259 2.3739 40.3563
7260 1 32.4433 0.7913 41.9389
7261 1 34.0259 2.3739 43.5215
7262 1 32.4433 0.7913 45.1041
7263 1 34.0259 2.3739 46.6867
7264 1 32.4433 0.7913 48.2693
7265 1 34.0259 2.3739 49.8519
7266 1 32.4433 3.9565 35.6085
7267 1 34.0259 5.5391 37.1911
7268 1 32.4433 3.9565 38.7737
7269 1 34.0259 5.5391 40.3563
7270 1 32.4433 3.9565 41.9389
7271 1 34.0259 5.5391 43.5215
7272 1 32.4433 3.9565 45.1041
7273 1 34.0259 5.5391 46.6867
7274 1 32.4433 3.9565 48.2693
7275 1 34.0259 5.5391 49.8519
7276 1 32.4433 7.1217 35.6085
7277 1 34.0259 8.7043 37.1911
7278 1 32.4433 7.1217 38.7737
7279 1 34.0259 8.7043 40.3563
7280 1 32.4433 7.1217 41.9389
7281 1 34.0259 8.7043 43.5215
7282 1 32.4433 7.1217 45.1041
7283 1 34.0259 8.7043 46.6867
7284 1 32.4433 7.1217 48.2693
7285 1 34.0259 8.7043 49.8519
7286 1 32.4433 10.2869 35.6085
7287 1 34.0259 11.8695 37.1911
7288 1 32.4433 10.2869 38.7737
7289 1 34.0259 11.8695 40.3563
7290 1 32.4433 10.2869 41.9389
7291 1 34.0259 11.8695 43.5215
7292 1 32.4433 10.2869 45.1041
7293 1 34.0259 11.8695 46.6867
7294 1 32.4433 10.2869 48.2693
7295 1 34.0259 11.8695 49.8519
7296 1 32.4433 13.4521 35.6085
7297 1 34.0259 15.0347 37.1911
7298 1 32.4433 13.4521 38.7737
7299 1 34.0259 15.0347 40.3563
7300 1 32.4433 13.4521 41.9389
7301 1 34.0259 15.0347 43.5215
7302 1 32.4433 13.4521 45.1041
7303 1 34.0259 15.0347 46.6867
7304 1 32.4433 13.4521 48.2693
7305 1 34.0259 15.0347 49.8519
7306 1 32.4433 16.6173 35.6085
7307 1 34.0259 18.1999 37.1911
7308 1 32.4433 16.6173 38.7737
7309 1 34.0259 18.1999 40.3563
7310 1 32.4433 16.6173 41.9389
7311 1 34.0259 18.1999 43.5215
7312 1 32.4433 16.6173 45.1041
7313 1 34.0259 18.1999 46.6867
7314 1 32.4433 16.6173 48.2693
7315 1 34.0259 18.1999 49.8519
7316 1 32.4433 19.7825 35.6085
7317 1 34.0259 21.3651 37.1911
7318 1 32.4433 19.7825 38.7737
7319 1 34.0259 21.3651 40.3563
7320 1 32.4433 19.7825 41.9389
7321 1 34.0259 21.3651 43.5215
7322 1 32.4433 19.7825 45.1041
7323 1 34.0259 21.3651 46.6867
7324 1 32.4433 19.7825 48.2693
7325 1 34.0259 21.3651 49.8519
7326 1 32.4433 22.9477 35.6085
7327 1 34.0259 24.5303 37.1911
7328 1 32.4433 22.9477 38.7737
7329 1 34.0259 24.5303 40.3563
7330 1 32.4433 22.9477 41.9389
7331 1 34.0259 24.5303 43.5215
7332 1 32.4433 22.9477 45.1041
7333 1 34.0259 24.5303 46.6867
7334 1 32.4433 22.9477 48.2693
7335 1 34.0259 24.5303 49.8519
7336 1 32.4433 26.1129 35.6085
7337 1 34.0259 27.6955 37.1911
7338 1 32.4433 26.1129 38.7737
7339 1 34.0259 27.6955 40.3563
7340 1 32.4433 26.1129 41.9389
7341 1 34.0259 27.6955 43.5215
7342 1 32.4433 26.1129 45.1041
7343 1 34.0259 27.6955 46.6867
7344 1 32.4433 26.1129 48.2693
7345 1 34.0259 27.6955 49.8519
7346 1 32.4433 29.2781 35.6085
7347 1 34.0259 30.8607 37.1911
7348 1 32.4433 29.2781 38.7737
7349 1 34.0259 30.8607 40.3563
7350 1 32.4433 29.2781 41.9389
7351 1 34.0259 30.8607 43.5215
7352 1 32.4433 29.2781 45.1041
7353 1 34.0259 30.8607 46.6867
7354 1 32.4433 29.2781 48.2693
7355 1 34.0259 30.8607 49.8519
7356 1 32.4433 32.4433 35.6085
7357 1 34.0259 34.0259 37.1911
7358 1 32.4433 32.4433 38.7737
7359 1 34.0259 34.0259 40.3563
7360 1 32.4433 32.4433 41.9389
7361 1 34.0259 34.0259 43.5215
7362 1 32.4433 32.4433 45.1041
7363 1 34.0259 34.0259 46.6867
7364 1 32.4433 32.4433 48.2693
7365 1 34.0259 34.0259 49.8519
7366 1 32.4433 35.6085 35.6085
7367 1 34.0259 37.1911 37.1911
7368 1 32.4433 35.6085 38.7737
7369 1 34.0259 37.1911 40.3563
7370 1 32.4433 35.6085 41.9389
7371 1 34.0259 37.1911 43.5215
7372 1 32.4433 35.6085 45.1041
7373 1 34.0259 37.1911 46.6867
7374 1 32.4433 35.6085 48.2693
7375 1 34.0259 37.1911 49.8519
7376 1 32.4433 38.7737 35.6085
7377 1 34.0259 40.3563 37.1911
7378 1 32.4433 38.7737 38.7737
7379 1 34.0259 40.3563 40.3563
7380 1 32.4433 38.7737 41.9389
7381 1 34.0259 40.3563 43.5215
7382 1 32.4433 38.7737 45.1041
7383 1 34.0259 40.3563 46.6867
7384 1 32.4433 38.7737 48.2693
7385 1 34.0259 40.3563 49.8519
7386 1 32.4433 41.9389 35.6085
7387 1 34.0259 43.5215 37.1911
7388 1 32.4433 41.9389 38.7737
7389 1 34.0259 43.5215 40.3563
7390 1 32.4433 41.9389 41.9389
7391 1 34.0259 43.5215 43.5215
7392 1 32.4433 41.9389 45.1041
7393 1 34.0259 43.5215 46.6867
7394 1 32.4433 41.9389 48.2693
7395 1 34.0259 43.5215 49.8519
7396 1 32.4433 45.1041 35.6085
7397 1 34.0259 46.6867 37.1911
7398 1 32.4433 45.1041 38.7737
7399 1 34.0259 46.6867 40.3563
7400 1 32.4433 45.1041 41.9389
7401 1 34.0259 46.6867 43.5215
7402 1 32.4433 45.1041 45.1041
7403 1 34.0259 46.6867 46.6867
7404 1 32.4433 45.1041 48.2693
7405 1 34.0259 46.6867 49.8519
7406 1 32.4433 48.2693 35.6085
7407 1 34.0259 49.8519 37.1911
7408 1 32.4433 48.2693 38.7737
7409 1 34.0259 49.8519 40.3563
7410 1 32.4433 48.2693 41.9389
7411 1 34.0259 49.8519 43.5215
7412 1 32.4433 48.2693 45.1041
7413 1 34.0259 49.8519 46.6867
7414 1 32.4433 48.2693 48.2693
7415 1 34.0259 49.8519 49.8519
7416 1 13.4521 0.7913 13.4521
7417 1 15.0347 2.3739 15.0347
7418 1 13.4521 0.7913 16.6173
7419 1 15.0347 2.3739 18.1999
7420 1 13.4521 0.7913 19.7825
7421 1 15.0347 2.3739 21.3651
7422 1 13.4521 0.7913 22.9477
7423 1 15.0347 2.3739 24.5303
7424 1 13.4521 0.7913 26.1129
7425 1 15.0347 2.3739 27.6955
7426 1 13.4521 0.7913 29.2781
7427 1 15.0347 2.3739 30.8607
7428 1 13.4521 0.7913 32.4433
7429 1 15.0347 2.3739 34.0259
7430 1 13.4521 3.9565 13.4521
7431 1 15.0347 5.5391 15.0347
7432 1 13.4521 3.9565 16.6173
7433 1 15.0347 5.5391 18.1999
7434 1 13.4521 3.9565 19.7825
7435 1 15.0347 5.5391 21.3651
7436 1 13.4521 3.9565 22.9477
7437 1 15.0347 5.5391 24.5303
7438 1 13.4521 3.9565 26.1129
7439 1 15.0347 5.5391 27.6955
7440 1 13.4521 3.9565 29.2781
7441 1 15.0347 5.5391 30.8607
7442 1 13.4521 3.9565 32.4433
7443 1 15.0347 5.5391 34.0259
7444 1 13.4521 7.1217 13.4521
7445 1 15.0347 8.7043 15.0347
7446 1 13.4521 7.1217 16.6173
7447 1 15.0347 8.7043 18.1999
7448 1 13.4521 7.1217 19.7825
7449 1 15.0347 8.7043 21.3651
7450 1 13.4521 7.1217 22.9477
7451 1 15.0347 8.7043 24.5303
7452 1 13.4521 7.1217 26.1129
7453 1 15.0347 8.7043 27.6955
7454 1 13.4521 7.1217 29.2781
7455 1 15.0347 8.7043 30.8607
7456 1 13.4521 7.1217 32.4433
7457 1 15.0347 8.7043 34.0259
7458 1 13.4521 10.2869 13.4521
7459 1 15.0347 11.8695 15.0347
7460 1 13.4521 10.2869 16.6173
7461 1 15.0347 11.8695 18.1999
7462 1 13.4521 10.2869 19.7825
7463 1 15.0347 11.8695 21.3651
7464 1 13.4521 10.2869 22.9477
7465 1 15.0347 11.8695 24.5303
7466 1 13.4521 10.2869 26.1129
7467 1 15.0347 11.8695 27.6955
7468 1 13.4521 10.2869 29.2781
7469 1 15.0347 11.8695 30.8607
7470 1 13.4521 10.2869 32.4433
7471 1 15.0347 11.8695 34.0259
7472 1 16.6173 0.7913 13.4521
7473 1 18.1999 2.3739 15.0347
7474 1 16.6173 0.7913 16.6173
7475 1 18.1999 2.3739 18.1999
7476 1 16.6173 0.7913 19.7825
7477 1 18.1999 2.3739 21.3651
7478 1 16.6173 0.7913 22.9477
7479 1 18.1999 2.3739 24.5303
7480 1 16.6173 0.7913 26.1129
7481 1 18.1999 2.3739 27.6955
7482 1 16.6173 0.7913 29.2781
7483 1 18.1999 2.3739 30.8607
7484 1 16.6173 0.7913 32.4433
7485 1 18.1999 2.3739 34.0259
7486 1 16.6173 3.9565 13.4521
7487 1 18.1999 5.5391 15.0347
7488 1 16.6173 3.9565 16.6173
7489 1 18.1999 5.5391 18.1999
7490 1 16.6173 3.9565 19.7825
7491 1 18.1999 5.5391 21.3651
7492 1 16.6173 3.9565 22.9477
7493 1 18.1999 5.5391 24.5303
7494 1 16.6173 3.9565 26.1129
7495 1 18.1999 5.5391 27.6955
7496 1 16.6173 3.9565 29.2781
7497 1 18.1999 5.5391 30.8607
7498 1 16.6173 3.9565 32.4433
7499 1 18.1999 5.5391 34.0259
7500 1 16.6173 7.1217 13.4521
7501 1 18.1999 8.7043 15.0347
7502 1 16.6173 7.1217 16.6173
7503 1 18.1999 8.7043 18.1999
7504 1 16.6173 7.1217 19.7825
7505 1 18.1999 8.7043 21.3651
7506 1 16.6173 7.1217 22.9477
7507 1 18.1999 8.7043 24.5303
7508 1 16.6173 7.1217 26.1129
7509 1 18.1999 8.7043 27.6955
7510 1 16.6173 7.1217 29.2781
7511 1 18.1999 8.7043 30.8607
7512 1 16.6173 7.1217 32.4433
7513 1 18.1999 8.7043 34.0259
7514 1 16.6173 10.2869 13.4521
7515 1 18.1999 11.8695 15.0347
7516 1 16.6173 10.2869 16.6173
7517 1 18.1999 11.8695 18.1999
7518 1 16.6173 10.2869 19.7825
7519 1 18.1999 11.8695 21.3651
7520 1 16.6173 10.2869 22.9477
7521 1 18.1999 11.8695 24.5303
7522 1 16.6173 10.2869 26.1129
7523 1 18.1999 11.8695 27.6955
7524 1 16.6173 10.2869 29.2781
7525 1 18.1999 11.8695 30.8607
7526 1 16.6173 10.2869 32.4433
7527 1 18.1999 11.8695 34.0259
7528 1 19.7825 0.7913 13.4521
7529 1 21.3651 2.3739 15.0347
7530 1 19.7825 0.7913 16.6173
7531 1 21.3651 2.3739 18.1999
7532 1 19.7825 0.7913 19.7825
7533 1 21.3651 2.3739 21.3651
7534 1 19.7825 0.7913 22.9477
7535 1 21.3651 2.3739 24.5303
7536 1 19.7825 0.7913 26.1129
7537 1 21.3651 2.3739 27.6955
7538 1 19.7825 0.7913 29.2781
7539 1 21.3651 2.3739 30.8607
7540 1 19.7825 0.7913 32.4433
7541 1 21.3651 2.3739 34.0259
7542 1 19.7825 3.9565 13.4521
7543 1 21.3651 5.5391 15.0347
7544 1 19.7825 3.9565 16.6173
7545 1 21.3651 5.5391 18.1999
7546 1 19.7825 3.9565 19.7825
7547 1 21.3651 5.5391 21.3651
7548 1 19.7825 3.9565 22.9477
7549 1 21.3651 5.5391 24.5303
7550 1 19.7825 3.9565 26.1129
7551 1 21.3651 5.5391 27.6955
7552 1 19.7825 3.9565 29.2781
7553 1 21.3651 5.5391 30.8607
7554 1 19.7825 3.9565 32.4433
7555 1 21.3651 5.5391 34.0259
7556 1 19.7825 7.1217 13.4521
7557 1 21.3651 8.7043 15.0347
7558 1 19.7825 7.1217 16.6173
7559 1 21.3651 8.7043 18.1999
7560 1 19.7825 7.1217 19.7825
7561 1 21.3651 8.7043 21.3651
7562 1 19.7825 7.1217 22.9477
7563 1 21.3651 8.7043 24.5303
7564 1 19.7825 7.1217 26.1129
7565 1 21.3651 8.7043 27.6955
7566 1 19.7825 7.1217 29.2781
7567 1 21.3651 8.7043 30.8607
7568 1 19.7825 7.1217 32.4433
7569 1 21.3651 8.7043 34.0259
7570 1 19.7825 10.2869 13.4521
7571 1 21.3651 11.8695 15.0347
7572 1 19.7825 10.2869 16.6173
7573 1 21.3651 11.8695 18.1999
7574 1 19.7825 10.2869 19.7825
7575 1 21.3651 11.8695 21.3651
7576 1 19.7825 10.2869 22.9477
7577 1 21.3651 11.8695 24.5303
7578 1 19.7825 10.2869 26.1129
7579 1 21.3651 11.8695 27.6955
7580 1 19.7825 10.2869 29.2781
7581 1 21.3651 11.8695 30.8607
7582 1 19.7825 10.2869 32.4433
7583 1 21.3651 11.8695 34.0259
7584 1 22.9477 0.7913 13.4521
7585 1 24.5303 2.3739 15.0347
7586 1 22.9477 0.7913 16.6173
7587 1 24.5303 2.3739 18.1999
7588 1 22.9477 0.7913 19.7825
7589 1 24.5303 2.3739 21.3651
7590 1 22.9477 0.7913 22.9477
7591 1 24.5303 2.3739 24.5303
7592 1 22.9477 0.7913 26.1129
7593 1 24.5303 2.3739 27.6955
7594 1 22.9477 0.7913 29.2781
7595 1 24.5303 2.3739 30.8607
7596 1 22.9477 0.7913 32.4433
7597 1 24.5303 2.3739 34.0259
7598 1 22.9477 3.9565 13.4521
7599 1 24.5303 5.5391 15.0347
7600 1 22.9477 3.9565 16.6173
7601 1 24.5303 5.5391 18.1999
7602 1 22.9477 3.9565 19.7825
7603 1 24.5303 5.5391 21.3651
7604 1 22.9477 3.9565 22.9477
7605 1 24.5303 5.5391 24.5303
7606 1 22.9477 3.9565 26.1129
7607 1 24.5303 5.5391 27.6955
7608 1 22.9477 3.9565 29.2781
7609 1 24.5303 5.5391 30.8607
7610 1 22.9477 3.9565 32.4433
7611 1 24.5303 5.5391 34.0259
7612 1 22.9477 7.1217 13.4521
7613 1 24.5303 8.7043 15.0347
7614 1 22.9477 7.1217 16.6173
7615 1 24.5303 8.7043 18.1999
7616 1 22.9477 7.1217 19.7825
7617 1 24.5303 8.7043 21.3651
7618 1 22.9477 7.1217 22.9477
7619 1 24.5303 8.7043 24.5303
7620 1 22.9477 7.1217 26.1129
7621 1 24.5303 8.7043 27.6955
7622 1 22.9477 7.1217 29.2781
7623 1 24.5303 8.7043 30.8607
7624 1 22.9477 7.1217 32.4433
7625 1 24.5303 8.7043 34.0259
7626 1 22.9477 10.2869 13.4521
7627 1 24.5303 11.8695 15.0347
7628 1 22.9477 10.2869 16.6173
7629 1 24.5303 11.8695 18.1999
7630 1 22.9477 10.2869 19.7825
7631 1 24.5303 11.8695 21.3651
7632 1 22.9477 10.2869 22.9477
7633 1 24.5303 11.8695 24.5303
7634 1 22.9477 10.2869 26.1129
7635 1 24.5303 11.8695 27.6955
7636 1 22.9477 10.2869 29.2781
7637 1 24.5303 11.8695 30.8607
7638 1 22.9477 10.2869 32.4433
7639 1 24.5303 11.8695 34.0259
7640 1 26.1129 0.7913 13.4521
7641 1 27.6955 2.3739 15.0347
7642 1 26.1129 0.7913 16.6173
7643 1 27.6955 2.3739 18.1999
7644 1 26.1129 0.7913 19.7825
7645 1 27.6955 2.3739 21.3651
7646 1 26.1129 0.7913 22.9477
7647 1 27.6955 2.3739 24.5303
7648 1 26.1129 0.7913 26.1129
7649 1 27.6955 2.3739 27.6955
7650 1 26.1129 0.7913 29.2781
7651 1 27.6955 2.3739 30.8607
7652 1 26.1129 0.7913 32.4433
7653 1 27.6955 2.3739 34.0259
7654 1 26.1129 3.9565 13.4521
7655 1 27.6955 5.5391 15.0347
7656 1 26.1129 3.9565 16.6173
7657 1 27.6955 5.5391 18.1999
7658 1 26.1129 3.9565 19.7825
7659 1 27.6955 5.5391 21.3651
7660 1 26.1129 3.9565 22.9477
7661 1 27.6955 5.5391 24.5303
7662 1 26.1129 3.9565 26.1129
7663 1 27.6955 5.5391 27.6955
7664 1 26.1129 3.9565 29.2781
7665 1 27.6955 5.5391 30.8607
7666 1 26.1129 3.9565 32.4433
7667 1 27.6955 5.5391 34.0259
7668 1 26.1129 7.1217 13.4521
7669 1 27.6955 8.7043 15.0347
7670 1 26.1129 7.1217 16.6173
7671 1 27.6955 8.7043 18.1999
7672 1 26.1129 7.1217 19.7825
7673 1 27.6955 8.7043 21.3651
7674 1 26.1129 7.1217 22.9477
7675 1 27.6955 8.7043 24.5303
7676 1 26.1129 7.1217 26.1129
7677 1 27.6955 8.7043 27.6955
7678 1 26.1129 7.1217 29.2781
7679 1 27.6955 8.7043 30.8607
7680 1 26.1129 7.1217 32.4433
7681 1 27.6955 8.7043 34.0259
7682 1 26.1129 10.2869 13.4521
7683 1 27.6955 11.8695 15.0347
7684 1 26.1129 10.2869 16.6173
7685 1 27.6955 11.8695 18.1999
7686 1 26.1129 10.2869 19.7825
7687 1 27.6955 11.8695 21.3651
7688 1 26.1129 10.2869 22.9477
7689 1 27.6955 11.8695 24.5303
7690 1 26.1129 10.2869 26.1129
7691 1 27.6955 11.8695 27.6955
7692 1 26.1129 10.2869 29.2781
7693 1 27.6955 11.8695 30.8607
7694 1 26.1129 10.2869 32.4433
7695 1 27.6955 11.8695 34.0259
7696 1 29.2781 0.7913 13.4521
7697 1 30.8607 2.3739 15.0347
7698 1 29.2781 0.7913 16.6173
7699 1 30.8607 2.3739 18.1999
7700 1 29.2781 0.7913 19.7825
7701 1 30.8607 2.3739 21.3651
7702 1 29.2781 0.7913 22.9477
7703 1 30.8607 2.3739 24.5303
7704 1 29.2781 0.7913 26.1129
7705 1 30.8607 2.3739 27.6955
7706 1 29.2781 0.7913 29.2781
7707 1 30.8607 2.3739 30.8607
7708 1 29.2781 0.7913 32.4433
7709 1 30.8607 2.3739 34.0259
7710 1 29.2781 3.9565 13.4521
7711 1 30.8607 5.5391 15.0347
7712 1 29.2781 3.9565 16.6173
7713 1 30.8607 5.5391 18.1999
7714 1 29.2781 3.9565 19.7825
7715 1 30.8607 5.5391 21.3651
7716 1 29.2781 3.9565 22.9477
7717 1 30.8607 5.5391 24.5303
7718 1 29.2781 3.9565 26.1129
7719 1 30.8607 5.5391 27.6955
7720 1 29.2781 3.9565 29.2781
7721 1 30.8607 5.5391 30.8607
7722 1 29.2781 3.9565 32.4433
7723 1 30.8607 5.5391 34.0259
7724 1 29.2781 7.1217 13.4521
7725 1 30.8607 8.7043 15.0347
7726 1 29.2781 7.1217 16.6173
7727 1 30.8607 8.7043 18.1999
7728 1 29.2781 7.1217 19.7825
7729 1 30.8607 8.7043 21.3651
7730 1 29.2781 7.1217 22.9477
7731 1 30.8607 8.7043 24.5303
7732 1 29.2781 7.1217 26.1129
7733 1 30.8607 8.7043 27.6955
7734 1 29.2781 7.1217 29.2781
7735 1 30.8607 8.7043 30.8607
7736 1 29.2781 7.1217 32.4433
7737 1 30.8607 8.7043 34.0259
7738 1 29.2781 10.2869 13.4521
7739 1 30.8607 11.8695 15.0347
7740 1 29.2781 10.2869 16.6173
7741 1 30.8607 11.8695 18.1999
7742 1 29.2781 10.2869 19.7825
7743 1 30.8607 11.8695 21.3651
7744 1 29.2781 10.2869 22.9477
7745 1 30.8607 11.8695 24.5303
7746 1 29.2781 10.2869 26.1129
7747 1 30.8607 11.8695 27.6955
7748 1 29.2781 10.2869 29.2781
7749 1 30.8607 11.8695 30.8607
7750 1 29.2781 10.2869 32.4433
7751 1 30.8607 11.8695 34.0259
7752 1 32.4433 0.7913 13.4521
7753 1 34.0259 2.3739 15.0347
7754 1 32.4433 0.7913 16.6173
7755 1 34.0259 2.3739 18.1999
7756 1 32.4433 0.7913 19.7825
7757 1 34.0259 2.3739 21.3651
7758 1 32.4433 0.7913 22.9477
7759 1 34.0259 2.3739 24.5303
7760 1 32.4433 0.7913 26.1129
7761 1 34.0259 2.3739 27.6955
7762 1 32.4433 0.7913 29.2781
7763 1 34.0259 2.3739 30.8607
7764 1 32.4433 0.7913 32.4433
7765 1 34.0259 2.3739 34.0259
7766 1 32.4433 3.9565 13.4521
7767 1 34.0259 5.5391 15.0347
7768 1 32.4433 3.9565 16.6173
7769 1 34.0259 5.5391 18.1999
7770 1 32.4433 3.9565 19.7825
7771 1 34.0259 5.5391 21.3651
7772 1 32.4433 3.9565 22.9477
7773 1 34.0259 5.5391 24.5303
7774 1 32.4433 3.9565 26.1129
7775 1 34.0259 5.5391 27.6955
7776 1 32.4433 3.9565 29.2781
7777 1 34.0259 5.5391 30.8607
7778 1 32.4433 3.9565 32.4433
7779 1 34.0259 5.5391 34.0259
7780 1 32.4433 7.1217 13.4521
7781 1 34.0259 8.7043 15.0347
7782 1 32.4433 7.1217 16.6173
7783 1 34.0259 8.7043 18.1999
7784 1 32.4433 7.1217 19.7825
7785 1 34.0259 8.7043 21.3651
7786 1 32.4433 7.1217 22.9477
7787 1 34.0259 8.7043 24.5303
7788 1 32.4433 7.1217 26.1129
7789 1 34.0259 8.7043 27.6955
7790 1 32.4433 7.1217 29.2781
7791 1 34.0259 8.7043 30.8607
7792 1 32.4433 7.1217 32.4433
7793 1 34.0259 8.7043 34.0259
7794 1 32.4433 10.2869 13.4521
7795 1 34.0259 11.8695 15.0347
7796 1 32.4433 10.2869 16.6173
7797 1 34.0259 11.8695 18.1999
7798 1 32.4433 10.2869 19.7825
7799 1 34.0259 11.8695 21.3651
7800 1 32.4433 10.2869 22.9477
7801 1 34.0259 11.8695 24.5303
7802 1 32.4433 10.2869 26.1129
7803 1 34.0259 11.8695 27.6955
7804 1 32.4433 10.2869 29.2781
7805 1 34.0259 11.8695 30.8607
7806 1 32.4433 10.2869 32.4433
7807 1 34.0259 11.8695 34.0259
7808 1 13.4521 38.7737 13.4521
7809 1 15.0347 40.3563 15.0347
7810 1 13.4521 38.7737 16.6173
7811 1 15.0347 40.3563 18.1999
7812 1 13.4521 38.7737 19.7825
7813 1 15.0347 40.3563 21.3651
7814 1 13.4521 38.7737 22.9477
7815 1 15.0347 40.3563 24.5303
7816 1 13.4521 38.7737 26.1129
7817 1 15.0347 40.3563 27.6955
7818 1 13.4521 38.7737 29.2781
7819 1 15.0347 40.3563 30.8607
7820 1 13.4521 38.7737 32.4433
7821 1 15.0347 40.3563 34.0259
7822 1 13.4521 41.9389 13.4521
7823 1 15.0347 43.5215 15.0347
7824 1 13.4521 41.9389 16.6173
7825 1 15.0347 43.5215 18.1999
7826 1 13.4521 41.9389 19.7825
7827 1 15.0347 43.5215 21.3651
7828 1 13.4521 41.9389 22.9477
7829 1 15.0347 43.5215 24.5303
7830 1 13.4521 41.9389 26.1129
7831 1 15.0347 43.5215 27.6955
7832 1 13.4521 41.9389 29.2781
7833 1 15.0347 43.5215 30.8607
7834 1 13.4521 41.9389 32.4433
7835 1 15.0347 43.5215 34.0259
7836 1 13.4521 45.1041 13.4521
7837 1 15.0347 46.6867 15.0347
7838 1 13.4521 45.1041 16.6173
7839 1 15.0347 46.6867 18.1999
7840 1 13.4521 45.1041 19.7825
7841 1 15.0347 46.6867 21.3651
7842 1 13.4521 45.1041 22.9477
7843 1 15.0347 46.6867 24.5303
7844 1 13.4521 45.1041 26.1129
7845 1 15.0347 46.6867 27.6955
7846 1 13.4521 45.1041 29.2781
7847 1 15.0347 46.6867 30.8607
7848 1 13.4521 45.1041 32.4433
7849 1 15.0347 46.6867 34.0259
7850 1 13.4521 48.2693 13.4521
7851 1 15.0347 49.8519 15.0347
7852 1 13.4521 48.2693 16.6173
7853 1 15.0347 49.8519 18.1999
7854 1 13.4521 48.2693 19.7825
7855 1 15.0347 49.8519 21.3651
7856 1 13.4521 48.2693 22.9477
7857 1 15.0347 49.8519 24.5303
7858 1 13.4521 48.2693 26.1129
7859 1 15.0347 49.8519 27.6955
7860 1 13.4521 48.2693 29.2781
7861 1 15.0347 49.8519 30.8607
7862 1 13.4521 48.2693 32.4433
7863 1 15.0347 49.8519 34.0259
7864 1 16.6173 38.7737 13.4521
7865 1 18.1999 40.3563 15.0347
7866 1 16.6173 38.7737 16.6173
7867 1 18.1999 40.3563 18.1999
7868 1 16.6173 38.7737 19.7825
7869 1 18.1999 40.3563 21.3651
7870 1 16.6173 38.7737 22.9477
7871 1 18.1999 40.3563 24.5303
7872 1 16.6173 38.7737 26.1129
7873 1 18.1999 40.3563 27.6955
7874 1 16.6173 38.7737 29.2781
7875 1 18.1999 40.3563 30.8607
7876 1 16.6173 38.7737 32.4433
7877 1 18.1999 40.3563 34.0259
7878 1 16.6173 41.9389 13.4521
7879 1 18.1999 43.5215 15.0347
7880 1 16.6173 41.9389 16.6173
7881 1 18.1999 43.5215 18.1999
7882 1 16.6173 41.9389 19.7825
7883 1 18.1999 43.5215 21.3651
7884 1 16.6173 41.9389 22.9477
7885 1 18.1999 43.5215 24.5303
7886 1 16.6173 41.9389 26.1129
7887 1 18.1999 43.5215 27.6955
7888 1 16.6173 41.9389 29.2781
7889 1 18.1999 43.5215 30.8607
7890 1 16.6173 41.9389 32.4433
7891 1 18.1999 43.5215 34.0259
7892 1 16.6173 45.1041 13.4521
7893 1 18.1999 46.6867 15.0347
7894 1 16.6173 45.1041 16.6173
7895 1 18.1999 46.6867 18.1999
7896 1 16.6173 45.1041 19.7825
7897 1 18.1999 46.6867 21.3651
7898 1 16.6173 45.1041 22.9477
7899 1 18.1999 46.6867 24.5303
7900 1 16.6173 45.1041 26.1129
7901 1 18.1999 46.6867 27.6955
7902 1 16.6173 45.1041 29.2781
7903 1 18.1999 46.6867 30.8607
7904 1 16.6173 45.1041 32.4433
7905 1 18.1999 46.6867 34.0259
7906 1 16.6173 48.2693 13.4521
7907 1 18.1999 49.8519 15.0347
7908 1 16.6173 48.2693 16.6173
7909 1 18.1999 49.8519 18.1999
7910 1 16.6173 48.2693 19.7825
7911 1 18.1999 49.8519 21.3651
7912 1 16.6173 48.2693 22.9477
7913 1 18.1999 49.8519 24.5303
7914 1 16.6173 48.2693 26.1129
7915 1 18.1999 49.8519 27.6955
7916 1 16.6173 48.2693 29.2781
7917 1 18.1999 49.8519 30.8607
7918 1 16.6173 48.2693 32.4433
7919 1 18.1999 49.8519 34.0259
7920 1 19.7825 38.7737 13.4521
7921 1 21.3651 40.3563 15.0347
7922 1 19.7825 38.7737 16.6173
7923 1 21.3651 40.3563 18.1999
7924 1 19.7825 38.7737 19.7825
7925 1 21.3651 40.3563 21.3651
7926 1 19.7825 38.7737 22.9477
7927 1 21.3651 40.3563 24.5303
7928 1 19.7825 38.7737 26.1129
7929 1 21.3651 40.3563 27.6955
7930 1 19.7825 38.7737 29.2781
7931 1 21.3651 40.3563 30.8607
7932 1 19.7825 38.7737 32.4433
7933 1 21.3651 40.3563 34.0259
7934 1 19.7825 41.9389 13.4521
7935 1 21.3651 43.5215 15.0347
7936 1 19.7825 41.9389 16.6173
7937 1 21.3651 43.5215 18.1999
7938 1 19.7825 41.9389 19.7825
7939 1 21.3651 43.5215 21.3651
7940 1 19.7825 41.9389 22.9477
7941 1 21.3651 43.5215 24.5303
7942 1 19.7825 41.9389 26.1129
7943 1 21.3651 43.5215 27.6955
7944 1 19.7825 41.9389 29.2781
7945 1 21.3651 43.5215 30.8607
7946 1 19.7825 41.9389 32.4433
7947 1 21.3651 43.5215 34.0259
7948 1 19.7825 45.1041 13.4521
7949 1 21.3651 46.6867 15.0347
7950 1 19.7825 45.1041 16.6173
7951 1 21.3651 46.6867 18.1999
7952 1 19.7825 45.1041 19.7825
7953 1 21.3651 46.6867 21.3651
7954 1 19.7825 45.1041 22.9477
7955 1 21.3651 46.6867 24.5303
7956 1 19.7825 45.1041 26.1129
7957 1 21.3651 46.6867 27.6955
7958 1 19.7825 45.1041 29.2781
7959 1 21.3651 46.6867 30.8607
7960 1 19.7825 45.1041 32.4433
7961 1 21.3651 46.6867 34.0259
7962 1 19.7825 48.2693 13.4521
7963 1 21.3651 49.8519 15.0347
7964 1 19.7825 48.2693 16.6173
7965 1 21.3651 49.8519 18.1999
7966 1 19.7825 48.2693 19.7825
7967 1 21.3651 49.8519 21.3651
7968 1 19.7825 48.2693 22.9477
7969 1 21.3651 49.8519 24.5303
7970 1 19.7825 48.2693 26.1129
7971 1 21.3651 49.8519 27.6955
7972 1 19.7825 48.2693 29.2781
7973 1 21.3651 49.8519 30.8607
7974 1 19.7825 48.2693 32.4433
7975 1 21.3651 49.8519 34.0259
7976 1 22.9477 38.7737 13.4521
7977 1 24.5303 40.3563 15.0347
7978 1 22.9477 38.7737 16.6173
7979 1 24.5303 40.3563 18.1999
7980 1 22.9477 38.7737 19.7825
7981 1 24.5303 40.3563 21.3651
7982 1 22.9477 38.7737 22.9477
7983 1 24.5303 40.3563 24.5303
7984 1 22.9477 38.7737 26.1129
7985 1 24.5303 40.3563 27.6955
7986 1 22.9477 38.7737 29.2781
7987 1 24.5303 40.3563 30.8607
7988 1 22.9477 38.7737 32.4433
7989 1 24.5303 40.3563 34.0259
7990 1 22.9477 41.9389 13.4521
7991 1 24.5303 43.5215 15.0347
7992 1 22.9477 41.9389 16.6173
7993 1 24.5303 43.5215 18.1999
7994 1 22.9477 41.9389 19.7825
7995 1 24.5303 43.5215 21.3651
7996 1 22.9477 41.9389 22.9477
7997 1 24.5303 43.5215 24.5303
7998 1 22.9477 41.9389 26.1129
7999 1 24.5303 43.5215 27.6955
8000 1 22.9477 41.9389 29.2781
8001 1 24.5303 43.5215 30.8607
8002 1 22.9477 41.9389 32.4433
8003 1 24.5303 43.5215 34.0259
8004 1 22.9477 45.1041 13.4521
8005 1 24.5303 46.6867 15.0347
8006 1 22.9477 45.1041 16.6173
8007 1 24.5303 46.6867 18.1999
8008 1 22.9477 45.1041 19.7825
8009 1 24.5303 46.6867 21.3651
8010 1 22.9477 45.1041 22.9477
8011 1 24.5303 46.6867 24.5303
8012 1 22.9477 45.1041 26.1129
8013 1 24.5303 46.6867 27.6955
8014 1 22.9477 45.1041 29.2781
8015 1 24.5303 46.6867 30.8607
8016 1 22.9477 45.1041 32.4433
8017 1 24.5303 46.6867 34.0259
8018 1 22.9477 48.2693 13.4521
8019 1 24.5303 49.8519 15.0347
8020 1 22.9477 48.2693 16.6173
8021 1 24.5303 49.8519 18.1999
8022 1 22.9477 48.2693 19.7825
8023 1 24.5303 49.8519 21.3651
8024 1 22.9477 48.2693 22.9477
8025 1 24.5303 49.8519 24.5303
8026 1 22.9477 48.2693 26.1129
8027 1 24.5303 49.8519 27.6955
8028 1 22.9477 48.2693 29.2781
8029 1 24.5303 49.8519 30.8607
8030 1 22.9477 48.2693 32.4433
8031 1 24.5303 49.8519 34.0259
8032 1 26.1129 38.7737 13.4521
8033 1 27.6955 40.3563 15.0347
8034 1 26.1129 38.7737 16.6173
8035 1 27.6955 40.3563 18.1999
8036 1 26.1129 38.7737 19.7825
8037 1 27.6955 40.3563 21.3651
8038 1 26.1129 38.7737 22.9477
8039 1 27.6955 40.3563 24.5303
8040 1 26.1129 38.7737 26.1129
8041 1 27.6955 40.3563 27.6955
8042 1 26.1129 38.7737 29.2781
8043 1 27.6955 40.3563 30.8607
8044 1 26.1129 38.7737 32.4433
8045 1 27.6955 40.3563 34.0259
8046 1 26.1129 41.9389 13.4521
8047 1 27.6955 43.5215 15.0347
8048 1 26.1129 41.9389 16.6173
8049 1 27.6955 43.5215 18.1999
8050 1 26.1129 41.9389 19.7825
8051 1 27.6955 43.5215 21.3651
8052 1 26.1129 41.9389 22.9477
8053 1 27.6955 43.5215 24.5303
8054 1 26.1129 41.9389 26.1129
8055 1 27.6955 43.5215 27.6955
8056 1 26.1129 41.9389 29.2781
8057 1 27.6955 43.5215 30.8607
8058 1 26.1129 41.9389 32.4433
8059 1 27.6955 43.5215 34.0259
8060 1 26.1129 45.1041 13.4521
8061 1 27.6955 46.6867 15.0347
8062 1 26.1129 45.1041 16.6173
8063 1 27.6955 46.6867 18.1999
8064 1 26.1129 45.1041 19.7825
8065 1 27.6955 46.6867 21.3651
8066 1 26.1129 45.1041 22.9477
8067 1 27.6955 46.6867 24.5303
8068 1 26.1129 45.1041 26.1129
8069 1 27.6955 46.6867 27.6955
8070 1 26.1129 45.1041 29.2781
8071 1 27.6955 46.6867 30.8607
8072 1 26.1129 45.1041 32.4433
8073 1 27.6955 46.6867 34.0259
8074 1 26.1129 48.2693 13.4521
8075 1 27.6955 49.8519 15.0347
8076 1 26.1129 48.2693 16.6173
8077 1 27.6955 49.8519 18.1999
8078 1 26.1129 48.2693 19.7825
8079 1 27.6955 49.8519 21.3651
8080 1 26.1129 48.2693 22.9477
8081 1 27.6955 49.8519 24.5303
8082 1 26.1129 48.2693 26.1129
8083 1 27.6955 49.8519 27.6955
8084 1 26.1129 48.2693 29.2781
8085 1 27.6955 49.8519 30.8607
8086 1 26.1129 48.2693 32.4433
8087 1 27.6955 49.8519 34.0259
8088 1 29.2781 38.7737 13.4521
8089 1 30.8607 40.3563 15.0347
8090 1 29.2781 38.7737 16.6173
8091 1 30.8607 40.3563 18.1999
8092 1 29.2781 38.7737 19.7825
8093 1 30.8607 40.3563 21.3651
8094 1 29.2781 38.7737 22.9477
8095 1 30.8607 40.3563 24.5303
8096 1 29.2781 38.7737 26.1129
8097 1 30.8607 40.3563 27.6955
8098 1 29.2781 38.7737 29.2781
8099 1 30.8607 40.3563 30.8607
8100 1 29.2781 38.7737 32.4433
8101 1 30.8607 40.3563 34.0259
8102 1 29.2781 41.9389 13.4521
8103 1 30.8607 43.5215 15.0347
8104 1 29.2781 41.9389 16.6173
8105 1 30.8607 43.5215 18.1999
8106 1 29.2781 41.9389 19.7825
8107 1 30.8607 43.5215 21.3651
8108 1 29.2781 41.9389 22.9477
8109 1 30.8607 43.5215 24.5303
8110 1 29.2781 41.9389 26.1129
8111 1 30.8607 43.5215 27.6955
8112 1 29.2781 41.9389 29.2781
8113 1 30.8607 43.5215 30.8607
8114 1 29.2781 41.9389 32.4433
8115 1 30.8607 43.5215 34.0259
8116 1 29.2781 45.1041 13.4521
8117 1 30.8607 46.6867 15.0347
8118 1 29.2781 45.1041 16.6173
8119 1 30.8607 46.6867 18.1999
8120 1 29.2781 45.1041 19.7825
8121 1 30.8607 46.6867 21.3651
8122 1 29.2781 45.1041 22.9477
8123 1 30.8607 46.6867 24.5303
8124 1 29.2781 45.1041 26.1129
8125 1 30.8607 46.6867 27.6955
8126 1 29.2781 45.1041 29.2781
8127 1 30.8607 46.6867 30.8607
8128 1 29.2781 45.1041 32.4433
8129 1 30.8607 46.6867 34.0259
8130 1 29.2781 48.2693 13.4521
8131 1 30.8607 49.8519 15.0347
8132 1 29.2781 48.2693 16.6173
8133 1 30.8607 49.8519 18.1999
8134 1 29.2781 48.2693 19.7825
8135 1 30.8607 49.8519 21.3651
8136 1 29.2781 48.2693 22.9477
8137 1 30.8607 49.8519 24.5303
8138 1 29.2781 48.2693 26.1129
8139 1 30.8607 49.8519 27.6955
8140 1 29.2781 48.2693 29.2781
8141 1 30.8607 49.8519 30.8607
8142 1 29.2781 48.2693 32.4433
8143 1 30.8607 49.8519 34.0259
8144 1 32.4433 38.7737 13.4521
8145 1 34.0259 40.3563 15.0347
8146 1 32.4433 38.7737 16.6173
8147 1 34.0259 40.3563 18.1999
8148 1 32.4433 38.7737 19.7825
8149 1 34.0259 40.3563 21.3651
8150 1 32.4433 38.7737 22.9477
8151 1 34.0259 40.3563 24.5303
8152 1 32.4433 38.7737 26.1129
8153 1 34.0259 40.3563 27.6955
8154 1 32.4433 38.7737 29.2781
8155 1 34.0259 40.3563 30.8607
8156 1 32.4433 38.7737 32.4433
8157 1 34.0259 40.3563 34.0259
8158 1 32.4433 41.9389 13.4521
8159 1 34.0259 43.5215 15.0347
8160 1 32.4433 41.9389 16.6173
8161 1 34.0259 43.5215 18.1999
8162 1 32.4433 41.9389 19.7825
8163 1 34.0259 43.5215 21.3651
8164 1 32.4433 41.9389 22.9477
8165 1 34.0259 43.5215 24.5303
8166 1 32.4433 41.9389 26.1129
8167 1 34.0259 43.5215 27.6955
8168 1 32.4433 41.9389 29.2781
8169 1 34.0259 43.5215 30.8607
8170 1 32.4433 41.9389 32.4433
8171 1 34.0259 43.5215 34.0259
8172 1 32.4433 45.1041 13.4521
8173 1 34.0259 46.6867 15.0347
8174 1 32.4433 45.1041 16.6173
8175 1 34.0259 46.6867 18.1999
8176 1 32.4433 45.1041 19.7825
8177 1 34.0259 46.6867 21.3651
8178 1 32.4433 45.1041 22.9477
8179 1 34.0259 46.6867 24.5303
8180 1 32.4433 45.1041 26.1129
8181 1 34.0259 46.6867 27.6955
8182 1 32.4433 45.1041 29.2781
8183 1 34.0259 46.6867 30.8607
8184 1 32.4433 45.1041 32.4433
8185 1 34.0259 46.6867 34.0259
8186 1 32.4433 48.2693 13.4521
8187 1 34.0259 49.8519 15.0347
8188 1 32.4433 48.2693 16.6173
8189 1 34.0259 49.8519 18.1999
8190 1 32.4433 48.2693 19.7825
8191 1 34.0259 49.8519 21.3651
8192 1 32.4433 48.2693 22.9477
8193 1 34.0259 49.8519 24.5303
8194 1 32.4433 48.2693 26.1129
8195 1 34.0259 49.8519 27.6955
8196 1 32.4433 48.2693 29.2781
8197 1 34.0259 49.8519 30.8607
8198 1 32.4433 48.2693 32.4433
8199 1 34.0259 49.8519 34.0259
