./desired/DD-Bjorkas/24_17/112_34/cluster.dat


31271 atoms
0 bonds
0 angles
0 dihedrals
0 impropers

2 atom types
0 bond types
0 angle types
0 dihedral types
0 improper types


0.000      79.13 xlo xhi
0.000      79.13 ylo yhi
0.000      79.13 zlo zhi


Atoms

1 1 26.1189 48.4496 29.2794
2 1 26.2156 48.3673 45.1546
3 1 26.2055 48.3746 48.3239
4 1 26.1484 51.5879 29.3041
5 1 26.1774 51.5741 32.4848
6 1 27.7422 49.9889 34.0709
7 1 26.1978 51.5656 35.6692
8 1 26.1955 48.3775 38.8383
9 1 26.208 51.5424 38.8401
10 1 26.2156 51.5149 41.9835
11 1 26.2049 51.5308 45.1658
12 1 26.2038 51.5359 48.3436
13 1 26.1637 54.7175 29.3321
14 1 26.1963 54.7261 32.4901
15 1 26.1867 54.7005 35.6698
16 1 26.2012 54.69 38.8235
17 1 26.2136 54.6948 42.0078
18 1 26.2194 54.6918 45.1508
19 1 26.2186 54.695 48.3419
20 1 29.2646 48.453 29.2482
21 1 27.7032 50.0229 30.8681
22 1 26.1787 48.404 35.6571
23 1 27.7804 49.9645 37.2504
24 1 27.7955 49.9316 40.417
25 1 29.3748 51.5238 42.0111
26 1 27.8001 49.9393 43.5831
27 1 29.3778 51.5372 45.1845
28 1 27.7823 49.952 46.7588
29 1 27.7782 49.9532 49.9234
30 1 27.7534 53.1737 30.9011
31 1 27.7706 53.1512 34.0875
32 1 29.3734 54.7081 35.6743
33 1 27.7724 53.1227 37.2639
34 1 29.372 54.6932 38.8348
35 1 27.7756 53.1148 40.424
36 1 27.7922 53.1234 43.5853
37 1 29.379 54.6944 45.1717
38 1 27.787 53.1093 46.7571
39 1 29.369 54.7084 48.3443
40 1 27.7955 53.1359 49.9209
41 1 27.7808 56.2899 34.0934
42 1 27.7941 56.274 40.4331
43 1 27.7925 56.2831 46.757
44 1 27.7878 56.2777 49.9265
45 1 26.1384 48.4335 32.47
46 1 27.7966 56.2982 30.9334
47 1 27.794 56.2586 43.5802
48 1 27.7997 56.2784 37.2587
49 1 29.3652 51.542 38.8288
50 1 29.372 48.3637 38.8148
51 1 29.3236 51.5851 29.3007
52 1 29.3508 51.5462 35.6695
53 1 29.3679 48.3769 41.9914
54 1 29.3511 54.724 29.3294
55 1 29.3214 48.3984 35.6452
56 1 29.37 51.5479 48.3398
57 1 29.3724 54.6966 42.0124
58 1 29.354 48.3809 48.3637
59 1 29.3475 54.7258 32.5092
60 1 29.3532 48.3835 45.1694
61 1 29.3264 51.581 32.4961
62 1 29.2718 48.459 32.4529
63 1 26.2234 48.372 41.9877
64 1 32.5432 51.5112 35.6626
65 1 32.5162 48.348 38.8213
66 1 32.5078 48.386 42.0117
67 1 32.495 48.4181 45.2234
68 1 32.5299 48.4059 48.3831
69 1 32.4882 51.5766 29.3058
70 1 32.5152 51.5292 32.4998
71 1 30.9129 49.9805 34.0609
72 1 32.5294 54.6745 35.6675
73 1 30.9206 49.96 37.249
74 1 32.5462 51.498 38.8314
75 1 30.9589 49.9457 40.425
76 1 32.5548 51.5085 42.0094
77 1 30.9526 49.9502 43.584
78 1 32.5334 51.5548 45.1848
79 1 30.9457 49.9823 46.7772
80 1 32.5362 51.5671 48.3625
81 1 30.9466 49.9681 49.9439
82 1 32.5063 54.6929 29.3444
83 1 30.8757 50.017 30.8569
84 1 30.9421 53.1413 30.9176
85 1 30.9446 53.1172 34.0823
86 1 30.9609 53.1025 37.2404
87 1 32.5462 54.675 38.8423
88 1 30.9705 53.1011 40.4246
89 1 32.5499 54.682 42.0067
90 1 30.947 53.1149 43.5961
91 1 32.5441 54.6943 45.1911
92 1 30.9532 53.1207 46.7655
93 1 32.5434 54.7103 48.3512
94 1 30.9468 53.1175 49.9379
95 1 30.9353 56.2958 30.9172
96 1 30.9458 56.2627 37.2643
97 1 30.9671 56.268 40.4198
98 1 30.9578 56.2638 43.5932
99 1 30.9629 56.2904 46.7463
100 1 30.9575 56.2825 49.928
101 1 35.7138 48.254 35.6746
102 1 35.7285 48.2901 38.8432
103 1 35.728 48.3111 42.0209
104 1 35.7083 48.4209 45.2624
105 1 35.6867 48.4378 48.4222
106 1 35.6745 51.5189 29.3279
107 1 34.0805 49.9073 30.8784
108 1 35.6896 51.4754 32.5064
109 1 34.095 49.8747 34.0607
110 1 35.6987 51.4508 35.6704
111 1 34.1293 49.8991 37.2514
112 1 35.7033 51.4667 38.8428
113 1 34.1388 49.9148 40.4116
114 1 35.7118 51.4991 42.0318
115 1 34.1072 49.8827 43.6125
116 1 35.7108 51.5434 45.2076
117 1 34.1093 49.9713 46.8015
118 1 35.7104 51.5749 48.3969
119 1 34.1287 49.9813 49.9678
120 1 35.685 54.6922 29.3612
121 1 34.0986 53.098 30.917
122 1 35.6921 54.6641 32.5115
123 1 34.1063 53.0655 34.0915
124 1 35.7052 54.6621 35.6815
125 1 34.1267 53.0698 37.2676
126 1 35.6965 54.6612 38.8418
127 1 34.1287 53.0899 40.4353
128 1 35.7128 54.662 42.0147
129 1 34.1409 53.0969 43.608
130 1 35.7075 54.696 45.1955
131 1 34.1121 53.1323 46.7712
132 1 35.7131 54.7158 48.35
133 1 34.1211 53.1426 49.955
134 1 32.5313 54.6767 32.5025
135 1 34.1293 56.2469 37.2718
136 1 34.1238 56.2628 43.5928
137 1 34.1208 56.2789 46.7595
138 1 34.1174 56.3084 49.9395
139 1 37.2481 49.8766 30.9003
140 1 37.2781 49.851 34.1025
141 1 37.2786 49.8387 37.2763
142 1 37.3006 49.9206 40.4506
143 1 37.287 49.93 43.6527
144 1 37.2952 50.0137 46.8406
145 1 37.2879 50.0015 49.9955
146 1 37.268 53.0822 30.9346
147 1 37.2804 53.0526 34.1059
148 1 37.2989 53.0489 37.2673
149 1 37.296 53.0719 40.4455
150 1 37.3059 53.0846 43.6135
151 1 37.2995 53.1514 46.8038
152 1 37.2925 53.1406 49.9575
153 1 37.2596 56.2491 30.9441
154 1 37.2745 56.2416 34.0989
155 1 37.2878 56.2424 37.2752
156 1 37.289 56.2474 40.4336
157 1 37.2958 56.2775 43.5909
158 1 37.3 56.2796 46.7744
159 1 37.285 56.2881 49.9407
160 1 35.6285 48.433 29.2515
161 1 32.4544 48.3748 35.6229
162 1 32.3929 48.4727 32.4413
163 1 35.6594 48.3216 32.4762
164 1 34.1191 56.2484 40.4288
165 1 30.9455 56.2623 34.1108
166 1 34.1176 56.2623 34.1051
167 1 34.1074 56.27 30.9463
168 1 32.4097 48.4587 29.2429
169 1 38.8767 51.4738 38.8606
170 1 38.8767 51.5858 48.3998
171 1 38.8621 54.6502 38.8529
172 1 38.8884 54.6922 45.2018
173 1 38.9064 48.4591 48.4405
174 1 38.8527 54.6474 32.5301
175 1 38.8716 54.6717 42.0249
176 1 38.8379 48.2468 32.5236
177 1 38.8483 48.4088 29.2845
178 1 38.8479 54.6387 35.6937
179 1 38.8707 51.522 45.239
180 1 38.83 51.5189 29.3522
181 1 38.8264 51.4726 32.5249
182 1 38.8536 54.6804 29.3512
183 1 38.8416 51.444 35.6902
184 1 38.8769 48.2802 38.9031
185 1 38.8678 51.4672 42.0444
186 1 38.862 48.1812 35.69
187 1 38.867 54.7321 48.3666
188 1 38.9363 48.5607 45.312
189 1 39.036 48.5905 42.1727
190 1 42.0235 48.4017 29.3262
191 1 41.9976 48.3373 32.5377
192 1 41.9735 48.2919 35.7241
193 1 42.0647 48.3547 38.9223
194 1 42.1359 48.4533 42.1284
195 1 42.1348 48.5015 45.3104
196 1 42.1062 48.4837 48.4629
197 1 42.0052 51.5218 29.3553
198 1 40.4368 49.9363 30.9246
199 1 42.0091 51.488 32.5451
200 1 40.426 49.8527 34.115
201 1 42.0201 51.4811 35.7048
202 1 40.4414 49.8643 37.284
203 1 42.0404 51.5102 38.8621
204 1 40.4964 49.9559 40.4476
205 1 42.1069 51.5648 42.0316
206 1 40.5656 50.1134 43.6828
207 1 42.1035 51.6157 45.2714
208 1 40.5067 50.0419 46.8758
209 1 42.0871 51.6215 48.425
210 1 40.4826 50.0352 50.0191
211 1 42.0028 54.6706 29.3571
212 1 40.4299 53.0922 30.9534
213 1 42.0133 54.6681 32.533
214 1 40.4212 53.0673 34.1159
215 1 42.0093 54.6512 35.6998
216 1 40.4375 53.0642 37.2751
217 1 42.0252 54.6847 38.8659
218 1 40.4484 53.0985 40.4422
219 1 42.0445 54.6921 42.0287
220 1 40.4543 53.069 43.6372
221 1 42.0448 54.7412 45.215
222 1 40.4655 53.1717 46.7949
223 1 42.0429 54.7452 48.3889
224 1 40.473 53.1637 49.9844
225 1 40.4204 56.2504 30.9466
226 1 40.431 56.2483 34.0986
227 1 40.4413 56.2419 37.2805
228 1 40.4402 56.2644 40.4375
229 1 40.4468 56.2763 43.6159
230 1 40.4547 56.2969 46.7771
231 1 40.4746 56.315 49.9601
232 1 45.1832 48.3705 29.351
233 1 45.1821 48.3431 32.5417
234 1 45.1833 48.3465 35.7242
235 1 45.2172 48.3836 38.9043
236 1 45.2873 48.4388 42.1093
237 1 45.3025 48.4607 45.2809
238 1 45.2878 48.4721 48.4648
239 1 45.1821 51.5118 29.3614
240 1 43.5879 49.9431 30.9518
241 1 45.1731 51.5079 32.5438
242 1 43.5919 49.9247 34.1235
243 1 45.1776 51.5164 35.708
244 1 43.5939 49.9268 37.2972
245 1 45.2104 51.5366 38.8726
246 1 43.6514 49.975 40.4886
247 1 45.2172 51.5739 42.0509
248 1 43.687 50.0366 43.6544
249 1 45.2569 51.6346 45.2463
250 1 43.6925 50.0696 46.8794
251 1 45.2476 51.6171 48.4149
252 1 43.6725 50.0253 50.0076
253 1 45.175 54.6926 29.3737
254 1 43.5955 53.0954 30.944
255 1 45.1774 54.6782 32.5351
256 1 43.5907 53.0832 34.1128
257 1 45.1815 54.6768 35.6921
258 1 43.6035 53.0952 37.2763
259 1 45.2037 54.6954 38.8712
260 1 43.6259 53.1328 40.4485
261 1 45.2119 54.7254 42.0301
262 1 43.6503 53.158 43.6327
263 1 45.2343 54.7442 45.2168
264 1 43.6662 53.1861 46.8144
265 1 45.2207 54.7478 48.3958
266 1 43.6434 53.1778 49.9705
267 1 43.6087 56.2639 30.9445
268 1 43.6061 56.2465 34.1165
269 1 43.5886 56.2604 37.2699
270 1 43.6056 56.2737 40.4467
271 1 43.6228 56.3096 43.6
272 1 43.6226 56.3208 46.7822
273 1 43.6357 56.3232 49.9534
274 1 46.754 49.9407 30.9539
275 1 46.7594 49.9303 34.1195
276 1 46.7756 49.9355 37.2942
277 1 46.8186 49.9796 40.4609
278 1 46.8544 50.0222 43.6523
279 1 46.8784 50.0645 46.8567
280 1 46.8477 50.0325 50.0109
281 1 46.7542 53.1013 30.9557
282 1 46.7629 53.0951 34.1181
283 1 46.768 53.0963 37.2822
284 1 46.7921 53.1322 40.4412
285 1 46.8184 53.1636 43.6439
286 1 46.8179 53.1843 46.794
287 1 46.8236 53.1903 49.9851
288 1 46.7645 56.2588 30.9448
289 1 46.7558 56.266 34.1209
290 1 46.7711 56.2903 37.2666
291 1 46.7739 56.2765 40.4478
292 1 46.7985 56.3178 43.5953
293 1 46.7945 56.3346 46.7919
294 1 46.7957 56.3116 49.9603
295 1 48.3345 48.3613 29.373
296 1 48.3372 48.3556 32.5465
297 1 48.3524 48.3739 38.8912
298 1 48.414 48.4073 42.0619
299 1 48.4629 48.4586 45.2607
300 1 48.4548 48.4673 48.4491
301 1 48.3462 51.5246 29.375
302 1 48.3376 51.5187 32.5434
303 1 48.3434 51.5305 35.7064
304 1 48.3716 51.5554 38.8609
305 1 48.3994 51.5724 42.0513
306 1 48.4263 51.6082 45.2363
307 1 48.4024 51.6087 48.3977
308 1 48.3403 54.6852 29.3599
309 1 48.3552 54.6751 32.5383
310 1 48.3532 54.6879 35.696
311 1 48.3685 54.7075 38.8664
312 1 48.381 54.7357 45.1922
313 1 48.3947 54.7458 48.3871
314 1 49.9145 49.9446 30.9574
315 1 49.9147 49.9358 34.127
316 1 49.9388 49.9494 37.2825
317 1 49.972 49.9899 40.4589
318 1 49.9971 50.0103 43.6383
319 1 50.0158 50.0324 46.8258
320 1 50.0128 50.0179 49.9906
321 1 49.9109 53.0813 30.9366
322 1 49.9252 53.1062 34.115
323 1 49.9465 53.109 37.2852
324 1 49.9695 53.1295 40.4475
325 1 49.964 53.1553 43.632
326 1 49.9817 53.1608 46.8049
327 1 49.9889 53.1805 49.9659
328 1 49.9331 56.2901 30.9362
329 1 49.9259 56.2729 34.1118
330 1 49.9292 56.2654 37.2703
331 1 49.9487 56.2994 40.4403
332 1 49.9632 56.3173 43.6005
333 1 49.9762 56.3354 46.7843
334 1 49.9779 56.3313 49.9586
335 1 48.376 54.7281 42.0213
336 1 48.3382 48.3485 35.712
337 1 26.2972 38.8403 45.11
338 1 26.2039 45.1861 48.3209
339 1 25.9407 38.8745 29.1648
340 1 29.1509 38.8877 35.3923
341 1 27.4537 40.486 30.7096
342 1 26.1236 38.8909 32.3836
343 1 27.6945 40.5048 33.9186
344 1 27.8853 40.4652 37.1561
345 1 27.8849 40.4421 40.36
346 1 26.2235 42.0306 48.3001
347 1 26.0755 45.3039 29.2151
348 1 25.9766 42.0826 29.1934
349 1 26.1565 42.1017 32.4327
350 1 27.8534 43.596 40.3731
351 1 26.2381 45.1875 38.7965
352 1 27.8413 43.603 43.5447
353 1 26.2339 45.1722 45.1362
354 1 27.8074 43.6021 46.7275
355 1 27.8267 40.4578 49.9033
356 1 29.0986 38.8521 29.2419
357 1 29.1438 42.0858 29.2528
358 1 27.8055 43.6356 37.1945
359 1 29.381 38.8841 48.33
360 1 27.8043 43.6191 49.9199
361 1 29.0465 42.1119 32.2162
362 1 27.7435 43.6862 34.0105
363 1 26.243 45.1778 41.9846
364 1 27.9022 40.4241 43.5258
365 1 26.2677 42.0172 45.1359
366 1 26.1856 45.2311 35.6308
367 1 26.2697 42.0155 38.7793
368 1 26.2012 42.0661 35.6032
369 1 26.2423 38.863 48.3073
370 1 27.5347 43.7149 30.7598
371 1 27.8503 40.45 46.7164
372 1 27.8016 46.7778 40.3942
373 1 29.2043 45.2893 29.2294
374 1 29.3793 45.205 45.1764
375 1 27.799 46.7943 49.9327
376 1 29.2922 45.2593 35.5966
377 1 26.1915 45.303 32.4609
378 1 26.2929 42.0077 41.9593
379 1 27.7956 46.7759 43.5799
380 1 29.3602 42.0398 48.3404
381 1 29.3902 45.1815 41.9733
382 1 27.7042 46.8851 34.0524
383 1 27.6455 46.9043 30.8047
384 1 29.3716 45.2291 48.3425
385 1 27.8017 46.7869 46.7407
386 1 29.2943 42.0796 35.4763
387 1 27.7837 46.7947 37.2197
388 1 29.1087 45.3235 32.3574
389 1 29.5281 38.8471 45.1173
390 1 28.9661 38.8418 32.1551
391 1 26.3073 38.8561 41.9483
392 1 26.2814 38.8663 38.7734
393 1 26.2712 38.8884 35.5973
394 1 29.3829 45.1776 38.7811
395 1 29.4703 42.0199 41.9628
396 1 29.4768 38.8287 38.7073
397 1 29.4269 42.036 45.1361
398 1 29.4734 42.0538 38.7395
399 1 29.5593 38.8585 41.9263
400 1 32.4188 38.8772 45.2734
401 1 32.5159 38.8996 48.3978
402 1 33.8636 40.4616 30.6522
403 1 30.6435 40.4673 30.7639
404 1 33.9065 43.7129 30.7103
405 1 33.7514 40.3921 33.5276
406 1 33.844 43.6842 33.6124
407 1 32.7221 42.0511 41.9588
408 1 32.487 42.1236 45.2251
409 1 30.9579 40.4827 46.7926
410 1 32.5181 42.0901 48.3869
411 1 30.9522 40.4673 49.9456
412 2 34.9064 44.451 37.9615
413 1 32.4752 45.1485 38.7379
414 1 31.0168 43.6053 40.4014
415 1 32.5282 45.2399 42.0762
416 1 31.0125 43.6091 43.5456
417 1 32.5032 45.2787 45.215
418 1 30.9461 43.6793 46.7915
419 1 32.5216 45.2543 48.3801
420 1 30.9544 43.6512 49.9612
421 1 32.0535 38.7781 35.018
422 1 35.8433 38.9109 42.9052
423 1 35.6411 38.9201 48.4018
424 1 38.7177 38.8684 29.1123
425 1 37.0886 40.4571 30.6112
426 1 32.2853 42.1053 29.2823
427 1 33.5887 40.3198 36.3952
428 1 32.2238 38.5539 38.1304
429 2 33.5078 39.9157 39.5624
430 1 32.6806 42.3115 38.7917
431 1 35.8196 42.1347 42.7381
432 1 34.02 40.5101 43.91
433 1 35.6918 42.1607 45.4618
434 1 34.0452 40.5123 46.8112
435 1 35.68 42.1377 48.3585
436 1 34.1171 40.492 49.9654
437 1 35.4861 42.0816 32.0836
438 1 37.0641 43.7929 33.606
439 1 36.8932 43.5315 36.3503
440 1 32.4084 45.2701 35.4356
441 1 34.2606 43.9344 40.5601
442 2 37.0072 43.2116 38.9503
443 1 36.2287 45.6825 39.5482
444 1 35.7554 45.4169 42.3323
445 1 34.0893 43.7601 43.7467
446 1 35.7019 45.3741 45.2426
447 1 34.0815 43.7582 46.8406
448 1 35.7079 45.2952 48.4151
449 1 34.1222 43.674 49.9691
450 1 35.5134 45.4004 32.1981
451 1 35.3577 38.7902 34.8851
452 2 35.3435 41.5593 40.3377
453 1 35.6877 38.8954 45.5591
454 1 37.321 40.5366 47.0338
455 1 37.2705 40.5226 49.9126
456 1 35.5273 42.0727 29.1698
457 2 35.2848 41.6904 37.7141
458 2 37.4444 43.724 41.2494
459 1 37.3858 43.7896 43.9915
460 1 37.3203 43.79 46.8509
461 1 37.3024 43.6953 49.9727
462 1 35.5521 45.3297 29.3083
463 1 30.6898 43.7344 30.8215
464 2 33.6017 43.2085 36.4105
465 1 35.3811 41.9436 34.8928
466 1 31.0793 40.4732 40.3195
467 1 32.3377 45.3106 29.3026
468 2 35.4092 38.8476 37.7203
469 1 37.1208 43.7211 30.6835
470 1 32.1019 41.9699 34.9957
471 1 37.2998 46.5336 37.2452
472 2 35.7143 38.8203 40.3868
473 1 37.2521 46.6279 34.0527
474 1 34.1224 46.8278 49.9675
475 1 32.3291 45.3518 32.2336
476 1 37.3256 46.9131 46.864
477 1 34.0965 46.8714 46.8433
478 1 34.0665 46.8167 37.2143
479 1 35.2479 45.1816 35.3225
480 1 37.309 46.8489 50.0125
481 1 32.1904 38.8222 32.118
482 1 34.0684 46.943 43.6782
483 1 37.4061 40.5361 44.2329
484 1 37.4028 47.0143 43.7272
485 2 37.4969 40.5096 41.5073
486 1 34.0375 46.7481 40.4177
487 1 30.9274 46.7905 37.2009
488 1 35.4322 38.7965 32.0322
489 1 30.9267 46.8196 46.7979
490 1 32.2487 42.0861 32.164
491 1 37.0093 40.4097 33.3942
492 2 37.2904 40.4242 38.9018
493 2 37.0438 40.3464 36.1745
494 1 30.9409 46.818 49.9597
495 1 37.1981 46.9566 30.7939
496 1 30.9423 46.8179 43.5922
497 1 30.9443 46.7776 40.3893
498 1 37.7257 46.8954 40.916
499 1 38.6886 38.799 31.9574
500 1 33.9528 46.9486 33.9165
501 1 32.2516 38.839 29.2841
502 1 35.5065 38.8639 29.1516
503 1 33.9707 47.0 30.7887
504 1 30.8302 46.8744 33.9659
505 1 30.6514 43.7428 33.7486
506 1 30.7745 46.9118 30.814
507 1 31.1305 40.4337 43.5199
508 1 30.9329 43.6014 37.0571
509 1 30.5174 40.4135 33.6178
510 1 38.6284 38.7411 34.7314
511 1 32.7916 38.8312 41.954
512 1 38.7573 42.0533 29.1722
513 1 30.8084 40.4583 36.9253
514 1 38.6937 42.0952 32.0362
515 1 38.6111 42.0117 34.7765
516 1 38.8035 45.3009 29.3197
517 1 38.7503 45.3866 32.1865
518 2 38.7246 38.7498 37.4707
519 2 38.7913 42.0487 37.3665
520 1 38.9132 45.307 48.4522
521 1 38.9265 42.1632 48.4046
522 1 38.9582 45.0927 39.1212
523 1 38.924 38.9216 48.5314
524 1 38.9704 45.4063 45.3184
525 1 38.9976 42.1716 45.5631
526 2 38.9851 38.8442 40.1688
527 1 39.0069 38.9391 45.7067
528 2 40.2646 40.335 36.0202
529 2 42.1895 38.8287 39.993
530 1 42.3278 38.9247 42.7867
531 1 42.2618 38.9377 45.6578
532 1 42.1794 38.9491 48.5183
533 1 42.0247 42.0757 29.3187
534 1 43.6163 40.461 30.8271
535 1 40.4014 43.6883 30.7152
536 1 41.2802 42.64 35.2887
537 2 40.478 40.4077 38.635
538 1 42.376 41.9915 39.3559
539 1 40.6781 40.474 41.3801
540 1 42.327 42.1606 42.4932
541 1 40.6974 40.5824 44.2037
542 1 42.2597 42.1892 45.5761
543 1 40.5845 40.5557 47.0653
544 1 42.1561 42.172 48.4462
545 1 40.5269 40.5649 49.9474
546 1 42.0368 45.2458 29.2963
547 1 42.0377 45.2401 32.4324
548 1 41.9545 42.1054 32.2081
549 1 42.0062 45.193 35.7582
550 1 40.8066 43.5471 37.7318
551 1 40.5039 46.6945 37.4139
552 1 40.6951 43.6817 40.859
553 1 42.2164 45.3172 42.2887
554 1 40.6882 43.7824 44.0487
555 1 42.2148 45.391 45.4143
556 1 40.5606 43.8187 46.9087
557 1 42.1204 45.3408 48.481
558 1 40.5168 43.7008 50.0115
559 1 43.4779 40.7275 33.9501
560 1 45.0609 39.1533 35.4146
561 1 45.5128 38.6958 39.6328
562 1 45.5195 38.9711 42.5207
563 1 45.4755 38.9462 45.583
564 1 45.4329 38.9659 48.4382
565 1 45.1825 38.8778 29.3172
566 1 45.1969 42.0452 29.317
567 1 45.1925 42.0595 32.4829
568 2 42.814 41.1457 36.6827
569 1 45.1957 41.9952 35.7522
570 2 44.2498 39.7638 37.8871
571 1 45.1991 41.9717 39.0459
572 1 43.8889 40.4987 41.0085
573 1 45.4624 42.1028 42.3454
574 1 43.897 40.5807 44.1242
575 1 45.4135 42.1872 45.5242
576 1 43.8292 40.571 47.0346
577 1 45.4112 42.1542 48.431
578 1 43.7773 40.5454 49.9499
579 1 45.1974 45.2305 29.3407
580 1 43.6281 43.6771 30.878
581 1 45.1814 45.1927 32.5337
582 1 43.5141 43.5596 34.1017
583 1 45.1501 45.1611 35.7406
584 1 43.6355 43.6063 37.377
585 1 45.161 45.2098 38.9412
586 1 43.8822 43.6723 40.7313
587 1 45.3305 45.3055 42.2093
588 1 43.8366 43.7502 43.9083
589 1 45.3508 45.3512 45.383
590 1 43.7867 43.7978 47.0405
591 1 45.3395 45.3594 48.5112
592 1 43.7296 43.7227 49.9673
593 1 43.6312 46.8079 30.9073
594 1 43.5773 46.7321 34.1252
595 1 42.2283 45.2455 39.0876
596 1 43.7007 46.8911 50.0526
597 1 47.0607 40.5722 46.9101
598 1 46.9371 40.5247 50.0127
599 1 46.7633 43.6569 40.5586
600 1 46.95 43.7612 43.8176
601 1 46.9847 43.7675 46.9332
602 1 46.889 43.7072 50.0293
603 1 46.7502 46.7633 34.1416
604 1 46.8293 46.8365 40.4982
605 1 46.8938 46.9043 43.7135
606 1 46.8977 46.9017 46.8923
607 1 46.8742 46.8934 50.0499
608 1 40.2348 43.7563 33.5578
609 1 40.2868 40.4328 33.3937
610 1 43.6207 46.7721 37.3314
611 1 43.7423 46.9371 46.927
612 1 46.7642 46.7559 37.3126
613 1 43.7586 46.9222 43.7667
614 1 40.6159 46.9822 43.7857
615 1 40.5394 46.9559 46.9056
616 1 40.5335 46.8179 40.6204
617 1 40.4917 46.8715 50.0365
618 1 46.7315 43.5938 37.3455
619 1 43.722 46.8796 40.5763
620 1 40.4651 46.846 30.863
621 1 40.3825 46.6442 34.0853
622 1 46.7457 43.604 34.1432
623 1 46.7741 40.3864 37.3614
624 1 46.7692 43.6383 30.935
625 1 47.0345 40.5522 43.9869
626 1 47.0102 40.5283 40.6911
627 1 46.7709 40.4596 30.9147
628 1 46.7864 40.514 34.0692
629 1 46.7444 46.7698 30.9506
630 1 40.3589 40.4522 30.625
631 1 42.0188 38.8432 29.2712
632 2 41.8969 38.7056 37.3326
633 1 41.9096 38.7332 34.7146
634 1 41.9414 38.8252 32.0659
635 1 45.1139 38.939 32.5052
636 1 39.1707 44.9008 35.8882
637 2 39.1425 42.0917 40.0154
638 1 39.1017 45.3078 42.4683
639 1 39.1019 38.9295 42.9411
640 1 39.089 42.182 42.7218
641 1 48.6486 38.9877 42.3191
642 1 48.7276 38.9617 45.5123
643 1 48.6001 38.9734 48.4395
644 1 48.436 42.1538 42.2123
645 1 48.5492 42.1422 48.4875
646 1 48.351 45.1786 29.3682
647 1 48.3523 45.2144 38.9167
648 1 48.4186 45.2876 42.0997
649 1 48.5006 45.3352 45.3065
650 1 48.5055 45.3241 48.4839
651 1 49.9066 40.4475 30.9584
652 1 49.8677 40.4075 34.1538
653 1 49.8465 40.3945 37.3411
654 1 49.8939 40.5061 40.5135
655 1 50.1475 40.5686 43.75
656 1 50.2225 40.5736 46.9607
657 1 50.0929 40.5214 50.067
658 1 49.9179 43.612 30.9545
659 1 49.905 43.6169 34.1453
660 1 49.9094 43.6041 37.3264
661 1 49.9478 43.6555 40.4876
662 1 50.0504 43.7343 43.6828
663 1 50.0881 43.7533 46.8981
664 1 50.0667 43.7161 50.0663
665 1 49.9316 46.7734 30.9503
666 1 49.9629 46.8121 40.472
667 1 50.0204 46.8747 43.6657
668 1 50.0482 46.8964 46.8571
669 1 50.049 46.8697 50.0299
670 1 49.9071 46.7567 34.1372
671 1 49.9289 46.7843 37.2939
672 1 48.3514 38.8706 29.3552
673 1 48.6332 42.1767 45.3694
674 1 48.343 42.0457 38.95
675 1 48.3259 45.1848 32.5447
676 1 48.2652 38.7621 39.0105
677 1 48.3469 42.0444 32.5303
678 1 48.3215 45.1766 35.7406
679 1 48.3505 42.0356 29.3543
680 1 48.3094 38.8562 32.5383
681 1 48.3224 42.0083 35.7492
682 1 48.2068 38.7387 35.7785
683 1 27.8247 34.127 46.6938
684 1 27.7305 34.0812 37.1552
685 1 26.0562 29.2308 29.1836
686 1 27.4798 30.8258 30.7316
687 1 26.03 32.413 32.3482
688 1 26.1962 35.7191 35.6177
689 1 25.9341 35.6367 29.1659
690 1 25.9439 32.4523 29.1582
691 1 26.0397 35.6391 32.3977
692 1 26.2658 32.5328 45.128
693 1 29.0386 29.2184 32.3565
694 1 26.1768 29.2178 35.6267
695 1 28.9545 32.3823 32.2987
696 1 26.1218 29.201 32.4161
697 1 27.5005 30.8671 33.9872
698 1 26.3409 32.4635 48.3365
699 1 29.0956 35.6276 29.1976
700 1 27.4336 34.0084 30.7158
701 1 28.9131 35.57 32.2265
702 1 26.2587 35.6904 38.7991
703 1 26.2535 32.5359 41.9635
704 1 26.2357 35.7128 48.3012
705 1 27.4232 37.2386 30.698
706 1 27.8554 34.1185 40.3581
707 1 27.7829 34.1819 49.9169
708 1 27.7823 30.9415 40.3782
709 1 26.2847 35.7006 45.1217
710 1 29.1013 32.4098 29.1736
711 1 29.3579 32.5025 38.6928
712 1 29.2761 32.4739 48.3975
713 1 27.5874 37.2806 33.893
714 1 27.4521 33.9685 33.9577
715 1 27.8761 34.1197 43.5308
716 1 26.2964 35.7063 41.9418
717 1 29.4386 32.5221 41.9356
718 1 29.0255 35.6053 35.374
719 1 26.2073 32.5299 38.8525
720 1 27.5794 30.9072 37.1545
721 1 26.1734 29.3283 38.8153
722 1 29.385 35.6867 48.344
723 1 26.2278 29.3615 41.9677
724 1 29.404 32.5466 45.1333
725 1 27.8265 37.2792 46.7068
726 1 29.2757 29.2988 38.7461
727 1 27.7925 37.2618 37.1567
728 1 29.1471 29.2278 29.1708
729 1 29.179 32.3849 35.4284
730 1 29.4049 35.6879 38.7105
731 1 27.9157 37.2843 43.5295
732 1 27.907 30.9613 46.6548
733 1 27.8289 30.9438 43.5354
734 1 29.4524 35.6788 45.1346
735 1 27.8912 37.2694 40.3523
736 1 27.7934 37.3033 49.9091
737 1 29.0879 29.2263 35.5391
738 1 29.4234 29.3467 41.9531
739 1 29.3551 29.3125 45.1639
740 1 29.2145 29.3449 48.4483
741 1 29.5221 35.6762 41.9372
742 1 26.2233 29.3922 45.1487
743 1 26.3683 29.5714 48.3764
744 1 30.9107 30.9046 50.0368
745 1 32.2147 32.3948 29.2416
746 1 30.5702 33.9744 33.6605
747 1 30.5713 34.0925 36.8321
748 1 33.7342 34.0336 36.543
749 1 32.5177 32.4453 45.2808
750 1 32.2215 35.6088 29.2503
751 1 32.2131 32.357 32.1513
752 1 33.7367 34.2202 39.5828
753 1 32.5176 35.575 45.2747
754 1 32.4602 32.4503 48.4272
755 1 34.0761 34.0867 49.9094
756 1 33.8107 30.7551 30.5912
757 1 32.0956 32.37 35.3082
758 1 33.7606 30.8119 36.8735
759 2 34.9768 33.164 41.2758
760 1 35.4889 32.3639 29.2086
761 1 33.8288 33.995 30.5914
762 1 35.3398 32.314 35.2124
763 1 30.9346 30.9588 40.273
764 1 30.9697 30.9397 43.5869
765 2 36.5299 31.7096 42.4685
766 1 37.5483 30.767 44.3247
767 1 32.5053 29.3653 45.1985
768 1 35.6414 32.4291 48.4436
769 1 34.0534 30.8502 50.0997
770 1 35.4645 35.5989 29.1617
771 1 33.7298 37.1972 36.437
772 1 32.1203 32.5565 38.2144
773 2 35.8498 35.7112 42.9519
774 1 34.2058 33.8751 43.8247
775 1 35.6988 35.6197 45.5907
776 1 35.7357 32.4019 45.5598
777 1 35.6516 35.6913 48.4165
778 1 34.0591 34.0102 46.9821
779 1 33.7611 30.7608 33.7469
780 1 35.3556 32.3483 32.0541
781 1 36.9514 33.9553 36.3612
782 2 37.4654 34.0451 41.6964
783 1 37.242 30.872 49.9779
784 2 35.7184 35.6912 40.5289
785 1 30.6335 30.7695 30.7324
786 1 35.3749 29.1653 35.3386
787 1 32.3883 29.2731 38.6748
788 1 33.8312 37.2051 30.6463
789 1 35.4972 29.1426 29.2334
790 1 32.1354 35.5769 35.0399
791 1 30.8966 34.0941 49.942
792 1 37.064 30.7277 30.6538
793 1 34.0494 30.8431 46.9061
794 1 32.4714 35.6818 48.3987
795 1 33.7459 33.916 33.6922
796 1 36.845 30.7422 33.5317
797 1 34.228 31.0212 43.7575
798 1 37.3381 34.0449 47.1057
799 1 32.8257 35.5734 41.9504
800 1 37.427 34.0158 44.3374
801 1 30.5807 33.978 30.756
802 1 30.6074 37.1844 30.7587
803 1 37.2694 34.0828 49.9441
804 1 36.779 30.893 39.9292
805 1 37.0583 33.9545 30.6215
806 2 37.1333 34.0212 39.1139
807 1 32.1536 35.722 38.191
808 1 32.1883 35.574 32.155
809 1 33.6387 31.3776 39.7039
810 1 35.3873 35.5454 32.0628
811 1 38.7578 35.5791 29.154
812 1 35.3538 35.5592 34.9465
813 1 37.4245 37.2868 44.3522
814 1 32.2909 29.1828 29.1785
815 1 32.5602 32.4395 42.0027
816 1 30.4771 37.1883 33.5986
817 1 32.2556 29.1671 32.2904
818 1 37.2711 37.3118 49.941
819 1 36.9267 30.6552 36.7641
820 2 37.2226 37.2222 38.9563
821 1 38.4782 32.2391 34.9467
822 1 35.3663 32.4913 38.0656
823 1 38.6662 35.5374 32.0076
824 1 37.0018 37.1599 33.4218
825 2 37.5114 37.2807 41.6599
826 1 30.9496 37.251 46.7786
827 2 38.5787 32.2894 37.7133
828 1 37.3346 37.2967 47.1033
829 1 32.442 29.3048 48.3954
830 1 33.7621 37.1737 33.5299
831 1 37.0782 37.1996 30.5735
832 1 38.6 35.5097 34.7946
833 1 30.9401 37.2746 49.9414
834 1 34.1055 37.2909 49.9824
835 1 36.9494 33.8973 33.4943
836 1 32.2663 29.1797 35.4296
837 1 31.0692 34.104 40.2958
838 1 35.3314 29.1653 32.0888
839 1 37.3031 30.829 47.0786
840 1 30.6738 30.7669 37.0219
841 1 35.2314 29.2914 38.5912
842 1 31.0907 37.2306 40.3525
843 1 30.9224 34.0498 46.8078
844 1 31.1606 37.2347 43.53
845 1 34.0059 37.2511 43.9346
846 1 34.0367 37.2802 46.8348
847 1 38.6134 32.2948 32.109
848 1 35.3822 35.6668 37.8504
849 1 38.1665 28.9842 34.9693
850 1 38.745 32.3348 29.2456
851 1 32.281 29.3186 41.9094
852 1 30.827 30.9087 46.8252
853 1 35.6992 29.1917 45.377
854 1 30.6382 30.7507 33.8168
855 1 31.0413 34.0813 43.5338
856 1 30.5689 37.1977 36.7116
857 1 36.9965 37.1664 36.228
858 1 33.743 37.1476 39.7537
859 1 38.5272 29.0293 32.1716
860 1 35.6313 29.2575 48.4914
861 2 34.7 30.0031 41.299
862 1 38.7538 29.1159 29.2756
863 2 36.349 28.9978 42.6249
864 2 38.6895 35.5417 37.576
865 2 38.8353 32.2688 40.2867
866 1 38.9474 29.6557 42.072
867 1 38.9009 29.2433 48.5545
868 1 38.9254 32.4681 48.5686
869 2 38.9493 35.6075 40.2466
870 1 38.9267 35.6878 48.5688
871 1 38.9842 29.7282 38.9226
872 1 38.9996 35.6649 45.7589
873 1 42.132 29.3813 32.4663
874 2 39.7649 30.2249 36.294
875 1 42.2433 29.4116 42.254
876 1 42.2027 29.2532 45.47
877 1 42.1762 29.2455 48.5796
878 1 42.0103 32.3791 29.3012
879 1 40.3332 30.6659 30.8079
880 2 41.5499 31.912 35.0296
881 2 41.1048 31.4162 38.078
882 1 42.772 32.8764 39.4175
883 2 40.6596 34.0378 41.5051
884 1 42.3918 32.5525 42.6999
885 1 42.2692 32.3978 45.5904
886 1 40.6394 30.834 47.1468
887 1 42.2213 32.468 48.5661
888 1 40.529 30.8824 49.9804
889 1 40.2833 37.1387 33.3842
890 1 40.0441 30.5937 33.5473
891 1 43.6039 33.8634 33.6634
892 1 40.2526 33.8417 33.4958
893 1 41.888 35.4729 34.8271
894 2 41.9081 35.4736 37.4538
895 2 42.2304 35.5617 40.08
896 1 42.3332 35.6495 42.8101
897 1 40.6935 34.0446 44.2987
898 1 42.2783 35.6803 45.674
899 1 40.6106 34.077 47.1326
900 1 42.202 35.6993 48.5662
901 1 40.5406 34.0836 49.9659
902 1 43.6953 30.839 30.8348
903 1 42.1686 29.315 35.5553
904 1 45.4069 29.4213 38.984
905 1 45.4576 29.3041 42.2412
906 1 45.3734 29.2339 45.4045
907 1 45.3607 29.2435 48.4835
908 1 43.6468 33.955 30.8398
909 1 45.2385 32.455 29.2634
910 1 41.9463 32.238 32.2565
911 1 45.354 32.4455 32.4066
912 1 43.7844 31.0106 34.0705
913 1 45.4542 32.5224 35.7501
914 1 43.715 30.8144 37.189
915 1 45.4936 32.5996 39.1123
916 1 44.1209 31.28 41.1335
917 1 45.6828 32.5618 42.7066
918 1 43.9113 30.848 43.963
919 1 45.4928 32.4358 45.5343
920 1 43.8052 30.8209 47.0849
921 1 45.428 32.463 48.4102
922 1 43.7818 30.8736 49.9623
923 1 45.2165 35.622 29.3513
924 1 41.9328 35.5269 32.0878
925 1 45.2544 35.578 32.2715
926 2 42.943 33.2912 36.2887
927 1 45.1415 35.2921 35.4504
928 2 44.3949 34.6776 37.9268
929 1 45.5932 35.8581 39.6076
930 1 44.193 34.1395 41.1634
931 1 45.5549 35.7146 42.7287
932 1 43.9409 34.0836 44.2232
933 1 45.5263 35.7388 45.5912
934 1 43.8355 34.0425 47.0726
935 1 45.4489 35.6837 48.4596
936 1 43.8025 34.0901 49.9675
937 1 42.0222 35.5697 29.2675
938 1 43.5226 37.0931 33.4887
939 2 40.276 37.1018 36.0761
940 2 40.3632 33.8955 38.87
941 2 40.448 37.1388 38.8147
942 1 40.343 33.9336 30.6539
943 2 40.1844 33.8439 36.208
944 1 40.9265 31.2812 40.8715
945 1 47.0619 34.0696 46.9613
946 1 46.9618 34.0953 50.0164
947 1 46.9282 30.8732 50.0368
948 1 47.0218 30.8099 46.8808
949 1 43.9034 37.2643 41.3248
950 1 40.6885 37.2992 44.3046
951 1 46.955 37.3005 49.9561
952 1 47.0527 37.3288 47.0618
953 1 46.9302 34.1898 37.3003
954 1 43.8384 37.3329 47.0598
955 1 47.1837 37.3502 43.9732
956 1 46.905 30.9572 37.3657
957 1 43.9388 37.3455 44.1846
958 1 46.8497 30.8988 30.8732
959 1 40.3394 37.1961 30.5838
960 1 43.791 37.3047 49.9551
961 1 46.1761 37.2784 37.1993
962 1 47.0328 34.1135 40.8855
963 2 43.5448 37.1191 36.1056
964 1 47.2036 34.1194 44.1086
965 1 47.1332 37.3119 41.1089
966 1 46.7752 37.2986 30.9109
967 2 43.6619 37.1971 38.5794
968 1 46.9278 30.9665 40.7035
969 1 46.9353 30.9175 34.0659
970 1 47.1022 30.8258 43.9784
971 1 46.6143 37.2519 34.0563
972 1 46.9131 34.0877 33.9874
973 1 46.8493 34.0432 30.8667
974 1 40.5891 37.3151 47.129
975 1 40.5495 37.3085 49.9851
976 1 42.0345 29.2801 29.2661
977 2 40.6803 37.2434 41.5309
978 1 45.2257 29.3017 29.2867
979 1 40.6929 30.7541 44.0348
980 1 45.2662 29.3314 32.4769
981 1 45.381 29.3839 35.6627
982 1 43.6167 37.2358 30.7346
983 2 42.8437 30.0254 39.5629
984 2 41.4071 28.7372 38.0371
985 1 39.1408 32.3893 42.9225
986 1 39.0878 35.6622 42.9939
987 1 39.0612 32.4083 45.7083
988 1 39.0554 29.2395 45.7058
989 1 48.3752 29.3109 29.3073
990 1 48.3687 29.2655 42.1724
991 1 48.6064 29.2058 45.3615
992 1 48.4964 29.2533 48.4748
993 1 48.4674 32.5051 32.4611
994 1 48.3122 32.5591 35.7304
995 1 48.5379 32.4812 42.284
996 1 48.6992 32.4541 45.5005
997 1 48.568 32.4577 48.4474
998 1 48.3601 35.7116 29.3137
999 1 48.6751 35.6759 42.3529
1000 1 48.7252 35.7386 45.561
1001 1 48.5929 35.6812 48.4371
1002 1 49.9404 30.8961 30.9103
1003 1 49.841 30.9143 34.1488
1004 1 49.7958 30.9482 37.3336
1005 1 49.8561 30.9114 40.5351
1006 1 49.9629 30.8641 43.7415
1007 1 50.2075 30.8246 46.9404
1008 1 50.0655 30.8809 50.0501
1009 1 49.9312 34.1282 30.9206
1010 1 49.8188 34.1727 34.1587
1011 1 49.8136 34.1638 37.3338
1012 1 49.8903 34.124 40.5453
1013 1 50.0971 34.059 43.8169
1014 1 50.2523 34.0811 47.0288
1015 1 50.09 34.0749 49.9918
1016 1 49.9225 37.3012 30.9438
1017 1 49.8705 37.2982 34.1409
1018 1 49.9344 37.3157 40.5738
1019 1 50.1116 37.3345 43.8245
1020 1 50.2427 37.3199 47.0466
1021 1 50.0989 37.3135 49.9946
1022 1 49.9129 37.2995 37.3588
1023 1 48.3862 29.3298 32.4875
1024 1 48.373 32.4926 29.3133
1025 1 48.3246 32.5554 39.0092
1026 1 48.3182 29.3347 38.9439
1027 1 48.2911 29.3213 35.7314
1028 1 48.3246 35.7396 32.5026
1029 1 48.2959 35.835 39.0318
1030 1 48.2305 35.8669 35.7571
1031 1 26.1507 26.143 38.8272
1032 1 29.2762 26.1334 38.8024
1033 1 26.1129 22.9477 29.2781
1034 1 26.1217 22.9464 32.4534
1035 1 26.1325 22.9631 35.6361
1036 1 26.1237 26.1949 45.1238
1037 1 27.6512 24.614 46.7511
1038 1 26.107 23.0925 45.1544
1039 1 26.0653 26.0726 29.2254
1040 1 27.6442 27.6195 33.988
1041 1 27.7172 24.5391 37.2342
1042 1 26.36 22.7921 48.3887
1043 1 27.6574 24.4824 30.8222
1044 1 29.2879 22.9535 35.6351
1045 1 26.0755 26.0716 32.443
1046 1 27.6795 24.5015 34.0331
1047 1 29.2201 26.0702 29.2083
1048 1 27.6967 27.6758 37.2335
1049 1 29.2512 22.9325 32.4551
1050 1 29.3068 22.9895 42.0214
1051 1 29.1889 26.0478 32.3877
1052 1 27.6164 27.6269 30.7831
1053 1 26.1171 26.092 35.6206
1054 1 29.2528 22.9199 29.2435
1055 1 26.1874 23.0147 42.0002
1056 1 26.1536 22.9873 38.8289
1057 1 27.7476 24.5942 43.5924
1058 1 26.1982 26.195 41.9832
1059 1 29.2986 26.164 45.1963
1060 1 29.2297 26.0967 35.6014
1061 1 27.7534 24.587 40.4018
1062 1 27.6074 27.5804 49.8491
1063 1 27.6561 24.716 49.8855
1064 1 29.322 22.9836 38.834
1065 1 27.7556 27.7524 40.4091
1066 1 29.3428 26.1705 48.3161
1067 1 29.3167 26.166 41.9884
1068 1 27.6766 27.7596 46.7673
1069 1 27.7831 27.7814 43.563
1070 1 29.192 22.9715 48.3141
1071 1 29.2986 23.0202 45.1789
1072 1 32.4157 26.1431 38.7804
1073 1 32.5077 23.0426 38.8401
1074 1 34.0929 24.7209 40.4184
1075 1 32.4088 22.9115 29.2171
1076 1 35.6315 23.1165 35.6743
1077 1 34.0237 24.6602 37.2452
1078 1 35.649 22.9901 48.3509
1079 1 35.6332 23.0396 29.2317
1080 1 35.6049 26.0419 35.5463
1081 1 37.1576 24.4125 33.9515
1082 1 35.7094 26.3466 42.0296
1083 1 37.2493 27.6853 50.0845
1084 1 35.5461 25.9479 29.1694
1085 1 35.5974 23.0058 32.3988
1086 1 33.9598 24.4367 34.0108
1087 1 33.9313 24.3971 30.7803
1088 1 32.3941 22.9323 32.445
1089 1 32.4296 22.9972 35.6648
1090 1 34.0881 24.6799 43.6005
1091 1 34.052 24.574 49.9466
1092 1 35.6476 26.1305 48.4338
1093 1 35.452 25.8723 32.3185
1094 1 32.3631 26.0675 35.5374
1095 1 37.2264 24.5959 30.8287
1096 1 32.3345 26.0258 29.1913
1097 1 30.8785 24.5814 40.4179
1098 1 37.2306 24.5571 49.9891
1099 1 32.4522 22.9962 48.3245
1100 1 32.48 26.1914 45.1966
1101 1 30.7901 24.4824 30.7993
1102 1 30.7269 27.6212 30.7691
1103 1 32.3432 26.0192 32.3644
1104 1 37.2714 24.7236 37.2487
1105 1 30.8618 24.5707 46.7608
1106 1 35.6775 23.0693 45.1685
1107 1 37.0151 27.4684 30.7587
1108 1 35.6513 26.2664 38.7956
1109 1 35.6618 23.1191 42.0205
1110 1 35.6576 26.2671 45.229
1111 1 30.8399 24.5652 49.9129
1112 1 30.7938 27.6899 37.1327
1113 1 30.7145 27.6621 33.9448
1114 1 36.7053 27.5136 33.5977
1115 1 33.9807 27.6466 40.3505
1116 1 37.1016 27.8402 37.1668
1117 1 32.454 26.1849 42.0211
1118 1 34.0621 24.6037 46.7819
1119 1 35.6632 23.1194 38.8562
1120 1 37.2825 24.7325 43.6447
1121 1 32.5116 23.0457 42.0113
1122 1 32.4792 23.0435 45.1677
1123 1 32.4583 26.1493 48.3692
1124 1 30.7984 24.4902 34.0231
1125 1 33.8723 27.5721 33.867
1126 1 33.9315 27.5856 37.0878
1127 1 33.8393 27.5328 30.717
1128 1 34.0278 27.8378 43.5693
1129 1 37.6808 27.5972 44.1352
1130 1 37.2269 24.5886 46.8095
1131 1 37.2742 24.7665 40.4364
1132 1 30.8714 27.7525 49.9799
1133 1 34.0425 27.7197 46.8418
1134 1 37.1932 28.0599 40.3082
1135 1 38.4072 26.204 35.2491
1136 1 37.3021 27.6903 46.9303
1137 1 30.8613 27.7304 40.338
1138 1 30.8921 27.7402 43.6007
1139 1 30.9023 24.5976 43.6151
1140 1 30.838 24.5417 37.2108
1141 1 30.8644 27.764 46.8005
1142 1 34.032 27.7251 50.0095
1143 1 38.8215 23.1108 35.675
1144 1 38.8456 23.0523 32.4601
1145 1 38.7753 26.1936 32.4559
1146 1 38.8248 23.1493 38.8615
1147 1 38.8268 22.9585 48.358
1148 1 38.8446 26.4082 42.0331
1149 1 38.8552 26.1029 48.4691
1150 1 38.8414 23.0195 29.2984
1151 1 38.8248 26.1921 29.2412
1152 1 38.8424 23.0399 45.1898
1153 1 38.8193 26.4165 38.936
1154 1 38.8526 23.1358 42.0192
1155 1 38.9857 26.1111 45.351
1156 1 41.9787 23.129 38.8538
1157 1 42.0032 23.0206 29.3195
1158 1 41.9933 23.0704 32.5219
1159 1 43.6145 24.6138 43.649
1160 1 42.042 22.9228 48.3978
1161 1 42.0099 26.1587 29.3051
1162 1 40.425 24.7092 34.1177
1163 1 40.4677 27.7607 30.8847
1164 1 40.3883 24.7764 37.2481
1165 1 42.0235 26.3084 38.8883
1166 1 43.736 27.7877 40.5584
1167 1 42.0313 26.2748 42.0853
1168 1 42.1142 26.0572 48.4573
1169 1 45.1725 23.0274 42.0521
1170 1 45.1682 23.0163 29.3478
1171 1 45.1699 23.0393 32.5196
1172 1 45.1556 23.0601 35.6932
1173 1 43.5726 24.6898 37.2809
1174 1 43.6424 24.5253 46.8203
1175 1 40.4761 24.5247 46.8231
1176 1 43.6544 24.5215 50.0038
1177 1 46.8158 24.5243 50.0021
1178 1 45.1747 26.1774 29.3234
1179 1 43.5818 24.6066 30.9197
1180 1 45.1977 26.1888 32.4938
1181 1 42.0066 26.2245 32.5081
1182 1 43.5653 24.6647 34.134
1183 1 42.0661 26.3919 35.7297
1184 1 45.198 26.2107 35.7076
1185 1 43.8387 27.9114 37.3417
1186 1 45.2325 26.162 42.1143
1187 1 43.5891 24.6448 40.4882
1188 1 45.253 26.1073 45.2809
1189 1 42.0697 26.1774 45.2786
1190 1 45.2851 26.0871 48.4444
1191 1 46.7524 24.5859 30.9336
1192 1 46.7557 24.6035 37.2922
1193 1 41.9905 23.1449 35.6922
1194 1 42.0062 23.0149 45.2027
1195 1 45.1874 22.9771 45.2155
1196 1 43.6389 27.7466 30.8895
1197 1 46.8117 24.5226 46.8388
1198 1 45.1616 23.061 38.8696
1199 1 40.4359 24.6788 43.631
1200 1 45.2087 26.198 38.9219
1201 1 40.4565 24.5128 49.9893
1202 1 45.2124 22.9425 48.3974
1203 1 46.8778 27.6721 43.7522
1204 1 41.9865 23.0878 42.0173
1205 1 40.4125 24.7605 40.4535
1206 1 46.7949 24.539 43.6567
1207 1 40.4151 24.6296 30.907
1208 1 46.9119 27.6429 46.9026
1209 1 43.6845 27.7956 34.0515
1210 1 46.7549 24.5833 40.4841
1211 1 46.8232 27.7183 40.5542
1212 1 46.7541 27.7589 37.322
1213 1 43.7088 27.7335 43.7573
1214 1 46.8126 27.7398 34.0854
1215 1 46.7663 24.5918 34.1061
1216 1 46.784 27.7433 30.8943
1217 1 43.7256 27.6664 50.042
1218 1 43.7444 27.6547 46.934
1219 1 40.4981 27.6379 49.9588
1220 1 40.5758 27.644 47.0525
1221 1 40.5337 28.0188 40.5334
1222 1 46.8737 27.6808 50.0393
1223 1 40.4127 27.852 34.0155
1224 1 40.4704 27.9024 43.7554
1225 1 39.8495 27.5359 36.7583
1226 1 48.3739 22.962 45.2194
1227 1 48.3488 26.1811 38.8931
1228 1 48.4373 26.0948 45.2826
1229 1 48.4346 26.086 48.441
1230 1 49.9191 24.6067 37.2943
1231 1 49.9329 24.5999 30.9328
1232 1 49.9054 24.6064 34.1087
1233 1 49.9505 24.581 40.4598
1234 1 49.9641 24.5446 43.6468
1235 1 49.9814 24.5095 46.8158
1236 1 49.9814 24.5347 49.9963
1237 1 49.9362 27.741 30.9206
1238 1 50.0548 27.6442 46.8805
1239 1 49.9423 27.7545 40.4965
1240 1 49.9947 27.6725 43.6619
1241 1 50.0347 27.6811 50.0427
1242 1 49.8937 27.7703 37.3089
1243 1 49.9128 27.7579 34.1269
1244 1 48.3204 23.0215 29.3462
1245 1 48.3859 22.9563 48.3994
1246 1 48.3422 26.1807 35.7095
1247 1 48.3838 26.1324 42.0792
1248 1 48.3582 26.1744 29.3407
1249 1 48.3686 26.158 32.5222
1250 1 48.3453 23.0046 42.0398
1251 1 48.3177 23.0371 32.5134
1252 1 48.3285 23.0178 38.8632
1253 1 48.3253 23.0327 35.6903
1254 1 0.7913 0.7913 0.7913
1255 1 2.3739 2.3739 2.3739
1256 1 0.7913 0.7913 3.9565
1257 1 2.3739 2.3739 5.5391
1258 1 0.7913 0.7913 7.1217
1259 1 2.3739 2.3739 8.7043
1260 1 0.7913 0.7913 10.2869
1261 1 2.3739 2.3739 11.8695
1262 1 0.7913 0.7913 13.4521
1263 1 2.3739 2.3739 15.0347
1264 1 0.7913 0.7913 16.6173
1265 1 2.3739 2.3739 18.1999
1266 1 0.7913 0.7913 19.7825
1267 1 2.3739 2.3739 21.3651
1268 1 0.7913 0.7913 22.9477
1269 1 2.3739 2.3739 24.5303
1270 1 0.7913 0.7913 26.1129
1271 1 2.3739 2.3739 27.6955
1272 1 0.7913 0.7913 29.2781
1273 1 2.3739 2.3739 30.8607
1274 1 0.7913 0.7913 32.4433
1275 1 2.3739 2.3739 34.0259
1276 1 0.7913 0.7913 35.6085
1277 1 2.3739 2.3739 37.1911
1278 1 0.7913 0.7913 38.7737
1279 1 2.3739 2.3739 40.3563
1280 1 0.7913 0.7913 41.9389
1281 1 2.3739 2.3739 43.5215
1282 1 0.7913 0.7913 45.1041
1283 1 2.3739 2.3739 46.6867
1284 1 0.7913 0.7913 48.2693
1285 1 2.3739 2.3739 49.8519
1286 1 0.7913 0.7913 51.4345
1287 1 2.3739 2.3739 53.0171
1288 1 0.7913 0.7913 54.5997
1289 1 2.3739 2.3739 56.1823
1290 1 0.7913 0.7913 57.7649
1291 1 2.3739 2.3739 59.3475
1292 1 0.7913 0.7913 60.9301
1293 1 2.3739 2.3739 62.5127
1294 1 0.7913 0.7913 64.0953
1295 1 2.3739 2.3739 65.6779
1296 1 0.7913 0.7913 67.2605
1297 1 2.3739 2.3739 68.8431
1298 1 0.7913 0.7913 70.4257
1299 1 2.3739 2.3739 72.0083
1300 1 0.7913 0.7913 73.5909
1301 1 2.3739 2.3739 75.1735
1302 1 0.7913 0.7913 76.7561
1303 1 2.3739 2.3739 78.3387
1304 1 0.7913 3.9565 0.7913
1305 1 2.3739 5.5391 2.3739
1306 1 0.7913 3.9565 3.9565
1307 1 2.3739 5.5391 5.5391
1308 1 0.7913 3.9565 7.1217
1309 1 2.3739 5.5391 8.7043
1310 1 0.7913 3.9565 10.2869
1311 1 2.3739 5.5391 11.8695
1312 1 0.7913 3.9565 13.4521
1313 1 2.3739 5.5391 15.0347
1314 1 0.7913 3.9565 16.6173
1315 1 2.3739 5.5391 18.1999
1316 1 0.7913 3.9565 19.7825
1317 1 2.3739 5.5391 21.3651
1318 1 0.7913 3.9565 22.9477
1319 1 2.3739 5.5391 24.5303
1320 1 0.7913 3.9565 26.1129
1321 1 2.3739 5.5391 27.6955
1322 1 0.7913 3.9565 29.2781
1323 1 2.3739 5.5391 30.8607
1324 1 0.7913 3.9565 32.4433
1325 1 2.3739 5.5391 34.0259
1326 1 0.7913 3.9565 35.6085
1327 1 2.3739 5.5391 37.1911
1328 1 0.7913 3.9565 38.7737
1329 1 2.3739 5.5391 40.3563
1330 1 0.7913 3.9565 41.9389
1331 1 2.3739 5.5391 43.5215
1332 1 0.7913 3.9565 45.1041
1333 1 2.3739 5.5391 46.6867
1334 1 0.7913 3.9565 48.2693
1335 1 2.3739 5.5391 49.8519
1336 1 0.7913 3.9565 51.4345
1337 1 2.3739 5.5391 53.0171
1338 1 0.7913 3.9565 54.5997
1339 1 2.3739 5.5391 56.1823
1340 1 0.7913 3.9565 57.7649
1341 1 2.3739 5.5391 59.3475
1342 1 0.7913 3.9565 60.9301
1343 1 2.3739 5.5391 62.5127
1344 1 0.7913 3.9565 64.0953
1345 1 2.3739 5.5391 65.6779
1346 1 0.7913 3.9565 67.2605
1347 1 2.3739 5.5391 68.8431
1348 1 0.7913 3.9565 70.4257
1349 1 2.3739 5.5391 72.0083
1350 1 0.7913 3.9565 73.5909
1351 1 2.3739 5.5391 75.1735
1352 1 0.7913 3.9565 76.7561
1353 1 2.3739 5.5391 78.3387
1354 1 0.7913 7.1217 0.7913
1355 1 2.3739 8.7043 2.3739
1356 1 0.7913 7.1217 3.9565
1357 1 2.3739 8.7043 5.5391
1358 1 0.7913 7.1217 7.1217
1359 1 2.3739 8.7043 8.7043
1360 1 0.7913 7.1217 10.2869
1361 1 2.3739 8.7043 11.8695
1362 1 0.7913 7.1217 13.4521
1363 1 2.3739 8.7043 15.0347
1364 1 0.7913 7.1217 16.6173
1365 1 2.3739 8.7043 18.1999
1366 1 0.7913 7.1217 19.7825
1367 1 2.3739 8.7043 21.3651
1368 1 0.7913 7.1217 22.9477
1369 1 2.3739 8.7043 24.5303
1370 1 0.7913 7.1217 26.1129
1371 1 2.3739 8.7043 27.6955
1372 1 0.7913 7.1217 29.2781
1373 1 2.3739 8.7043 30.8607
1374 1 0.7913 7.1217 32.4433
1375 1 2.3739 8.7043 34.0259
1376 1 0.7913 7.1217 35.6085
1377 1 2.3739 8.7043 37.1911
1378 1 0.7913 7.1217 38.7737
1379 1 2.3739 8.7043 40.3563
1380 1 0.7913 7.1217 41.9389
1381 1 2.3739 8.7043 43.5215
1382 1 0.7913 7.1217 45.1041
1383 1 2.3739 8.7043 46.6867
1384 1 0.7913 7.1217 48.2693
1385 1 2.3739 8.7043 49.8519
1386 1 0.7913 7.1217 51.4345
1387 1 2.3739 8.7043 53.0171
1388 1 0.7913 7.1217 54.5997
1389 1 2.3739 8.7043 56.1823
1390 1 0.7913 7.1217 57.7649
1391 1 2.3739 8.7043 59.3475
1392 1 0.7913 7.1217 60.9301
1393 1 2.3739 8.7043 62.5127
1394 1 0.7913 7.1217 64.0953
1395 1 2.3739 8.7043 65.6779
1396 1 0.7913 7.1217 67.2605
1397 1 2.3739 8.7043 68.8431
1398 1 0.7913 7.1217 70.4257
1399 1 2.3739 8.7043 72.0083
1400 1 0.7913 7.1217 73.5909
1401 1 2.3739 8.7043 75.1735
1402 1 0.7913 7.1217 76.7561
1403 1 2.3739 8.7043 78.3387
1404 1 0.7913 10.2869 0.7913
1405 1 2.3739 11.8695 2.3739
1406 1 0.7913 10.2869 3.9565
1407 1 2.3739 11.8695 5.5391
1408 1 0.7913 10.2869 7.1217
1409 1 2.3739 11.8695 8.7043
1410 1 0.7913 10.2869 10.2869
1411 1 2.3739 11.8695 11.8695
1412 1 0.7913 10.2869 13.4521
1413 1 2.3739 11.8695 15.0347
1414 1 0.7913 10.2869 16.6173
1415 1 2.3739 11.8695 18.1999
1416 1 0.7913 10.2869 19.7825
1417 1 2.3739 11.8695 21.3651
1418 1 0.7913 10.2869 22.9477
1419 1 2.3739 11.8695 24.5303
1420 1 0.7913 10.2869 26.1129
1421 1 2.3739 11.8695 27.6955
1422 1 0.7913 10.2869 29.2781
1423 1 2.3739 11.8695 30.8607
1424 1 0.7913 10.2869 32.4433
1425 1 2.3739 11.8695 34.0259
1426 1 0.7913 10.2869 35.6085
1427 1 2.3739 11.8695 37.1911
1428 1 0.7913 10.2869 38.7737
1429 1 2.3739 11.8695 40.3563
1430 1 0.7913 10.2869 41.9389
1431 1 2.3739 11.8695 43.5215
1432 1 0.7913 10.2869 45.1041
1433 1 2.3739 11.8695 46.6867
1434 1 0.7913 10.2869 48.2693
1435 1 2.3739 11.8695 49.8519
1436 1 0.7913 10.2869 51.4345
1437 1 2.3739 11.8695 53.0171
1438 1 0.7913 10.2869 54.5997
1439 1 2.3739 11.8695 56.1823
1440 1 0.7913 10.2869 57.7649
1441 1 2.3739 11.8695 59.3475
1442 1 0.7913 10.2869 60.9301
1443 1 2.3739 11.8695 62.5127
1444 1 0.7913 10.2869 64.0953
1445 1 2.3739 11.8695 65.6779
1446 1 0.7913 10.2869 67.2605
1447 1 2.3739 11.8695 68.8431
1448 1 0.7913 10.2869 70.4257
1449 1 2.3739 11.8695 72.0083
1450 1 0.7913 10.2869 73.5909
1451 1 2.3739 11.8695 75.1735
1452 1 0.7913 10.2869 76.7561
1453 1 2.3739 11.8695 78.3387
1454 1 0.7913 13.4521 0.7913
1455 1 2.3739 15.0347 2.3739
1456 1 0.7913 13.4521 3.9565
1457 1 2.3739 15.0347 5.5391
1458 1 0.7913 13.4521 7.1217
1459 1 2.3739 15.0347 8.7043
1460 1 0.7913 13.4521 10.2869
1461 1 2.3739 15.0347 11.8695
1462 1 0.7913 13.4521 13.4521
1463 1 2.3739 15.0347 15.0347
1464 1 0.7913 13.4521 16.6173
1465 1 2.3739 15.0347 18.1999
1466 1 0.7913 13.4521 19.7825
1467 1 2.3739 15.0347 21.3651
1468 1 0.7913 13.4521 22.9477
1469 1 2.3739 15.0347 24.5303
1470 1 0.7913 13.4521 26.1129
1471 1 2.3739 15.0347 27.6955
1472 1 0.7913 13.4521 29.2781
1473 1 2.3739 15.0347 30.8607
1474 1 0.7913 13.4521 32.4433
1475 1 2.3739 15.0347 34.0259
1476 1 0.7913 13.4521 35.6085
1477 1 2.3739 15.0347 37.1911
1478 1 0.7913 13.4521 38.7737
1479 1 2.3739 15.0347 40.3563
1480 1 0.7913 13.4521 41.9389
1481 1 2.3739 15.0347 43.5215
1482 1 0.7913 13.4521 45.1041
1483 1 2.3739 15.0347 46.6867
1484 1 0.7913 13.4521 48.2693
1485 1 2.3739 15.0347 49.8519
1486 1 0.7913 13.4521 51.4345
1487 1 2.3739 15.0347 53.0171
1488 1 0.7913 13.4521 54.5997
1489 1 2.3739 15.0347 56.1823
1490 1 0.7913 13.4521 57.7649
1491 1 2.3739 15.0347 59.3475
1492 1 0.7913 13.4521 60.9301
1493 1 2.3739 15.0347 62.5127
1494 1 0.7913 13.4521 64.0953
1495 1 2.3739 15.0347 65.6779
1496 1 0.7913 13.4521 67.2605
1497 1 2.3739 15.0347 68.8431
1498 1 0.7913 13.4521 70.4257
1499 1 2.3739 15.0347 72.0083
1500 1 0.7913 13.4521 73.5909
1501 1 2.3739 15.0347 75.1735
1502 1 0.7913 13.4521 76.7561
1503 1 2.3739 15.0347 78.3387
1504 1 0.7913 16.6173 0.7913
1505 1 2.3739 18.1999 2.3739
1506 1 0.7913 16.6173 3.9565
1507 1 2.3739 18.1999 5.5391
1508 1 0.7913 16.6173 7.1217
1509 1 2.3739 18.1999 8.7043
1510 1 0.7913 16.6173 10.2869
1511 1 2.3739 18.1999 11.8695
1512 1 0.7913 16.6173 13.4521
1513 1 2.3739 18.1999 15.0347
1514 1 0.7913 16.6173 16.6173
1515 1 2.3739 18.1999 18.1999
1516 1 0.7913 16.6173 19.7825
1517 1 2.3739 18.1999 21.3651
1518 1 0.7913 16.6173 22.9477
1519 1 2.3739 18.1999 24.5303
1520 1 0.7913 16.6173 26.1129
1521 1 2.3739 18.1999 27.6955
1522 1 0.7913 16.6173 29.2781
1523 1 2.3739 18.1999 30.8607
1524 1 0.7913 16.6173 32.4433
1525 1 2.3739 18.1999 34.0259
1526 1 0.7913 16.6173 35.6085
1527 1 2.3739 18.1999 37.1911
1528 1 0.7913 16.6173 38.7737
1529 1 2.3739 18.1999 40.3563
1530 1 0.7913 16.6173 41.9389
1531 1 2.3739 18.1999 43.5215
1532 1 0.7913 16.6173 45.1041
1533 1 2.3739 18.1999 46.6867
1534 1 0.7913 16.6173 48.2693
1535 1 2.3739 18.1999 49.8519
1536 1 0.7913 16.6173 51.4345
1537 1 2.3739 18.1999 53.0171
1538 1 0.7913 16.6173 54.5997
1539 1 2.3739 18.1999 56.1823
1540 1 0.7913 16.6173 57.7649
1541 1 2.3739 18.1999 59.3475
1542 1 0.7913 16.6173 60.9301
1543 1 2.3739 18.1999 62.5127
1544 1 0.7913 16.6173 64.0953
1545 1 2.3739 18.1999 65.6779
1546 1 0.7913 16.6173 67.2605
1547 1 2.3739 18.1999 68.8431
1548 1 0.7913 16.6173 70.4257
1549 1 2.3739 18.1999 72.0083
1550 1 0.7913 16.6173 73.5909
1551 1 2.3739 18.1999 75.1735
1552 1 0.7913 16.6173 76.7561
1553 1 2.3739 18.1999 78.3387
1554 1 0.7913 19.7825 0.7913
1555 1 2.3739 21.3651 2.3739
1556 1 0.7913 19.7825 3.9565
1557 1 2.3739 21.3651 5.5391
1558 1 0.7913 19.7825 7.1217
1559 1 2.3739 21.3651 8.7043
1560 1 0.7913 19.7825 10.2869
1561 1 2.3739 21.3651 11.8695
1562 1 0.7913 19.7825 13.4521
1563 1 2.3739 21.3651 15.0347
1564 1 0.7913 19.7825 16.6173
1565 1 2.3739 21.3651 18.1999
1566 1 0.7913 19.7825 19.7825
1567 1 2.3739 21.3651 21.3651
1568 1 0.7913 19.7825 22.9477
1569 1 2.3739 21.3651 24.5303
1570 1 0.7913 19.7825 26.1129
1571 1 2.3739 21.3651 27.6955
1572 1 0.7913 19.7825 29.2781
1573 1 2.3739 21.3651 30.8607
1574 1 0.7913 19.7825 32.4433
1575 1 2.3739 21.3651 34.0259
1576 1 0.7913 19.7825 35.6085
1577 1 2.3739 21.3651 37.1911
1578 1 0.7913 19.7825 38.7737
1579 1 2.3739 21.3651 40.3563
1580 1 0.7913 19.7825 41.9389
1581 1 2.3739 21.3651 43.5215
1582 1 0.7913 19.7825 45.1041
1583 1 2.3739 21.3651 46.6867
1584 1 0.7913 19.7825 48.2693
1585 1 2.3739 21.3651 49.8519
1586 1 0.7913 19.7825 51.4345
1587 1 2.3739 21.3651 53.0171
1588 1 0.7913 19.7825 54.5997
1589 1 2.3739 21.3651 56.1823
1590 1 0.7913 19.7825 57.7649
1591 1 2.3739 21.3651 59.3475
1592 1 0.7913 19.7825 60.9301
1593 1 2.3739 21.3651 62.5127
1594 1 0.7913 19.7825 64.0953
1595 1 2.3739 21.3651 65.6779
1596 1 0.7913 19.7825 67.2605
1597 1 2.3739 21.3651 68.8431
1598 1 0.7913 19.7825 70.4257
1599 1 2.3739 21.3651 72.0083
1600 1 0.7913 19.7825 73.5909
1601 1 2.3739 21.3651 75.1735
1602 1 0.7913 19.7825 76.7561
1603 1 2.3739 21.3651 78.3387
1604 1 0.7913 22.9477 0.7913
1605 1 2.3739 24.5303 2.3739
1606 1 0.7913 22.9477 3.9565
1607 1 2.3739 24.5303 5.5391
1608 1 0.7913 22.9477 7.1217
1609 1 2.3739 24.5303 8.7043
1610 1 0.7913 22.9477 10.2869
1611 1 2.3739 24.5303 11.8695
1612 1 0.7913 22.9477 13.4521
1613 1 2.3739 24.5303 15.0347
1614 1 0.7913 22.9477 16.6173
1615 1 2.3739 24.5303 18.1999
1616 1 0.7913 22.9477 19.7825
1617 1 2.3739 24.5303 21.3651
1618 1 0.7913 22.9477 22.9477
1619 1 2.3739 24.5303 24.5303
1620 1 0.7913 22.9477 26.1129
1621 1 2.3739 24.5303 27.6955
1622 1 0.7913 22.9477 29.2781
1623 1 2.3739 24.5303 30.8607
1624 1 0.7913 22.9477 32.4433
1625 1 2.3739 24.5303 34.0259
1626 1 0.7913 22.9477 35.6085
1627 1 2.3739 24.5303 37.1911
1628 1 0.7913 22.9477 38.7737
1629 1 2.3739 24.5303 40.3563
1630 1 0.7913 22.9477 41.9389
1631 1 2.3739 24.5303 43.5215
1632 1 0.7913 22.9477 45.1041
1633 1 2.3739 24.5303 46.6867
1634 1 0.7913 22.9477 48.2693
1635 1 2.3739 24.5303 49.8519
1636 1 0.7913 22.9477 51.4345
1637 1 2.3739 24.5303 53.0171
1638 1 0.7913 22.9477 54.5997
1639 1 2.3739 24.5303 56.1823
1640 1 0.7913 22.9477 57.7649
1641 1 2.3739 24.5303 59.3475
1642 1 0.7913 22.9477 60.9301
1643 1 2.3739 24.5303 62.5127
1644 1 0.7913 22.9477 64.0953
1645 1 2.3739 24.5303 65.6779
1646 1 0.7913 22.9477 67.2605
1647 1 2.3739 24.5303 68.8431
1648 1 0.7913 22.9477 70.4257
1649 1 2.3739 24.5303 72.0083
1650 1 0.7913 22.9477 73.5909
1651 1 2.3739 24.5303 75.1735
1652 1 0.7913 22.9477 76.7561
1653 1 2.3739 24.5303 78.3387
1654 1 0.7913 26.1129 0.7913
1655 1 2.3739 27.6955 2.3739
1656 1 0.7913 26.1129 3.9565
1657 1 2.3739 27.6955 5.5391
1658 1 0.7913 26.1129 7.1217
1659 1 2.3739 27.6955 8.7043
1660 1 0.7913 26.1129 10.2869
1661 1 2.3739 27.6955 11.8695
1662 1 0.7913 26.1129 13.4521
1663 1 2.3739 27.6955 15.0347
1664 1 0.7913 26.1129 16.6173
1665 1 2.3739 27.6955 18.1999
1666 1 0.7913 26.1129 19.7825
1667 1 2.3739 27.6955 21.3651
1668 1 0.7913 26.1129 22.9477
1669 1 2.3739 27.6955 24.5303
1670 1 0.7913 26.1129 26.1129
1671 1 2.3739 27.6955 27.6955
1672 1 0.7913 26.1129 29.2781
1673 1 2.3739 27.6955 30.8607
1674 1 0.7913 26.1129 32.4433
1675 1 2.3739 27.6955 34.0259
1676 1 0.7913 26.1129 35.6085
1677 1 2.3739 27.6955 37.1911
1678 1 0.7913 26.1129 38.7737
1679 1 2.3739 27.6955 40.3563
1680 1 0.7913 26.1129 41.9389
1681 1 2.3739 27.6955 43.5215
1682 1 0.7913 26.1129 45.1041
1683 1 2.3739 27.6955 46.6867
1684 1 0.7913 26.1129 48.2693
1685 1 2.3739 27.6955 49.8519
1686 1 0.7913 26.1129 51.4345
1687 1 2.3739 27.6955 53.0171
1688 1 0.7913 26.1129 54.5997
1689 1 2.3739 27.6955 56.1823
1690 1 0.7913 26.1129 57.7649
1691 1 2.3739 27.6955 59.3475
1692 1 0.7913 26.1129 60.9301
1693 1 2.3739 27.6955 62.5127
1694 1 0.7913 26.1129 64.0953
1695 1 2.3739 27.6955 65.6779
1696 1 0.7913 26.1129 67.2605
1697 1 2.3739 27.6955 68.8431
1698 1 0.7913 26.1129 70.4257
1699 1 2.3739 27.6955 72.0083
1700 1 0.7913 26.1129 73.5909
1701 1 2.3739 27.6955 75.1735
1702 1 0.7913 26.1129 76.7561
1703 1 2.3739 27.6955 78.3387
1704 1 0.7913 29.2781 0.7913
1705 1 2.3739 30.8607 2.3739
1706 1 0.7913 29.2781 3.9565
1707 1 2.3739 30.8607 5.5391
1708 1 0.7913 29.2781 7.1217
1709 1 2.3739 30.8607 8.7043
1710 1 0.7913 29.2781 10.2869
1711 1 2.3739 30.8607 11.8695
1712 1 0.7913 29.2781 13.4521
1713 1 2.3739 30.8607 15.0347
1714 1 0.7913 29.2781 16.6173
1715 1 2.3739 30.8607 18.1999
1716 1 0.7913 29.2781 19.7825
1717 1 2.3739 30.8607 21.3651
1718 1 0.7913 29.2781 22.9477
1719 1 2.3739 30.8607 24.5303
1720 1 0.7913 29.2781 26.1129
1721 1 2.3739 30.8607 27.6955
1722 1 0.7913 29.2781 29.2781
1723 1 2.3739 30.8607 30.8607
1724 1 0.7913 29.2781 32.4433
1725 1 2.3739 30.8607 34.0259
1726 1 0.7913 29.2781 35.6085
1727 1 2.3739 30.8607 37.1911
1728 1 0.7913 29.2781 38.7737
1729 1 2.3739 30.8607 40.3563
1730 1 0.7913 29.2781 41.9389
1731 1 2.3739 30.8607 43.5215
1732 1 0.7913 29.2781 45.1041
1733 1 2.3739 30.8607 46.6867
1734 1 0.7913 29.2781 48.2693
1735 1 2.3739 30.8607 49.8519
1736 1 0.7913 29.2781 51.4345
1737 1 2.3739 30.8607 53.0171
1738 1 0.7913 29.2781 54.5997
1739 1 2.3739 30.8607 56.1823
1740 1 0.7913 29.2781 57.7649
1741 1 2.3739 30.8607 59.3475
1742 1 0.7913 29.2781 60.9301
1743 1 2.3739 30.8607 62.5127
1744 1 0.7913 29.2781 64.0953
1745 1 2.3739 30.8607 65.6779
1746 1 0.7913 29.2781 67.2605
1747 1 2.3739 30.8607 68.8431
1748 1 0.7913 29.2781 70.4257
1749 1 2.3739 30.8607 72.0083
1750 1 0.7913 29.2781 73.5909
1751 1 2.3739 30.8607 75.1735
1752 1 0.7913 29.2781 76.7561
1753 1 2.3739 30.8607 78.3387
1754 1 0.7913 32.4433 0.7913
1755 1 2.3739 34.0259 2.3739
1756 1 0.7913 32.4433 3.9565
1757 1 2.3739 34.0259 5.5391
1758 1 0.7913 32.4433 7.1217
1759 1 2.3739 34.0259 8.7043
1760 1 0.7913 32.4433 10.2869
1761 1 2.3739 34.0259 11.8695
1762 1 0.7913 32.4433 13.4521
1763 1 2.3739 34.0259 15.0347
1764 1 0.7913 32.4433 16.6173
1765 1 2.3739 34.0259 18.1999
1766 1 0.7913 32.4433 19.7825
1767 1 2.3739 34.0259 21.3651
1768 1 0.7913 32.4433 22.9477
1769 1 2.3739 34.0259 24.5303
1770 1 0.7913 32.4433 26.1129
1771 1 2.3739 34.0259 27.6955
1772 1 0.7913 32.4433 29.2781
1773 1 2.3739 34.0259 30.8607
1774 1 0.7913 32.4433 32.4433
1775 1 2.3739 34.0259 34.0259
1776 1 0.7913 32.4433 35.6085
1777 1 2.3739 34.0259 37.1911
1778 1 0.7913 32.4433 38.7737
1779 1 2.3739 34.0259 40.3563
1780 1 0.7913 32.4433 41.9389
1781 1 2.3739 34.0259 43.5215
1782 1 0.7913 32.4433 45.1041
1783 1 2.3739 34.0259 46.6867
1784 1 0.7913 32.4433 48.2693
1785 1 2.3739 34.0259 49.8519
1786 1 0.7913 32.4433 51.4345
1787 1 2.3739 34.0259 53.0171
1788 1 0.7913 32.4433 54.5997
1789 1 2.3739 34.0259 56.1823
1790 1 0.7913 32.4433 57.7649
1791 1 2.3739 34.0259 59.3475
1792 1 0.7913 32.4433 60.9301
1793 1 2.3739 34.0259 62.5127
1794 1 0.7913 32.4433 64.0953
1795 1 2.3739 34.0259 65.6779
1796 1 0.7913 32.4433 67.2605
1797 1 2.3739 34.0259 68.8431
1798 1 0.7913 32.4433 70.4257
1799 1 2.3739 34.0259 72.0083
1800 1 0.7913 32.4433 73.5909
1801 1 2.3739 34.0259 75.1735
1802 1 0.7913 32.4433 76.7561
1803 1 2.3739 34.0259 78.3387
1804 1 0.7913 35.6085 0.7913
1805 1 2.3739 37.1911 2.3739
1806 1 0.7913 35.6085 3.9565
1807 1 2.3739 37.1911 5.5391
1808 1 0.7913 35.6085 7.1217
1809 1 2.3739 37.1911 8.7043
1810 1 0.7913 35.6085 10.2869
1811 1 2.3739 37.1911 11.8695
1812 1 0.7913 35.6085 13.4521
1813 1 2.3739 37.1911 15.0347
1814 1 0.7913 35.6085 16.6173
1815 1 2.3739 37.1911 18.1999
1816 1 0.7913 35.6085 19.7825
1817 1 2.3739 37.1911 21.3651
1818 1 0.7913 35.6085 22.9477
1819 1 2.3739 37.1911 24.5303
1820 1 0.7913 35.6085 26.1129
1821 1 2.3739 37.1911 27.6955
1822 1 0.7913 35.6085 29.2781
1823 1 2.3739 37.1911 30.8607
1824 1 0.7913 35.6085 32.4433
1825 1 2.3739 37.1911 34.0259
1826 1 0.7913 35.6085 35.6085
1827 1 2.3739 37.1911 37.1911
1828 1 0.7913 35.6085 38.7737
1829 1 2.3739 37.1911 40.3563
1830 1 0.7913 35.6085 41.9389
1831 1 2.3739 37.1911 43.5215
1832 1 0.7913 35.6085 45.1041
1833 1 2.3739 37.1911 46.6867
1834 1 0.7913 35.6085 48.2693
1835 1 2.3739 37.1911 49.8519
1836 1 0.7913 35.6085 51.4345
1837 1 2.3739 37.1911 53.0171
1838 1 0.7913 35.6085 54.5997
1839 1 2.3739 37.1911 56.1823
1840 1 0.7913 35.6085 57.7649
1841 1 2.3739 37.1911 59.3475
1842 1 0.7913 35.6085 60.9301
1843 1 2.3739 37.1911 62.5127
1844 1 0.7913 35.6085 64.0953
1845 1 2.3739 37.1911 65.6779
1846 1 0.7913 35.6085 67.2605
1847 1 2.3739 37.1911 68.8431
1848 1 0.7913 35.6085 70.4257
1849 1 2.3739 37.1911 72.0083
1850 1 0.7913 35.6085 73.5909
1851 1 2.3739 37.1911 75.1735
1852 1 0.7913 35.6085 76.7561
1853 1 2.3739 37.1911 78.3387
1854 1 0.7913 38.7737 0.7913
1855 1 2.3739 40.3563 2.3739
1856 1 0.7913 38.7737 3.9565
1857 1 2.3739 40.3563 5.5391
1858 1 0.7913 38.7737 7.1217
1859 1 2.3739 40.3563 8.7043
1860 1 0.7913 38.7737 10.2869
1861 1 2.3739 40.3563 11.8695
1862 1 0.7913 38.7737 13.4521
1863 1 2.3739 40.3563 15.0347
1864 1 0.7913 38.7737 16.6173
1865 1 2.3739 40.3563 18.1999
1866 1 0.7913 38.7737 19.7825
1867 1 2.3739 40.3563 21.3651
1868 1 0.7913 38.7737 22.9477
1869 1 2.3739 40.3563 24.5303
1870 1 0.7913 38.7737 26.1129
1871 1 2.3739 40.3563 27.6955
1872 1 0.7913 38.7737 29.2781
1873 1 2.3739 40.3563 30.8607
1874 1 0.7913 38.7737 32.4433
1875 1 2.3739 40.3563 34.0259
1876 1 0.7913 38.7737 35.6085
1877 1 2.3739 40.3563 37.1911
1878 1 0.7913 38.7737 38.7737
1879 1 2.3739 40.3563 40.3563
1880 1 0.7913 38.7737 41.9389
1881 1 2.3739 40.3563 43.5215
1882 1 0.7913 38.7737 45.1041
1883 1 2.3739 40.3563 46.6867
1884 1 0.7913 38.7737 48.2693
1885 1 2.3739 40.3563 49.8519
1886 1 0.7913 38.7737 51.4345
1887 1 2.3739 40.3563 53.0171
1888 1 0.7913 38.7737 54.5997
1889 1 2.3739 40.3563 56.1823
1890 1 0.7913 38.7737 57.7649
1891 1 2.3739 40.3563 59.3475
1892 1 0.7913 38.7737 60.9301
1893 1 2.3739 40.3563 62.5127
1894 1 0.7913 38.7737 64.0953
1895 1 2.3739 40.3563 65.6779
1896 1 0.7913 38.7737 67.2605
1897 1 2.3739 40.3563 68.8431
1898 1 0.7913 38.7737 70.4257
1899 1 2.3739 40.3563 72.0083
1900 1 0.7913 38.7737 73.5909
1901 1 2.3739 40.3563 75.1735
1902 1 0.7913 38.7737 76.7561
1903 1 2.3739 40.3563 78.3387
1904 1 0.7913 41.9389 0.7913
1905 1 2.3739 43.5215 2.3739
1906 1 0.7913 41.9389 3.9565
1907 1 2.3739 43.5215 5.5391
1908 1 0.7913 41.9389 7.1217
1909 1 2.3739 43.5215 8.7043
1910 1 0.7913 41.9389 10.2869
1911 1 2.3739 43.5215 11.8695
1912 1 0.7913 41.9389 13.4521
1913 1 2.3739 43.5215 15.0347
1914 1 0.7913 41.9389 16.6173
1915 1 2.3739 43.5215 18.1999
1916 1 0.7913 41.9389 19.7825
1917 1 2.3739 43.5215 21.3651
1918 1 0.7913 41.9389 22.9477
1919 1 2.3739 43.5215 24.5303
1920 1 0.7913 41.9389 26.1129
1921 1 2.3739 43.5215 27.6955
1922 1 0.7913 41.9389 29.2781
1923 1 2.3739 43.5215 30.8607
1924 1 0.7913 41.9389 32.4433
1925 1 2.3739 43.5215 34.0259
1926 1 0.7913 41.9389 35.6085
1927 1 2.3739 43.5215 37.1911
1928 1 0.7913 41.9389 38.7737
1929 1 2.3739 43.5215 40.3563
1930 1 0.7913 41.9389 41.9389
1931 1 2.3739 43.5215 43.5215
1932 1 0.7913 41.9389 45.1041
1933 1 2.3739 43.5215 46.6867
1934 1 0.7913 41.9389 48.2693
1935 1 2.3739 43.5215 49.8519
1936 1 0.7913 41.9389 51.4345
1937 1 2.3739 43.5215 53.0171
1938 1 0.7913 41.9389 54.5997
1939 1 2.3739 43.5215 56.1823
1940 1 0.7913 41.9389 57.7649
1941 1 2.3739 43.5215 59.3475
1942 1 0.7913 41.9389 60.9301
1943 1 2.3739 43.5215 62.5127
1944 1 0.7913 41.9389 64.0953
1945 1 2.3739 43.5215 65.6779
1946 1 0.7913 41.9389 67.2605
1947 1 2.3739 43.5215 68.8431
1948 1 0.7913 41.9389 70.4257
1949 1 2.3739 43.5215 72.0083
1950 1 0.7913 41.9389 73.5909
1951 1 2.3739 43.5215 75.1735
1952 1 0.7913 41.9389 76.7561
1953 1 2.3739 43.5215 78.3387
1954 1 0.7913 45.1041 0.7913
1955 1 2.3739 46.6867 2.3739
1956 1 0.7913 45.1041 3.9565
1957 1 2.3739 46.6867 5.5391
1958 1 0.7913 45.1041 7.1217
1959 1 2.3739 46.6867 8.7043
1960 1 0.7913 45.1041 10.2869
1961 1 2.3739 46.6867 11.8695
1962 1 0.7913 45.1041 13.4521
1963 1 2.3739 46.6867 15.0347
1964 1 0.7913 45.1041 16.6173
1965 1 2.3739 46.6867 18.1999
1966 1 0.7913 45.1041 19.7825
1967 1 2.3739 46.6867 21.3651
1968 1 0.7913 45.1041 22.9477
1969 1 2.3739 46.6867 24.5303
1970 1 0.7913 45.1041 26.1129
1971 1 2.3739 46.6867 27.6955
1972 1 0.7913 45.1041 29.2781
1973 1 2.3739 46.6867 30.8607
1974 1 0.7913 45.1041 32.4433
1975 1 2.3739 46.6867 34.0259
1976 1 0.7913 45.1041 35.6085
1977 1 2.3739 46.6867 37.1911
1978 1 0.7913 45.1041 38.7737
1979 1 2.3739 46.6867 40.3563
1980 1 0.7913 45.1041 41.9389
1981 1 2.3739 46.6867 43.5215
1982 1 0.7913 45.1041 45.1041
1983 1 2.3739 46.6867 46.6867
1984 1 0.7913 45.1041 48.2693
1985 1 2.3739 46.6867 49.8519
1986 1 0.7913 45.1041 51.4345
1987 1 2.3739 46.6867 53.0171
1988 1 0.7913 45.1041 54.5997
1989 1 2.3739 46.6867 56.1823
1990 1 0.7913 45.1041 57.7649
1991 1 2.3739 46.6867 59.3475
1992 1 0.7913 45.1041 60.9301
1993 1 2.3739 46.6867 62.5127
1994 1 0.7913 45.1041 64.0953
1995 1 2.3739 46.6867 65.6779
1996 1 0.7913 45.1041 67.2605
1997 1 2.3739 46.6867 68.8431
1998 1 0.7913 45.1041 70.4257
1999 1 2.3739 46.6867 72.0083
2000 1 0.7913 45.1041 73.5909
2001 1 2.3739 46.6867 75.1735
2002 1 0.7913 45.1041 76.7561
2003 1 2.3739 46.6867 78.3387
2004 1 0.7913 48.2693 0.7913
2005 1 2.3739 49.8519 2.3739
2006 1 0.7913 48.2693 3.9565
2007 1 2.3739 49.8519 5.5391
2008 1 0.7913 48.2693 7.1217
2009 1 2.3739 49.8519 8.7043
2010 1 0.7913 48.2693 10.2869
2011 1 2.3739 49.8519 11.8695
2012 1 0.7913 48.2693 13.4521
2013 1 2.3739 49.8519 15.0347
2014 1 0.7913 48.2693 16.6173
2015 1 2.3739 49.8519 18.1999
2016 1 0.7913 48.2693 19.7825
2017 1 2.3739 49.8519 21.3651
2018 1 0.7913 48.2693 22.9477
2019 1 2.3739 49.8519 24.5303
2020 1 0.7913 48.2693 26.1129
2021 1 2.3739 49.8519 27.6955
2022 1 0.7913 48.2693 29.2781
2023 1 2.3739 49.8519 30.8607
2024 1 0.7913 48.2693 32.4433
2025 1 2.3739 49.8519 34.0259
2026 1 0.7913 48.2693 35.6085
2027 1 2.3739 49.8519 37.1911
2028 1 0.7913 48.2693 38.7737
2029 1 2.3739 49.8519 40.3563
2030 1 0.7913 48.2693 41.9389
2031 1 2.3739 49.8519 43.5215
2032 1 0.7913 48.2693 45.1041
2033 1 2.3739 49.8519 46.6867
2034 1 0.7913 48.2693 48.2693
2035 1 2.3739 49.8519 49.8519
2036 1 0.7913 48.2693 51.4345
2037 1 2.3739 49.8519 53.0171
2038 1 0.7913 48.2693 54.5997
2039 1 2.3739 49.8519 56.1823
2040 1 0.7913 48.2693 57.7649
2041 1 2.3739 49.8519 59.3475
2042 1 0.7913 48.2693 60.9301
2043 1 2.3739 49.8519 62.5127
2044 1 0.7913 48.2693 64.0953
2045 1 2.3739 49.8519 65.6779
2046 1 0.7913 48.2693 67.2605
2047 1 2.3739 49.8519 68.8431
2048 1 0.7913 48.2693 70.4257
2049 1 2.3739 49.8519 72.0083
2050 1 0.7913 48.2693 73.5909
2051 1 2.3739 49.8519 75.1735
2052 1 0.7913 48.2693 76.7561
2053 1 2.3739 49.8519 78.3387
2054 1 0.7913 51.4345 0.7913
2055 1 2.3739 53.0171 2.3739
2056 1 0.7913 51.4345 3.9565
2057 1 2.3739 53.0171 5.5391
2058 1 0.7913 51.4345 7.1217
2059 1 2.3739 53.0171 8.7043
2060 1 0.7913 51.4345 10.2869
2061 1 2.3739 53.0171 11.8695
2062 1 0.7913 51.4345 13.4521
2063 1 2.3739 53.0171 15.0347
2064 1 0.7913 51.4345 16.6173
2065 1 2.3739 53.0171 18.1999
2066 1 0.7913 51.4345 19.7825
2067 1 2.3739 53.0171 21.3651
2068 1 0.7913 51.4345 22.9477
2069 1 2.3739 53.0171 24.5303
2070 1 0.7913 51.4345 26.1129
2071 1 2.3739 53.0171 27.6955
2072 1 0.7913 51.4345 29.2781
2073 1 2.3739 53.0171 30.8607
2074 1 0.7913 51.4345 32.4433
2075 1 2.3739 53.0171 34.0259
2076 1 0.7913 51.4345 35.6085
2077 1 2.3739 53.0171 37.1911
2078 1 0.7913 51.4345 38.7737
2079 1 2.3739 53.0171 40.3563
2080 1 0.7913 51.4345 41.9389
2081 1 2.3739 53.0171 43.5215
2082 1 0.7913 51.4345 45.1041
2083 1 2.3739 53.0171 46.6867
2084 1 0.7913 51.4345 48.2693
2085 1 2.3739 53.0171 49.8519
2086 1 0.7913 51.4345 51.4345
2087 1 2.3739 53.0171 53.0171
2088 1 0.7913 51.4345 54.5997
2089 1 2.3739 53.0171 56.1823
2090 1 0.7913 51.4345 57.7649
2091 1 2.3739 53.0171 59.3475
2092 1 0.7913 51.4345 60.9301
2093 1 2.3739 53.0171 62.5127
2094 1 0.7913 51.4345 64.0953
2095 1 2.3739 53.0171 65.6779
2096 1 0.7913 51.4345 67.2605
2097 1 2.3739 53.0171 68.8431
2098 1 0.7913 51.4345 70.4257
2099 1 2.3739 53.0171 72.0083
2100 1 0.7913 51.4345 73.5909
2101 1 2.3739 53.0171 75.1735
2102 1 0.7913 51.4345 76.7561
2103 1 2.3739 53.0171 78.3387
2104 1 0.7913 54.5997 0.7913
2105 1 2.3739 56.1823 2.3739
2106 1 0.7913 54.5997 3.9565
2107 1 2.3739 56.1823 5.5391
2108 1 0.7913 54.5997 7.1217
2109 1 2.3739 56.1823 8.7043
2110 1 0.7913 54.5997 10.2869
2111 1 2.3739 56.1823 11.8695
2112 1 0.7913 54.5997 13.4521
2113 1 2.3739 56.1823 15.0347
2114 1 0.7913 54.5997 16.6173
2115 1 2.3739 56.1823 18.1999
2116 1 0.7913 54.5997 19.7825
2117 1 2.3739 56.1823 21.3651
2118 1 0.7913 54.5997 22.9477
2119 1 2.3739 56.1823 24.5303
2120 1 0.7913 54.5997 26.1129
2121 1 2.3739 56.1823 27.6955
2122 1 0.7913 54.5997 29.2781
2123 1 2.3739 56.1823 30.8607
2124 1 0.7913 54.5997 32.4433
2125 1 2.3739 56.1823 34.0259
2126 1 0.7913 54.5997 35.6085
2127 1 2.3739 56.1823 37.1911
2128 1 0.7913 54.5997 38.7737
2129 1 2.3739 56.1823 40.3563
2130 1 0.7913 54.5997 41.9389
2131 1 2.3739 56.1823 43.5215
2132 1 0.7913 54.5997 45.1041
2133 1 2.3739 56.1823 46.6867
2134 1 0.7913 54.5997 48.2693
2135 1 2.3739 56.1823 49.8519
2136 1 0.7913 54.5997 51.4345
2137 1 2.3739 56.1823 53.0171
2138 1 0.7913 54.5997 54.5997
2139 1 2.3739 56.1823 56.1823
2140 1 0.7913 54.5997 57.7649
2141 1 2.3739 56.1823 59.3475
2142 1 0.7913 54.5997 60.9301
2143 1 2.3739 56.1823 62.5127
2144 1 0.7913 54.5997 64.0953
2145 1 2.3739 56.1823 65.6779
2146 1 0.7913 54.5997 67.2605
2147 1 2.3739 56.1823 68.8431
2148 1 0.7913 54.5997 70.4257
2149 1 2.3739 56.1823 72.0083
2150 1 0.7913 54.5997 73.5909
2151 1 2.3739 56.1823 75.1735
2152 1 0.7913 54.5997 76.7561
2153 1 2.3739 56.1823 78.3387
2154 1 0.7913 57.7649 0.7913
2155 1 2.3739 59.3475 2.3739
2156 1 0.7913 57.7649 3.9565
2157 1 2.3739 59.3475 5.5391
2158 1 0.7913 57.7649 7.1217
2159 1 2.3739 59.3475 8.7043
2160 1 0.7913 57.7649 10.2869
2161 1 2.3739 59.3475 11.8695
2162 1 0.7913 57.7649 13.4521
2163 1 2.3739 59.3475 15.0347
2164 1 0.7913 57.7649 16.6173
2165 1 2.3739 59.3475 18.1999
2166 1 0.7913 57.7649 19.7825
2167 1 2.3739 59.3475 21.3651
2168 1 0.7913 57.7649 22.9477
2169 1 2.3739 59.3475 24.5303
2170 1 0.7913 57.7649 26.1129
2171 1 2.3739 59.3475 27.6955
2172 1 0.7913 57.7649 29.2781
2173 1 2.3739 59.3475 30.8607
2174 1 0.7913 57.7649 32.4433
2175 1 2.3739 59.3475 34.0259
2176 1 0.7913 57.7649 35.6085
2177 1 2.3739 59.3475 37.1911
2178 1 0.7913 57.7649 38.7737
2179 1 2.3739 59.3475 40.3563
2180 1 0.7913 57.7649 41.9389
2181 1 2.3739 59.3475 43.5215
2182 1 0.7913 57.7649 45.1041
2183 1 2.3739 59.3475 46.6867
2184 1 0.7913 57.7649 48.2693
2185 1 2.3739 59.3475 49.8519
2186 1 0.7913 57.7649 51.4345
2187 1 2.3739 59.3475 53.0171
2188 1 0.7913 57.7649 54.5997
2189 1 2.3739 59.3475 56.1823
2190 1 0.7913 57.7649 57.7649
2191 1 2.3739 59.3475 59.3475
2192 1 0.7913 57.7649 60.9301
2193 1 2.3739 59.3475 62.5127
2194 1 0.7913 57.7649 64.0953
2195 1 2.3739 59.3475 65.6779
2196 1 0.7913 57.7649 67.2605
2197 1 2.3739 59.3475 68.8431
2198 1 0.7913 57.7649 70.4257
2199 1 2.3739 59.3475 72.0083
2200 1 0.7913 57.7649 73.5909
2201 1 2.3739 59.3475 75.1735
2202 1 0.7913 57.7649 76.7561
2203 1 2.3739 59.3475 78.3387
2204 1 0.7913 60.9301 0.7913
2205 1 2.3739 62.5127 2.3739
2206 1 0.7913 60.9301 3.9565
2207 1 2.3739 62.5127 5.5391
2208 1 0.7913 60.9301 7.1217
2209 1 2.3739 62.5127 8.7043
2210 1 0.7913 60.9301 10.2869
2211 1 2.3739 62.5127 11.8695
2212 1 0.7913 60.9301 13.4521
2213 1 2.3739 62.5127 15.0347
2214 1 0.7913 60.9301 16.6173
2215 1 2.3739 62.5127 18.1999
2216 1 0.7913 60.9301 19.7825
2217 1 2.3739 62.5127 21.3651
2218 1 0.7913 60.9301 22.9477
2219 1 2.3739 62.5127 24.5303
2220 1 0.7913 60.9301 26.1129
2221 1 2.3739 62.5127 27.6955
2222 1 0.7913 60.9301 29.2781
2223 1 2.3739 62.5127 30.8607
2224 1 0.7913 60.9301 32.4433
2225 1 2.3739 62.5127 34.0259
2226 1 0.7913 60.9301 35.6085
2227 1 2.3739 62.5127 37.1911
2228 1 0.7913 60.9301 38.7737
2229 1 2.3739 62.5127 40.3563
2230 1 0.7913 60.9301 41.9389
2231 1 2.3739 62.5127 43.5215
2232 1 0.7913 60.9301 45.1041
2233 1 2.3739 62.5127 46.6867
2234 1 0.7913 60.9301 48.2693
2235 1 2.3739 62.5127 49.8519
2236 1 0.7913 60.9301 51.4345
2237 1 2.3739 62.5127 53.0171
2238 1 0.7913 60.9301 54.5997
2239 1 2.3739 62.5127 56.1823
2240 1 0.7913 60.9301 57.7649
2241 1 2.3739 62.5127 59.3475
2242 1 0.7913 60.9301 60.9301
2243 1 2.3739 62.5127 62.5127
2244 1 0.7913 60.9301 64.0953
2245 1 2.3739 62.5127 65.6779
2246 1 0.7913 60.9301 67.2605
2247 1 2.3739 62.5127 68.8431
2248 1 0.7913 60.9301 70.4257
2249 1 2.3739 62.5127 72.0083
2250 1 0.7913 60.9301 73.5909
2251 1 2.3739 62.5127 75.1735
2252 1 0.7913 60.9301 76.7561
2253 1 2.3739 62.5127 78.3387
2254 1 0.7913 64.0953 0.7913
2255 1 2.3739 65.6779 2.3739
2256 1 0.7913 64.0953 3.9565
2257 1 2.3739 65.6779 5.5391
2258 1 0.7913 64.0953 7.1217
2259 1 2.3739 65.6779 8.7043
2260 1 0.7913 64.0953 10.2869
2261 1 2.3739 65.6779 11.8695
2262 1 0.7913 64.0953 13.4521
2263 1 2.3739 65.6779 15.0347
2264 1 0.7913 64.0953 16.6173
2265 1 2.3739 65.6779 18.1999
2266 1 0.7913 64.0953 19.7825
2267 1 2.3739 65.6779 21.3651
2268 1 0.7913 64.0953 22.9477
2269 1 2.3739 65.6779 24.5303
2270 1 0.7913 64.0953 26.1129
2271 1 2.3739 65.6779 27.6955
2272 1 0.7913 64.0953 29.2781
2273 1 2.3739 65.6779 30.8607
2274 1 0.7913 64.0953 32.4433
2275 1 2.3739 65.6779 34.0259
2276 1 0.7913 64.0953 35.6085
2277 1 2.3739 65.6779 37.1911
2278 1 0.7913 64.0953 38.7737
2279 1 2.3739 65.6779 40.3563
2280 1 0.7913 64.0953 41.9389
2281 1 2.3739 65.6779 43.5215
2282 1 0.7913 64.0953 45.1041
2283 1 2.3739 65.6779 46.6867
2284 1 0.7913 64.0953 48.2693
2285 1 2.3739 65.6779 49.8519
2286 1 0.7913 64.0953 51.4345
2287 1 2.3739 65.6779 53.0171
2288 1 0.7913 64.0953 54.5997
2289 1 2.3739 65.6779 56.1823
2290 1 0.7913 64.0953 57.7649
2291 1 2.3739 65.6779 59.3475
2292 1 0.7913 64.0953 60.9301
2293 1 2.3739 65.6779 62.5127
2294 1 0.7913 64.0953 64.0953
2295 1 2.3739 65.6779 65.6779
2296 1 0.7913 64.0953 67.2605
2297 1 2.3739 65.6779 68.8431
2298 1 0.7913 64.0953 70.4257
2299 1 2.3739 65.6779 72.0083
2300 1 0.7913 64.0953 73.5909
2301 1 2.3739 65.6779 75.1735
2302 1 0.7913 64.0953 76.7561
2303 1 2.3739 65.6779 78.3387
2304 1 0.7913 67.2605 0.7913
2305 1 2.3739 68.8431 2.3739
2306 1 0.7913 67.2605 3.9565
2307 1 2.3739 68.8431 5.5391
2308 1 0.7913 67.2605 7.1217
2309 1 2.3739 68.8431 8.7043
2310 1 0.7913 67.2605 10.2869
2311 1 2.3739 68.8431 11.8695
2312 1 0.7913 67.2605 13.4521
2313 1 2.3739 68.8431 15.0347
2314 1 0.7913 67.2605 16.6173
2315 1 2.3739 68.8431 18.1999
2316 1 0.7913 67.2605 19.7825
2317 1 2.3739 68.8431 21.3651
2318 1 0.7913 67.2605 22.9477
2319 1 2.3739 68.8431 24.5303
2320 1 0.7913 67.2605 26.1129
2321 1 2.3739 68.8431 27.6955
2322 1 0.7913 67.2605 29.2781
2323 1 2.3739 68.8431 30.8607
2324 1 0.7913 67.2605 32.4433
2325 1 2.3739 68.8431 34.0259
2326 1 0.7913 67.2605 35.6085
2327 1 2.3739 68.8431 37.1911
2328 1 0.7913 67.2605 38.7737
2329 1 2.3739 68.8431 40.3563
2330 1 0.7913 67.2605 41.9389
2331 1 2.3739 68.8431 43.5215
2332 1 0.7913 67.2605 45.1041
2333 1 2.3739 68.8431 46.6867
2334 1 0.7913 67.2605 48.2693
2335 1 2.3739 68.8431 49.8519
2336 1 0.7913 67.2605 51.4345
2337 1 2.3739 68.8431 53.0171
2338 1 0.7913 67.2605 54.5997
2339 1 2.3739 68.8431 56.1823
2340 1 0.7913 67.2605 57.7649
2341 1 2.3739 68.8431 59.3475
2342 1 0.7913 67.2605 60.9301
2343 1 2.3739 68.8431 62.5127
2344 1 0.7913 67.2605 64.0953
2345 1 2.3739 68.8431 65.6779
2346 1 0.7913 67.2605 67.2605
2347 1 2.3739 68.8431 68.8431
2348 1 0.7913 67.2605 70.4257
2349 1 2.3739 68.8431 72.0083
2350 1 0.7913 67.2605 73.5909
2351 1 2.3739 68.8431 75.1735
2352 1 0.7913 67.2605 76.7561
2353 1 2.3739 68.8431 78.3387
2354 1 0.7913 70.4257 0.7913
2355 1 2.3739 72.0083 2.3739
2356 1 0.7913 70.4257 3.9565
2357 1 2.3739 72.0083 5.5391
2358 1 0.7913 70.4257 7.1217
2359 1 2.3739 72.0083 8.7043
2360 1 0.7913 70.4257 10.2869
2361 1 2.3739 72.0083 11.8695
2362 1 0.7913 70.4257 13.4521
2363 1 2.3739 72.0083 15.0347
2364 1 0.7913 70.4257 16.6173
2365 1 2.3739 72.0083 18.1999
2366 1 0.7913 70.4257 19.7825
2367 1 2.3739 72.0083 21.3651
2368 1 0.7913 70.4257 22.9477
2369 1 2.3739 72.0083 24.5303
2370 1 0.7913 70.4257 26.1129
2371 1 2.3739 72.0083 27.6955
2372 1 0.7913 70.4257 29.2781
2373 1 2.3739 72.0083 30.8607
2374 1 0.7913 70.4257 32.4433
2375 1 2.3739 72.0083 34.0259
2376 1 0.7913 70.4257 35.6085
2377 1 2.3739 72.0083 37.1911
2378 1 0.7913 70.4257 38.7737
2379 1 2.3739 72.0083 40.3563
2380 1 0.7913 70.4257 41.9389
2381 1 2.3739 72.0083 43.5215
2382 1 0.7913 70.4257 45.1041
2383 1 2.3739 72.0083 46.6867
2384 1 0.7913 70.4257 48.2693
2385 1 2.3739 72.0083 49.8519
2386 1 0.7913 70.4257 51.4345
2387 1 2.3739 72.0083 53.0171
2388 1 0.7913 70.4257 54.5997
2389 1 2.3739 72.0083 56.1823
2390 1 0.7913 70.4257 57.7649
2391 1 2.3739 72.0083 59.3475
2392 1 0.7913 70.4257 60.9301
2393 1 2.3739 72.0083 62.5127
2394 1 0.7913 70.4257 64.0953
2395 1 2.3739 72.0083 65.6779
2396 1 0.7913 70.4257 67.2605
2397 1 2.3739 72.0083 68.8431
2398 1 0.7913 70.4257 70.4257
2399 1 2.3739 72.0083 72.0083
2400 1 0.7913 70.4257 73.5909
2401 1 2.3739 72.0083 75.1735
2402 1 0.7913 70.4257 76.7561
2403 1 2.3739 72.0083 78.3387
2404 1 0.7913 73.5909 0.7913
2405 1 2.3739 75.1735 2.3739
2406 1 0.7913 73.5909 3.9565
2407 1 2.3739 75.1735 5.5391
2408 1 0.7913 73.5909 7.1217
2409 1 2.3739 75.1735 8.7043
2410 1 0.7913 73.5909 10.2869
2411 1 2.3739 75.1735 11.8695
2412 1 0.7913 73.5909 13.4521
2413 1 2.3739 75.1735 15.0347
2414 1 0.7913 73.5909 16.6173
2415 1 2.3739 75.1735 18.1999
2416 1 0.7913 73.5909 19.7825
2417 1 2.3739 75.1735 21.3651
2418 1 0.7913 73.5909 22.9477
2419 1 2.3739 75.1735 24.5303
2420 1 0.7913 73.5909 26.1129
2421 1 2.3739 75.1735 27.6955
2422 1 0.7913 73.5909 29.2781
2423 1 2.3739 75.1735 30.8607
2424 1 0.7913 73.5909 32.4433
2425 1 2.3739 75.1735 34.0259
2426 1 0.7913 73.5909 35.6085
2427 1 2.3739 75.1735 37.1911
2428 1 0.7913 73.5909 38.7737
2429 1 2.3739 75.1735 40.3563
2430 1 0.7913 73.5909 41.9389
2431 1 2.3739 75.1735 43.5215
2432 1 0.7913 73.5909 45.1041
2433 1 2.3739 75.1735 46.6867
2434 1 0.7913 73.5909 48.2693
2435 1 2.3739 75.1735 49.8519
2436 1 0.7913 73.5909 51.4345
2437 1 2.3739 75.1735 53.0171
2438 1 0.7913 73.5909 54.5997
2439 1 2.3739 75.1735 56.1823
2440 1 0.7913 73.5909 57.7649
2441 1 2.3739 75.1735 59.3475
2442 1 0.7913 73.5909 60.9301
2443 1 2.3739 75.1735 62.5127
2444 1 0.7913 73.5909 64.0953
2445 1 2.3739 75.1735 65.6779
2446 1 0.7913 73.5909 67.2605
2447 1 2.3739 75.1735 68.8431
2448 1 0.7913 73.5909 70.4257
2449 1 2.3739 75.1735 72.0083
2450 1 0.7913 73.5909 73.5909
2451 1 2.3739 75.1735 75.1735
2452 1 0.7913 73.5909 76.7561
2453 1 2.3739 75.1735 78.3387
2454 1 0.7913 76.7561 0.7913
2455 1 2.3739 78.3387 2.3739
2456 1 0.7913 76.7561 3.9565
2457 1 2.3739 78.3387 5.5391
2458 1 0.7913 76.7561 7.1217
2459 1 2.3739 78.3387 8.7043
2460 1 0.7913 76.7561 10.2869
2461 1 2.3739 78.3387 11.8695
2462 1 0.7913 76.7561 13.4521
2463 1 2.3739 78.3387 15.0347
2464 1 0.7913 76.7561 16.6173
2465 1 2.3739 78.3387 18.1999
2466 1 0.7913 76.7561 19.7825
2467 1 2.3739 78.3387 21.3651
2468 1 0.7913 76.7561 22.9477
2469 1 2.3739 78.3387 24.5303
2470 1 0.7913 76.7561 26.1129
2471 1 2.3739 78.3387 27.6955
2472 1 0.7913 76.7561 29.2781
2473 1 2.3739 78.3387 30.8607
2474 1 0.7913 76.7561 32.4433
2475 1 2.3739 78.3387 34.0259
2476 1 0.7913 76.7561 35.6085
2477 1 2.3739 78.3387 37.1911
2478 1 0.7913 76.7561 38.7737
2479 1 2.3739 78.3387 40.3563
2480 1 0.7913 76.7561 41.9389
2481 1 2.3739 78.3387 43.5215
2482 1 0.7913 76.7561 45.1041
2483 1 2.3739 78.3387 46.6867
2484 1 0.7913 76.7561 48.2693
2485 1 2.3739 78.3387 49.8519
2486 1 0.7913 76.7561 51.4345
2487 1 2.3739 78.3387 53.0171
2488 1 0.7913 76.7561 54.5997
2489 1 2.3739 78.3387 56.1823
2490 1 0.7913 76.7561 57.7649
2491 1 2.3739 78.3387 59.3475
2492 1 0.7913 76.7561 60.9301
2493 1 2.3739 78.3387 62.5127
2494 1 0.7913 76.7561 64.0953
2495 1 2.3739 78.3387 65.6779
2496 1 0.7913 76.7561 67.2605
2497 1 2.3739 78.3387 68.8431
2498 1 0.7913 76.7561 70.4257
2499 1 2.3739 78.3387 72.0083
2500 1 0.7913 76.7561 73.5909
2501 1 2.3739 78.3387 75.1735
2502 1 0.7913 76.7561 76.7561
2503 1 2.3739 78.3387 78.3387
2504 1 3.9565 0.7913 0.7913
2505 1 5.5391 2.3739 2.3739
2506 1 3.9565 0.7913 3.9565
2507 1 5.5391 2.3739 5.5391
2508 1 3.9565 0.7913 7.1217
2509 1 5.5391 2.3739 8.7043
2510 1 3.9565 0.7913 10.2869
2511 1 5.5391 2.3739 11.8695
2512 1 3.9565 0.7913 13.4521
2513 1 5.5391 2.3739 15.0347
2514 1 3.9565 0.7913 16.6173
2515 1 5.5391 2.3739 18.1999
2516 1 3.9565 0.7913 19.7825
2517 1 5.5391 2.3739 21.3651
2518 1 3.9565 0.7913 22.9477
2519 1 5.5391 2.3739 24.5303
2520 1 3.9565 0.7913 26.1129
2521 1 5.5391 2.3739 27.6955
2522 1 3.9565 0.7913 29.2781
2523 1 5.5391 2.3739 30.8607
2524 1 3.9565 0.7913 32.4433
2525 1 5.5391 2.3739 34.0259
2526 1 3.9565 0.7913 35.6085
2527 1 5.5391 2.3739 37.1911
2528 1 3.9565 0.7913 38.7737
2529 1 5.5391 2.3739 40.3563
2530 1 3.9565 0.7913 41.9389
2531 1 5.5391 2.3739 43.5215
2532 1 3.9565 0.7913 45.1041
2533 1 5.5391 2.3739 46.6867
2534 1 3.9565 0.7913 48.2693
2535 1 5.5391 2.3739 49.8519
2536 1 3.9565 0.7913 51.4345
2537 1 5.5391 2.3739 53.0171
2538 1 3.9565 0.7913 54.5997
2539 1 5.5391 2.3739 56.1823
2540 1 3.9565 0.7913 57.7649
2541 1 5.5391 2.3739 59.3475
2542 1 3.9565 0.7913 60.9301
2543 1 5.5391 2.3739 62.5127
2544 1 3.9565 0.7913 64.0953
2545 1 5.5391 2.3739 65.6779
2546 1 3.9565 0.7913 67.2605
2547 1 5.5391 2.3739 68.8431
2548 1 3.9565 0.7913 70.4257
2549 1 5.5391 2.3739 72.0083
2550 1 3.9565 0.7913 73.5909
2551 1 5.5391 2.3739 75.1735
2552 1 3.9565 0.7913 76.7561
2553 1 5.5391 2.3739 78.3387
2554 1 3.9565 3.9565 0.7913
2555 1 5.5391 5.5391 2.3739
2556 1 3.9565 3.9565 3.9565
2557 1 5.5391 5.5391 5.5391
2558 1 3.9565 3.9565 7.1217
2559 1 5.5391 5.5391 8.7043
2560 1 3.9565 3.9565 10.2869
2561 1 5.5391 5.5391 11.8695
2562 1 3.9565 3.9565 13.4521
2563 1 5.5391 5.5391 15.0347
2564 1 3.9565 3.9565 16.6173
2565 1 5.5391 5.5391 18.1999
2566 1 3.9565 3.9565 19.7825
2567 1 5.5391 5.5391 21.3651
2568 1 3.9565 3.9565 22.9477
2569 1 5.5391 5.5391 24.5303
2570 1 3.9565 3.9565 26.1129
2571 1 5.5391 5.5391 27.6955
2572 1 3.9565 3.9565 29.2781
2573 1 5.5391 5.5391 30.8607
2574 1 3.9565 3.9565 32.4433
2575 1 5.5391 5.5391 34.0259
2576 1 3.9565 3.9565 35.6085
2577 1 5.5391 5.5391 37.1911
2578 1 3.9565 3.9565 38.7737
2579 1 5.5391 5.5391 40.3563
2580 1 3.9565 3.9565 41.9389
2581 1 5.5391 5.5391 43.5215
2582 1 3.9565 3.9565 45.1041
2583 1 5.5391 5.5391 46.6867
2584 1 3.9565 3.9565 48.2693
2585 1 5.5391 5.5391 49.8519
2586 1 3.9565 3.9565 51.4345
2587 1 5.5391 5.5391 53.0171
2588 1 3.9565 3.9565 54.5997
2589 1 5.5391 5.5391 56.1823
2590 1 3.9565 3.9565 57.7649
2591 1 5.5391 5.5391 59.3475
2592 1 3.9565 3.9565 60.9301
2593 1 5.5391 5.5391 62.5127
2594 1 3.9565 3.9565 64.0953
2595 1 5.5391 5.5391 65.6779
2596 1 3.9565 3.9565 67.2605
2597 1 5.5391 5.5391 68.8431
2598 1 3.9565 3.9565 70.4257
2599 1 5.5391 5.5391 72.0083
2600 1 3.9565 3.9565 73.5909
2601 1 5.5391 5.5391 75.1735
2602 1 3.9565 3.9565 76.7561
2603 1 5.5391 5.5391 78.3387
2604 1 3.9565 7.1217 0.7913
2605 1 5.5391 8.7043 2.3739
2606 1 3.9565 7.1217 3.9565
2607 1 5.5391 8.7043 5.5391
2608 1 3.9565 7.1217 7.1217
2609 1 5.5391 8.7043 8.7043
2610 1 3.9565 7.1217 10.2869
2611 1 5.5391 8.7043 11.8695
2612 1 3.9565 7.1217 13.4521
2613 1 5.5391 8.7043 15.0347
2614 1 3.9565 7.1217 16.6173
2615 1 5.5391 8.7043 18.1999
2616 1 3.9565 7.1217 19.7825
2617 1 5.5391 8.7043 21.3651
2618 1 3.9565 7.1217 22.9477
2619 1 5.5391 8.7043 24.5303
2620 1 3.9565 7.1217 26.1129
2621 1 5.5391 8.7043 27.6955
2622 1 3.9565 7.1217 29.2781
2623 1 5.5391 8.7043 30.8607
2624 1 3.9565 7.1217 32.4433
2625 1 5.5391 8.7043 34.0259
2626 1 3.9565 7.1217 35.6085
2627 1 5.5391 8.7043 37.1911
2628 1 3.9565 7.1217 38.7737
2629 1 5.5391 8.7043 40.3563
2630 1 3.9565 7.1217 41.9389
2631 1 5.5391 8.7043 43.5215
2632 1 3.9565 7.1217 45.1041
2633 1 5.5391 8.7043 46.6867
2634 1 3.9565 7.1217 48.2693
2635 1 5.5391 8.7043 49.8519
2636 1 3.9565 7.1217 51.4345
2637 1 5.5391 8.7043 53.0171
2638 1 3.9565 7.1217 54.5997
2639 1 5.5391 8.7043 56.1823
2640 1 3.9565 7.1217 57.7649
2641 1 5.5391 8.7043 59.3475
2642 1 3.9565 7.1217 60.9301
2643 1 5.5391 8.7043 62.5127
2644 1 3.9565 7.1217 64.0953
2645 1 5.5391 8.7043 65.6779
2646 1 3.9565 7.1217 67.2605
2647 1 5.5391 8.7043 68.8431
2648 1 3.9565 7.1217 70.4257
2649 1 5.5391 8.7043 72.0083
2650 1 3.9565 7.1217 73.5909
2651 1 5.5391 8.7043 75.1735
2652 1 3.9565 7.1217 76.7561
2653 1 5.5391 8.7043 78.3387
2654 1 3.9565 10.2869 0.7913
2655 1 5.5391 11.8695 2.3739
2656 1 3.9565 10.2869 3.9565
2657 1 5.5391 11.8695 5.5391
2658 1 3.9565 10.2869 7.1217
2659 1 5.5391 11.8695 8.7043
2660 1 3.9565 10.2869 10.2869
2661 1 5.5391 11.8695 11.8695
2662 1 3.9565 10.2869 13.4521
2663 1 5.5391 11.8695 15.0347
2664 1 3.9565 10.2869 16.6173
2665 1 5.5391 11.8695 18.1999
2666 1 3.9565 10.2869 19.7825
2667 1 5.5391 11.8695 21.3651
2668 1 3.9565 10.2869 22.9477
2669 1 5.5391 11.8695 24.5303
2670 1 3.9565 10.2869 26.1129
2671 1 5.5391 11.8695 27.6955
2672 1 3.9565 10.2869 29.2781
2673 1 5.5391 11.8695 30.8607
2674 1 3.9565 10.2869 32.4433
2675 1 5.5391 11.8695 34.0259
2676 1 3.9565 10.2869 35.6085
2677 1 5.5391 11.8695 37.1911
2678 1 3.9565 10.2869 38.7737
2679 1 5.5391 11.8695 40.3563
2680 1 3.9565 10.2869 41.9389
2681 1 5.5391 11.8695 43.5215
2682 1 3.9565 10.2869 45.1041
2683 1 5.5391 11.8695 46.6867
2684 1 3.9565 10.2869 48.2693
2685 1 5.5391 11.8695 49.8519
2686 1 3.9565 10.2869 51.4345
2687 1 5.5391 11.8695 53.0171
2688 1 3.9565 10.2869 54.5997
2689 1 5.5391 11.8695 56.1823
2690 1 3.9565 10.2869 57.7649
2691 1 5.5391 11.8695 59.3475
2692 1 3.9565 10.2869 60.9301
2693 1 5.5391 11.8695 62.5127
2694 1 3.9565 10.2869 64.0953
2695 1 5.5391 11.8695 65.6779
2696 1 3.9565 10.2869 67.2605
2697 1 5.5391 11.8695 68.8431
2698 1 3.9565 10.2869 70.4257
2699 1 5.5391 11.8695 72.0083
2700 1 3.9565 10.2869 73.5909
2701 1 5.5391 11.8695 75.1735
2702 1 3.9565 10.2869 76.7561
2703 1 5.5391 11.8695 78.3387
2704 1 3.9565 13.4521 0.7913
2705 1 5.5391 15.0347 2.3739
2706 1 3.9565 13.4521 3.9565
2707 1 5.5391 15.0347 5.5391
2708 1 3.9565 13.4521 7.1217
2709 1 5.5391 15.0347 8.7043
2710 1 3.9565 13.4521 10.2869
2711 1 5.5391 15.0347 11.8695
2712 1 3.9565 13.4521 13.4521
2713 1 5.5391 15.0347 15.0347
2714 1 3.9565 13.4521 16.6173
2715 1 5.5391 15.0347 18.1999
2716 1 3.9565 13.4521 19.7825
2717 1 5.5391 15.0347 21.3651
2718 1 3.9565 13.4521 22.9477
2719 1 5.5391 15.0347 24.5303
2720 1 3.9565 13.4521 26.1129
2721 1 5.5391 15.0347 27.6955
2722 1 3.9565 13.4521 29.2781
2723 1 5.5391 15.0347 30.8607
2724 1 3.9565 13.4521 32.4433
2725 1 5.5391 15.0347 34.0259
2726 1 3.9565 13.4521 35.6085
2727 1 5.5391 15.0347 37.1911
2728 1 3.9565 13.4521 38.7737
2729 1 5.5391 15.0347 40.3563
2730 1 3.9565 13.4521 41.9389
2731 1 5.5391 15.0347 43.5215
2732 1 3.9565 13.4521 45.1041
2733 1 5.5391 15.0347 46.6867
2734 1 3.9565 13.4521 48.2693
2735 1 5.5391 15.0347 49.8519
2736 1 3.9565 13.4521 51.4345
2737 1 5.5391 15.0347 53.0171
2738 1 3.9565 13.4521 54.5997
2739 1 5.5391 15.0347 56.1823
2740 1 3.9565 13.4521 57.7649
2741 1 5.5391 15.0347 59.3475
2742 1 3.9565 13.4521 60.9301
2743 1 5.5391 15.0347 62.5127
2744 1 3.9565 13.4521 64.0953
2745 1 5.5391 15.0347 65.6779
2746 1 3.9565 13.4521 67.2605
2747 1 5.5391 15.0347 68.8431
2748 1 3.9565 13.4521 70.4257
2749 1 5.5391 15.0347 72.0083
2750 1 3.9565 13.4521 73.5909
2751 1 5.5391 15.0347 75.1735
2752 1 3.9565 13.4521 76.7561
2753 1 5.5391 15.0347 78.3387
2754 1 3.9565 16.6173 0.7913
2755 1 5.5391 18.1999 2.3739
2756 1 3.9565 16.6173 3.9565
2757 1 5.5391 18.1999 5.5391
2758 1 3.9565 16.6173 7.1217
2759 1 5.5391 18.1999 8.7043
2760 1 3.9565 16.6173 10.2869
2761 1 5.5391 18.1999 11.8695
2762 1 3.9565 16.6173 13.4521
2763 1 5.5391 18.1999 15.0347
2764 1 3.9565 16.6173 16.6173
2765 1 5.5391 18.1999 18.1999
2766 1 3.9565 16.6173 19.7825
2767 1 5.5391 18.1999 21.3651
2768 1 3.9565 16.6173 22.9477
2769 1 5.5391 18.1999 24.5303
2770 1 3.9565 16.6173 26.1129
2771 1 5.5391 18.1999 27.6955
2772 1 3.9565 16.6173 29.2781
2773 1 5.5391 18.1999 30.8607
2774 1 3.9565 16.6173 32.4433
2775 1 5.5391 18.1999 34.0259
2776 1 3.9565 16.6173 35.6085
2777 1 5.5391 18.1999 37.1911
2778 1 3.9565 16.6173 38.7737
2779 1 5.5391 18.1999 40.3563
2780 1 3.9565 16.6173 41.9389
2781 1 5.5391 18.1999 43.5215
2782 1 3.9565 16.6173 45.1041
2783 1 5.5391 18.1999 46.6867
2784 1 3.9565 16.6173 48.2693
2785 1 5.5391 18.1999 49.8519
2786 1 3.9565 16.6173 51.4345
2787 1 5.5391 18.1999 53.0171
2788 1 3.9565 16.6173 54.5997
2789 1 5.5391 18.1999 56.1823
2790 1 3.9565 16.6173 57.7649
2791 1 5.5391 18.1999 59.3475
2792 1 3.9565 16.6173 60.9301
2793 1 5.5391 18.1999 62.5127
2794 1 3.9565 16.6173 64.0953
2795 1 5.5391 18.1999 65.6779
2796 1 3.9565 16.6173 67.2605
2797 1 5.5391 18.1999 68.8431
2798 1 3.9565 16.6173 70.4257
2799 1 5.5391 18.1999 72.0083
2800 1 3.9565 16.6173 73.5909
2801 1 5.5391 18.1999 75.1735
2802 1 3.9565 16.6173 76.7561
2803 1 5.5391 18.1999 78.3387
2804 1 3.9565 19.7825 0.7913
2805 1 5.5391 21.3651 2.3739
2806 1 3.9565 19.7825 3.9565
2807 1 5.5391 21.3651 5.5391
2808 1 3.9565 19.7825 7.1217
2809 1 5.5391 21.3651 8.7043
2810 1 3.9565 19.7825 10.2869
2811 1 5.5391 21.3651 11.8695
2812 1 3.9565 19.7825 13.4521
2813 1 5.5391 21.3651 15.0347
2814 1 3.9565 19.7825 16.6173
2815 1 5.5391 21.3651 18.1999
2816 1 3.9565 19.7825 19.7825
2817 1 5.5391 21.3651 21.3651
2818 1 3.9565 19.7825 22.9477
2819 1 5.5391 21.3651 24.5303
2820 1 3.9565 19.7825 26.1129
2821 1 5.5391 21.3651 27.6955
2822 1 3.9565 19.7825 29.2781
2823 1 5.5391 21.3651 30.8607
2824 1 3.9565 19.7825 32.4433
2825 1 5.5391 21.3651 34.0259
2826 1 3.9565 19.7825 35.6085
2827 1 5.5391 21.3651 37.1911
2828 1 3.9565 19.7825 38.7737
2829 1 5.5391 21.3651 40.3563
2830 1 3.9565 19.7825 41.9389
2831 1 5.5391 21.3651 43.5215
2832 1 3.9565 19.7825 45.1041
2833 1 5.5391 21.3651 46.6867
2834 1 3.9565 19.7825 48.2693
2835 1 5.5391 21.3651 49.8519
2836 1 3.9565 19.7825 51.4345
2837 1 5.5391 21.3651 53.0171
2838 1 3.9565 19.7825 54.5997
2839 1 5.5391 21.3651 56.1823
2840 1 3.9565 19.7825 57.7649
2841 1 5.5391 21.3651 59.3475
2842 1 3.9565 19.7825 60.9301
2843 1 5.5391 21.3651 62.5127
2844 1 3.9565 19.7825 64.0953
2845 1 5.5391 21.3651 65.6779
2846 1 3.9565 19.7825 67.2605
2847 1 5.5391 21.3651 68.8431
2848 1 3.9565 19.7825 70.4257
2849 1 5.5391 21.3651 72.0083
2850 1 3.9565 19.7825 73.5909
2851 1 5.5391 21.3651 75.1735
2852 1 3.9565 19.7825 76.7561
2853 1 5.5391 21.3651 78.3387
2854 1 3.9565 22.9477 0.7913
2855 1 5.5391 24.5303 2.3739
2856 1 3.9565 22.9477 3.9565
2857 1 5.5391 24.5303 5.5391
2858 1 3.9565 22.9477 7.1217
2859 1 5.5391 24.5303 8.7043
2860 1 3.9565 22.9477 10.2869
2861 1 5.5391 24.5303 11.8695
2862 1 3.9565 22.9477 13.4521
2863 1 5.5391 24.5303 15.0347
2864 1 3.9565 22.9477 16.6173
2865 1 5.5391 24.5303 18.1999
2866 1 3.9565 22.9477 19.7825
2867 1 5.5391 24.5303 21.3651
2868 1 3.9565 22.9477 22.9477
2869 1 5.5391 24.5303 24.5303
2870 1 3.9565 22.9477 26.1129
2871 1 5.5391 24.5303 27.6955
2872 1 3.9565 22.9477 29.2781
2873 1 5.5391 24.5303 30.8607
2874 1 3.9565 22.9477 32.4433
2875 1 5.5391 24.5303 34.0259
2876 1 3.9565 22.9477 35.6085
2877 1 5.5391 24.5303 37.1911
2878 1 3.9565 22.9477 38.7737
2879 1 5.5391 24.5303 40.3563
2880 1 3.9565 22.9477 41.9389
2881 1 5.5391 24.5303 43.5215
2882 1 3.9565 22.9477 45.1041
2883 1 5.5391 24.5303 46.6867
2884 1 3.9565 22.9477 48.2693
2885 1 5.5391 24.5303 49.8519
2886 1 3.9565 22.9477 51.4345
2887 1 5.5391 24.5303 53.0171
2888 1 3.9565 22.9477 54.5997
2889 1 5.5391 24.5303 56.1823
2890 1 3.9565 22.9477 57.7649
2891 1 5.5391 24.5303 59.3475
2892 1 3.9565 22.9477 60.9301
2893 1 5.5391 24.5303 62.5127
2894 1 3.9565 22.9477 64.0953
2895 1 5.5391 24.5303 65.6779
2896 1 3.9565 22.9477 67.2605
2897 1 5.5391 24.5303 68.8431
2898 1 3.9565 22.9477 70.4257
2899 1 5.5391 24.5303 72.0083
2900 1 3.9565 22.9477 73.5909
2901 1 5.5391 24.5303 75.1735
2902 1 3.9565 22.9477 76.7561
2903 1 5.5391 24.5303 78.3387
2904 1 3.9565 26.1129 0.7913
2905 1 5.5391 27.6955 2.3739
2906 1 3.9565 26.1129 3.9565
2907 1 5.5391 27.6955 5.5391
2908 1 3.9565 26.1129 7.1217
2909 1 5.5391 27.6955 8.7043
2910 1 3.9565 26.1129 10.2869
2911 1 5.5391 27.6955 11.8695
2912 1 3.9565 26.1129 13.4521
2913 1 5.5391 27.6955 15.0347
2914 1 3.9565 26.1129 16.6173
2915 1 5.5391 27.6955 18.1999
2916 1 3.9565 26.1129 19.7825
2917 1 5.5391 27.6955 21.3651
2918 1 3.9565 26.1129 22.9477
2919 1 5.5391 27.6955 24.5303
2920 1 3.9565 26.1129 26.1129
2921 1 5.5391 27.6955 27.6955
2922 1 3.9565 26.1129 29.2781
2923 1 5.5391 27.6955 30.8607
2924 1 3.9565 26.1129 32.4433
2925 1 5.5391 27.6955 34.0259
2926 1 3.9565 26.1129 35.6085
2927 1 5.5391 27.6955 37.1911
2928 1 3.9565 26.1129 38.7737
2929 1 5.5391 27.6955 40.3563
2930 1 3.9565 26.1129 41.9389
2931 1 5.5391 27.6955 43.5215
2932 1 3.9565 26.1129 45.1041
2933 1 5.5391 27.6955 46.6867
2934 1 3.9565 26.1129 48.2693
2935 1 5.5391 27.6955 49.8519
2936 1 3.9565 26.1129 51.4345
2937 1 5.5391 27.6955 53.0171
2938 1 3.9565 26.1129 54.5997
2939 1 5.5391 27.6955 56.1823
2940 1 3.9565 26.1129 57.7649
2941 1 5.5391 27.6955 59.3475
2942 1 3.9565 26.1129 60.9301
2943 1 5.5391 27.6955 62.5127
2944 1 3.9565 26.1129 64.0953
2945 1 5.5391 27.6955 65.6779
2946 1 3.9565 26.1129 67.2605
2947 1 5.5391 27.6955 68.8431
2948 1 3.9565 26.1129 70.4257
2949 1 5.5391 27.6955 72.0083
2950 1 3.9565 26.1129 73.5909
2951 1 5.5391 27.6955 75.1735
2952 1 3.9565 26.1129 76.7561
2953 1 5.5391 27.6955 78.3387
2954 1 3.9565 29.2781 0.7913
2955 1 5.5391 30.8607 2.3739
2956 1 3.9565 29.2781 3.9565
2957 1 5.5391 30.8607 5.5391
2958 1 3.9565 29.2781 7.1217
2959 1 5.5391 30.8607 8.7043
2960 1 3.9565 29.2781 10.2869
2961 1 5.5391 30.8607 11.8695
2962 1 3.9565 29.2781 13.4521
2963 1 5.5391 30.8607 15.0347
2964 1 3.9565 29.2781 16.6173
2965 1 5.5391 30.8607 18.1999
2966 1 3.9565 29.2781 19.7825
2967 1 5.5391 30.8607 21.3651
2968 1 3.9565 29.2781 22.9477
2969 1 5.5391 30.8607 24.5303
2970 1 3.9565 29.2781 26.1129
2971 1 5.5391 30.8607 27.6955
2972 1 3.9565 29.2781 29.2781
2973 1 5.5391 30.8607 30.8607
2974 1 3.9565 29.2781 32.4433
2975 1 5.5391 30.8607 34.0259
2976 1 3.9565 29.2781 35.6085
2977 1 5.5391 30.8607 37.1911
2978 1 3.9565 29.2781 38.7737
2979 1 5.5391 30.8607 40.3563
2980 1 3.9565 29.2781 41.9389
2981 1 5.5391 30.8607 43.5215
2982 1 3.9565 29.2781 45.1041
2983 1 5.5391 30.8607 46.6867
2984 1 3.9565 29.2781 48.2693
2985 1 5.5391 30.8607 49.8519
2986 1 3.9565 29.2781 51.4345
2987 1 5.5391 30.8607 53.0171
2988 1 3.9565 29.2781 54.5997
2989 1 5.5391 30.8607 56.1823
2990 1 3.9565 29.2781 57.7649
2991 1 5.5391 30.8607 59.3475
2992 1 3.9565 29.2781 60.9301
2993 1 5.5391 30.8607 62.5127
2994 1 3.9565 29.2781 64.0953
2995 1 5.5391 30.8607 65.6779
2996 1 3.9565 29.2781 67.2605
2997 1 5.5391 30.8607 68.8431
2998 1 3.9565 29.2781 70.4257
2999 1 5.5391 30.8607 72.0083
3000 1 3.9565 29.2781 73.5909
3001 1 5.5391 30.8607 75.1735
3002 1 3.9565 29.2781 76.7561
3003 1 5.5391 30.8607 78.3387
3004 1 3.9565 32.4433 0.7913
3005 1 5.5391 34.0259 2.3739
3006 1 3.9565 32.4433 3.9565
3007 1 5.5391 34.0259 5.5391
3008 1 3.9565 32.4433 7.1217
3009 1 5.5391 34.0259 8.7043
3010 1 3.9565 32.4433 10.2869
3011 1 5.5391 34.0259 11.8695
3012 1 3.9565 32.4433 13.4521
3013 1 5.5391 34.0259 15.0347
3014 1 3.9565 32.4433 16.6173
3015 1 5.5391 34.0259 18.1999
3016 1 3.9565 32.4433 19.7825
3017 1 5.5391 34.0259 21.3651
3018 1 3.9565 32.4433 22.9477
3019 1 5.5391 34.0259 24.5303
3020 1 3.9565 32.4433 26.1129
3021 1 5.5391 34.0259 27.6955
3022 1 3.9565 32.4433 29.2781
3023 1 5.5391 34.0259 30.8607
3024 1 3.9565 32.4433 32.4433
3025 1 5.5391 34.0259 34.0259
3026 1 3.9565 32.4433 35.6085
3027 1 5.5391 34.0259 37.1911
3028 1 3.9565 32.4433 38.7737
3029 1 5.5391 34.0259 40.3563
3030 1 3.9565 32.4433 41.9389
3031 1 5.5391 34.0259 43.5215
3032 1 3.9565 32.4433 45.1041
3033 1 5.5391 34.0259 46.6867
3034 1 3.9565 32.4433 48.2693
3035 1 5.5391 34.0259 49.8519
3036 1 3.9565 32.4433 51.4345
3037 1 5.5391 34.0259 53.0171
3038 1 3.9565 32.4433 54.5997
3039 1 5.5391 34.0259 56.1823
3040 1 3.9565 32.4433 57.7649
3041 1 5.5391 34.0259 59.3475
3042 1 3.9565 32.4433 60.9301
3043 1 5.5391 34.0259 62.5127
3044 1 3.9565 32.4433 64.0953
3045 1 5.5391 34.0259 65.6779
3046 1 3.9565 32.4433 67.2605
3047 1 5.5391 34.0259 68.8431
3048 1 3.9565 32.4433 70.4257
3049 1 5.5391 34.0259 72.0083
3050 1 3.9565 32.4433 73.5909
3051 1 5.5391 34.0259 75.1735
3052 1 3.9565 32.4433 76.7561
3053 1 5.5391 34.0259 78.3387
3054 1 3.9565 35.6085 0.7913
3055 1 5.5391 37.1911 2.3739
3056 1 3.9565 35.6085 3.9565
3057 1 5.5391 37.1911 5.5391
3058 1 3.9565 35.6085 7.1217
3059 1 5.5391 37.1911 8.7043
3060 1 3.9565 35.6085 10.2869
3061 1 5.5391 37.1911 11.8695
3062 1 3.9565 35.6085 13.4521
3063 1 5.5391 37.1911 15.0347
3064 1 3.9565 35.6085 16.6173
3065 1 5.5391 37.1911 18.1999
3066 1 3.9565 35.6085 19.7825
3067 1 5.5391 37.1911 21.3651
3068 1 3.9565 35.6085 22.9477
3069 1 5.5391 37.1911 24.5303
3070 1 3.9565 35.6085 26.1129
3071 1 5.5391 37.1911 27.6955
3072 1 3.9565 35.6085 29.2781
3073 1 5.5391 37.1911 30.8607
3074 1 3.9565 35.6085 32.4433
3075 1 5.5391 37.1911 34.0259
3076 1 3.9565 35.6085 35.6085
3077 1 5.5391 37.1911 37.1911
3078 1 3.9565 35.6085 38.7737
3079 1 5.5391 37.1911 40.3563
3080 1 3.9565 35.6085 41.9389
3081 1 5.5391 37.1911 43.5215
3082 1 3.9565 35.6085 45.1041
3083 1 5.5391 37.1911 46.6867
3084 1 3.9565 35.6085 48.2693
3085 1 5.5391 37.1911 49.8519
3086 1 3.9565 35.6085 51.4345
3087 1 5.5391 37.1911 53.0171
3088 1 3.9565 35.6085 54.5997
3089 1 5.5391 37.1911 56.1823
3090 1 3.9565 35.6085 57.7649
3091 1 5.5391 37.1911 59.3475
3092 1 3.9565 35.6085 60.9301
3093 1 5.5391 37.1911 62.5127
3094 1 3.9565 35.6085 64.0953
3095 1 5.5391 37.1911 65.6779
3096 1 3.9565 35.6085 67.2605
3097 1 5.5391 37.1911 68.8431
3098 1 3.9565 35.6085 70.4257
3099 1 5.5391 37.1911 72.0083
3100 1 3.9565 35.6085 73.5909
3101 1 5.5391 37.1911 75.1735
3102 1 3.9565 35.6085 76.7561
3103 1 5.5391 37.1911 78.3387
3104 1 3.9565 38.7737 0.7913
3105 1 5.5391 40.3563 2.3739
3106 1 3.9565 38.7737 3.9565
3107 1 5.5391 40.3563 5.5391
3108 1 3.9565 38.7737 7.1217
3109 1 5.5391 40.3563 8.7043
3110 1 3.9565 38.7737 10.2869
3111 1 5.5391 40.3563 11.8695
3112 1 3.9565 38.7737 13.4521
3113 1 5.5391 40.3563 15.0347
3114 1 3.9565 38.7737 16.6173
3115 1 5.5391 40.3563 18.1999
3116 1 3.9565 38.7737 19.7825
3117 1 5.5391 40.3563 21.3651
3118 1 3.9565 38.7737 22.9477
3119 1 5.5391 40.3563 24.5303
3120 1 3.9565 38.7737 26.1129
3121 1 5.5391 40.3563 27.6955
3122 1 3.9565 38.7737 29.2781
3123 1 5.5391 40.3563 30.8607
3124 1 3.9565 38.7737 32.4433
3125 1 5.5391 40.3563 34.0259
3126 1 3.9565 38.7737 35.6085
3127 1 5.5391 40.3563 37.1911
3128 1 3.9565 38.7737 38.7737
3129 1 5.5391 40.3563 40.3563
3130 1 3.9565 38.7737 41.9389
3131 1 5.5391 40.3563 43.5215
3132 1 3.9565 38.7737 45.1041
3133 1 5.5391 40.3563 46.6867
3134 1 3.9565 38.7737 48.2693
3135 1 5.5391 40.3563 49.8519
3136 1 3.9565 38.7737 51.4345
3137 1 5.5391 40.3563 53.0171
3138 1 3.9565 38.7737 54.5997
3139 1 5.5391 40.3563 56.1823
3140 1 3.9565 38.7737 57.7649
3141 1 5.5391 40.3563 59.3475
3142 1 3.9565 38.7737 60.9301
3143 1 5.5391 40.3563 62.5127
3144 1 3.9565 38.7737 64.0953
3145 1 5.5391 40.3563 65.6779
3146 1 3.9565 38.7737 67.2605
3147 1 5.5391 40.3563 68.8431
3148 1 3.9565 38.7737 70.4257
3149 1 5.5391 40.3563 72.0083
3150 1 3.9565 38.7737 73.5909
3151 1 5.5391 40.3563 75.1735
3152 1 3.9565 38.7737 76.7561
3153 1 5.5391 40.3563 78.3387
3154 1 3.9565 41.9389 0.7913
3155 1 5.5391 43.5215 2.3739
3156 1 3.9565 41.9389 3.9565
3157 1 5.5391 43.5215 5.5391
3158 1 3.9565 41.9389 7.1217
3159 1 5.5391 43.5215 8.7043
3160 1 3.9565 41.9389 10.2869
3161 1 5.5391 43.5215 11.8695
3162 1 3.9565 41.9389 13.4521
3163 1 5.5391 43.5215 15.0347
3164 1 3.9565 41.9389 16.6173
3165 1 5.5391 43.5215 18.1999
3166 1 3.9565 41.9389 19.7825
3167 1 5.5391 43.5215 21.3651
3168 1 3.9565 41.9389 22.9477
3169 1 5.5391 43.5215 24.5303
3170 1 3.9565 41.9389 26.1129
3171 1 5.5391 43.5215 27.6955
3172 1 3.9565 41.9389 29.2781
3173 1 5.5391 43.5215 30.8607
3174 1 3.9565 41.9389 32.4433
3175 1 5.5391 43.5215 34.0259
3176 1 3.9565 41.9389 35.6085
3177 1 5.5391 43.5215 37.1911
3178 1 3.9565 41.9389 38.7737
3179 1 5.5391 43.5215 40.3563
3180 1 3.9565 41.9389 41.9389
3181 1 5.5391 43.5215 43.5215
3182 1 3.9565 41.9389 45.1041
3183 1 5.5391 43.5215 46.6867
3184 1 3.9565 41.9389 48.2693
3185 1 5.5391 43.5215 49.8519
3186 1 3.9565 41.9389 51.4345
3187 1 5.5391 43.5215 53.0171
3188 1 3.9565 41.9389 54.5997
3189 1 5.5391 43.5215 56.1823
3190 1 3.9565 41.9389 57.7649
3191 1 5.5391 43.5215 59.3475
3192 1 3.9565 41.9389 60.9301
3193 1 5.5391 43.5215 62.5127
3194 1 3.9565 41.9389 64.0953
3195 1 5.5391 43.5215 65.6779
3196 1 3.9565 41.9389 67.2605
3197 1 5.5391 43.5215 68.8431
3198 1 3.9565 41.9389 70.4257
3199 1 5.5391 43.5215 72.0083
3200 1 3.9565 41.9389 73.5909
3201 1 5.5391 43.5215 75.1735
3202 1 3.9565 41.9389 76.7561
3203 1 5.5391 43.5215 78.3387
3204 1 3.9565 45.1041 0.7913
3205 1 5.5391 46.6867 2.3739
3206 1 3.9565 45.1041 3.9565
3207 1 5.5391 46.6867 5.5391
3208 1 3.9565 45.1041 7.1217
3209 1 5.5391 46.6867 8.7043
3210 1 3.9565 45.1041 10.2869
3211 1 5.5391 46.6867 11.8695
3212 1 3.9565 45.1041 13.4521
3213 1 5.5391 46.6867 15.0347
3214 1 3.9565 45.1041 16.6173
3215 1 5.5391 46.6867 18.1999
3216 1 3.9565 45.1041 19.7825
3217 1 5.5391 46.6867 21.3651
3218 1 3.9565 45.1041 22.9477
3219 1 5.5391 46.6867 24.5303
3220 1 3.9565 45.1041 26.1129
3221 1 5.5391 46.6867 27.6955
3222 1 3.9565 45.1041 29.2781
3223 1 5.5391 46.6867 30.8607
3224 1 3.9565 45.1041 32.4433
3225 1 5.5391 46.6867 34.0259
3226 1 3.9565 45.1041 35.6085
3227 1 5.5391 46.6867 37.1911
3228 1 3.9565 45.1041 38.7737
3229 1 5.5391 46.6867 40.3563
3230 1 3.9565 45.1041 41.9389
3231 1 5.5391 46.6867 43.5215
3232 1 3.9565 45.1041 45.1041
3233 1 5.5391 46.6867 46.6867
3234 1 3.9565 45.1041 48.2693
3235 1 5.5391 46.6867 49.8519
3236 1 3.9565 45.1041 51.4345
3237 1 5.5391 46.6867 53.0171
3238 1 3.9565 45.1041 54.5997
3239 1 5.5391 46.6867 56.1823
3240 1 3.9565 45.1041 57.7649
3241 1 5.5391 46.6867 59.3475
3242 1 3.9565 45.1041 60.9301
3243 1 5.5391 46.6867 62.5127
3244 1 3.9565 45.1041 64.0953
3245 1 5.5391 46.6867 65.6779
3246 1 3.9565 45.1041 67.2605
3247 1 5.5391 46.6867 68.8431
3248 1 3.9565 45.1041 70.4257
3249 1 5.5391 46.6867 72.0083
3250 1 3.9565 45.1041 73.5909
3251 1 5.5391 46.6867 75.1735
3252 1 3.9565 45.1041 76.7561
3253 1 5.5391 46.6867 78.3387
3254 1 3.9565 48.2693 0.7913
3255 1 5.5391 49.8519 2.3739
3256 1 3.9565 48.2693 3.9565
3257 1 5.5391 49.8519 5.5391
3258 1 3.9565 48.2693 7.1217
3259 1 5.5391 49.8519 8.7043
3260 1 3.9565 48.2693 10.2869
3261 1 5.5391 49.8519 11.8695
3262 1 3.9565 48.2693 13.4521
3263 1 5.5391 49.8519 15.0347
3264 1 3.9565 48.2693 16.6173
3265 1 5.5391 49.8519 18.1999
3266 1 3.9565 48.2693 19.7825
3267 1 5.5391 49.8519 21.3651
3268 1 3.9565 48.2693 22.9477
3269 1 5.5391 49.8519 24.5303
3270 1 3.9565 48.2693 26.1129
3271 1 5.5391 49.8519 27.6955
3272 1 3.9565 48.2693 29.2781
3273 1 5.5391 49.8519 30.8607
3274 1 3.9565 48.2693 32.4433
3275 1 5.5391 49.8519 34.0259
3276 1 3.9565 48.2693 35.6085
3277 1 5.5391 49.8519 37.1911
3278 1 3.9565 48.2693 38.7737
3279 1 5.5391 49.8519 40.3563
3280 1 3.9565 48.2693 41.9389
3281 1 5.5391 49.8519 43.5215
3282 1 3.9565 48.2693 45.1041
3283 1 5.5391 49.8519 46.6867
3284 1 3.9565 48.2693 48.2693
3285 1 5.5391 49.8519 49.8519
3286 1 3.9565 48.2693 51.4345
3287 1 5.5391 49.8519 53.0171
3288 1 3.9565 48.2693 54.5997
3289 1 5.5391 49.8519 56.1823
3290 1 3.9565 48.2693 57.7649
3291 1 5.5391 49.8519 59.3475
3292 1 3.9565 48.2693 60.9301
3293 1 5.5391 49.8519 62.5127
3294 1 3.9565 48.2693 64.0953
3295 1 5.5391 49.8519 65.6779
3296 1 3.9565 48.2693 67.2605
3297 1 5.5391 49.8519 68.8431
3298 1 3.9565 48.2693 70.4257
3299 1 5.5391 49.8519 72.0083
3300 1 3.9565 48.2693 73.5909
3301 1 5.5391 49.8519 75.1735
3302 1 3.9565 48.2693 76.7561
3303 1 5.5391 49.8519 78.3387
3304 1 3.9565 51.4345 0.7913
3305 1 5.5391 53.0171 2.3739
3306 1 3.9565 51.4345 3.9565
3307 1 5.5391 53.0171 5.5391
3308 1 3.9565 51.4345 7.1217
3309 1 5.5391 53.0171 8.7043
3310 1 3.9565 51.4345 10.2869
3311 1 5.5391 53.0171 11.8695
3312 1 3.9565 51.4345 13.4521
3313 1 5.5391 53.0171 15.0347
3314 1 3.9565 51.4345 16.6173
3315 1 5.5391 53.0171 18.1999
3316 1 3.9565 51.4345 19.7825
3317 1 5.5391 53.0171 21.3651
3318 1 3.9565 51.4345 22.9477
3319 1 5.5391 53.0171 24.5303
3320 1 3.9565 51.4345 26.1129
3321 1 5.5391 53.0171 27.6955
3322 1 3.9565 51.4345 29.2781
3323 1 5.5391 53.0171 30.8607
3324 1 3.9565 51.4345 32.4433
3325 1 5.5391 53.0171 34.0259
3326 1 3.9565 51.4345 35.6085
3327 1 5.5391 53.0171 37.1911
3328 1 3.9565 51.4345 38.7737
3329 1 5.5391 53.0171 40.3563
3330 1 3.9565 51.4345 41.9389
3331 1 5.5391 53.0171 43.5215
3332 1 3.9565 51.4345 45.1041
3333 1 5.5391 53.0171 46.6867
3334 1 3.9565 51.4345 48.2693
3335 1 5.5391 53.0171 49.8519
3336 1 3.9565 51.4345 51.4345
3337 1 5.5391 53.0171 53.0171
3338 1 3.9565 51.4345 54.5997
3339 1 5.5391 53.0171 56.1823
3340 1 3.9565 51.4345 57.7649
3341 1 5.5391 53.0171 59.3475
3342 1 3.9565 51.4345 60.9301
3343 1 5.5391 53.0171 62.5127
3344 1 3.9565 51.4345 64.0953
3345 1 5.5391 53.0171 65.6779
3346 1 3.9565 51.4345 67.2605
3347 1 5.5391 53.0171 68.8431
3348 1 3.9565 51.4345 70.4257
3349 1 5.5391 53.0171 72.0083
3350 1 3.9565 51.4345 73.5909
3351 1 5.5391 53.0171 75.1735
3352 1 3.9565 51.4345 76.7561
3353 1 5.5391 53.0171 78.3387
3354 1 3.9565 54.5997 0.7913
3355 1 5.5391 56.1823 2.3739
3356 1 3.9565 54.5997 3.9565
3357 1 5.5391 56.1823 5.5391
3358 1 3.9565 54.5997 7.1217
3359 1 5.5391 56.1823 8.7043
3360 1 3.9565 54.5997 10.2869
3361 1 5.5391 56.1823 11.8695
3362 1 3.9565 54.5997 13.4521
3363 1 5.5391 56.1823 15.0347
3364 1 3.9565 54.5997 16.6173
3365 1 5.5391 56.1823 18.1999
3366 1 3.9565 54.5997 19.7825
3367 1 5.5391 56.1823 21.3651
3368 1 3.9565 54.5997 22.9477
3369 1 5.5391 56.1823 24.5303
3370 1 3.9565 54.5997 26.1129
3371 1 5.5391 56.1823 27.6955
3372 1 3.9565 54.5997 29.2781
3373 1 5.5391 56.1823 30.8607
3374 1 3.9565 54.5997 32.4433
3375 1 5.5391 56.1823 34.0259
3376 1 3.9565 54.5997 35.6085
3377 1 5.5391 56.1823 37.1911
3378 1 3.9565 54.5997 38.7737
3379 1 5.5391 56.1823 40.3563
3380 1 3.9565 54.5997 41.9389
3381 1 5.5391 56.1823 43.5215
3382 1 3.9565 54.5997 45.1041
3383 1 5.5391 56.1823 46.6867
3384 1 3.9565 54.5997 48.2693
3385 1 5.5391 56.1823 49.8519
3386 1 3.9565 54.5997 51.4345
3387 1 5.5391 56.1823 53.0171
3388 1 3.9565 54.5997 54.5997
3389 1 5.5391 56.1823 56.1823
3390 1 3.9565 54.5997 57.7649
3391 1 5.5391 56.1823 59.3475
3392 1 3.9565 54.5997 60.9301
3393 1 5.5391 56.1823 62.5127
3394 1 3.9565 54.5997 64.0953
3395 1 5.5391 56.1823 65.6779
3396 1 3.9565 54.5997 67.2605
3397 1 5.5391 56.1823 68.8431
3398 1 3.9565 54.5997 70.4257
3399 1 5.5391 56.1823 72.0083
3400 1 3.9565 54.5997 73.5909
3401 1 5.5391 56.1823 75.1735
3402 1 3.9565 54.5997 76.7561
3403 1 5.5391 56.1823 78.3387
3404 1 3.9565 57.7649 0.7913
3405 1 5.5391 59.3475 2.3739
3406 1 3.9565 57.7649 3.9565
3407 1 5.5391 59.3475 5.5391
3408 1 3.9565 57.7649 7.1217
3409 1 5.5391 59.3475 8.7043
3410 1 3.9565 57.7649 10.2869
3411 1 5.5391 59.3475 11.8695
3412 1 3.9565 57.7649 13.4521
3413 1 5.5391 59.3475 15.0347
3414 1 3.9565 57.7649 16.6173
3415 1 5.5391 59.3475 18.1999
3416 1 3.9565 57.7649 19.7825
3417 1 5.5391 59.3475 21.3651
3418 1 3.9565 57.7649 22.9477
3419 1 5.5391 59.3475 24.5303
3420 1 3.9565 57.7649 26.1129
3421 1 5.5391 59.3475 27.6955
3422 1 3.9565 57.7649 29.2781
3423 1 5.5391 59.3475 30.8607
3424 1 3.9565 57.7649 32.4433
3425 1 5.5391 59.3475 34.0259
3426 1 3.9565 57.7649 35.6085
3427 1 5.5391 59.3475 37.1911
3428 1 3.9565 57.7649 38.7737
3429 1 5.5391 59.3475 40.3563
3430 1 3.9565 57.7649 41.9389
3431 1 5.5391 59.3475 43.5215
3432 1 3.9565 57.7649 45.1041
3433 1 5.5391 59.3475 46.6867
3434 1 3.9565 57.7649 48.2693
3435 1 5.5391 59.3475 49.8519
3436 1 3.9565 57.7649 51.4345
3437 1 5.5391 59.3475 53.0171
3438 1 3.9565 57.7649 54.5997
3439 1 5.5391 59.3475 56.1823
3440 1 3.9565 57.7649 57.7649
3441 1 5.5391 59.3475 59.3475
3442 1 3.9565 57.7649 60.9301
3443 1 5.5391 59.3475 62.5127
3444 1 3.9565 57.7649 64.0953
3445 1 5.5391 59.3475 65.6779
3446 1 3.9565 57.7649 67.2605
3447 1 5.5391 59.3475 68.8431
3448 1 3.9565 57.7649 70.4257
3449 1 5.5391 59.3475 72.0083
3450 1 3.9565 57.7649 73.5909
3451 1 5.5391 59.3475 75.1735
3452 1 3.9565 57.7649 76.7561
3453 1 5.5391 59.3475 78.3387
3454 1 3.9565 60.9301 0.7913
3455 1 5.5391 62.5127 2.3739
3456 1 3.9565 60.9301 3.9565
3457 1 5.5391 62.5127 5.5391
3458 1 3.9565 60.9301 7.1217
3459 1 5.5391 62.5127 8.7043
3460 1 3.9565 60.9301 10.2869
3461 1 5.5391 62.5127 11.8695
3462 1 3.9565 60.9301 13.4521
3463 1 5.5391 62.5127 15.0347
3464 1 3.9565 60.9301 16.6173
3465 1 5.5391 62.5127 18.1999
3466 1 3.9565 60.9301 19.7825
3467 1 5.5391 62.5127 21.3651
3468 1 3.9565 60.9301 22.9477
3469 1 5.5391 62.5127 24.5303
3470 1 3.9565 60.9301 26.1129
3471 1 5.5391 62.5127 27.6955
3472 1 3.9565 60.9301 29.2781
3473 1 5.5391 62.5127 30.8607
3474 1 3.9565 60.9301 32.4433
3475 1 5.5391 62.5127 34.0259
3476 1 3.9565 60.9301 35.6085
3477 1 5.5391 62.5127 37.1911
3478 1 3.9565 60.9301 38.7737
3479 1 5.5391 62.5127 40.3563
3480 1 3.9565 60.9301 41.9389
3481 1 5.5391 62.5127 43.5215
3482 1 3.9565 60.9301 45.1041
3483 1 5.5391 62.5127 46.6867
3484 1 3.9565 60.9301 48.2693
3485 1 5.5391 62.5127 49.8519
3486 1 3.9565 60.9301 51.4345
3487 1 5.5391 62.5127 53.0171
3488 1 3.9565 60.9301 54.5997
3489 1 5.5391 62.5127 56.1823
3490 1 3.9565 60.9301 57.7649
3491 1 5.5391 62.5127 59.3475
3492 1 3.9565 60.9301 60.9301
3493 1 5.5391 62.5127 62.5127
3494 1 3.9565 60.9301 64.0953
3495 1 5.5391 62.5127 65.6779
3496 1 3.9565 60.9301 67.2605
3497 1 5.5391 62.5127 68.8431
3498 1 3.9565 60.9301 70.4257
3499 1 5.5391 62.5127 72.0083
3500 1 3.9565 60.9301 73.5909
3501 1 5.5391 62.5127 75.1735
3502 1 3.9565 60.9301 76.7561
3503 1 5.5391 62.5127 78.3387
3504 1 3.9565 64.0953 0.7913
3505 1 5.5391 65.6779 2.3739
3506 1 3.9565 64.0953 3.9565
3507 1 5.5391 65.6779 5.5391
3508 1 3.9565 64.0953 7.1217
3509 1 5.5391 65.6779 8.7043
3510 1 3.9565 64.0953 10.2869
3511 1 5.5391 65.6779 11.8695
3512 1 3.9565 64.0953 13.4521
3513 1 5.5391 65.6779 15.0347
3514 1 3.9565 64.0953 16.6173
3515 1 5.5391 65.6779 18.1999
3516 1 3.9565 64.0953 19.7825
3517 1 5.5391 65.6779 21.3651
3518 1 3.9565 64.0953 22.9477
3519 1 5.5391 65.6779 24.5303
3520 1 3.9565 64.0953 26.1129
3521 1 5.5391 65.6779 27.6955
3522 1 3.9565 64.0953 29.2781
3523 1 5.5391 65.6779 30.8607
3524 1 3.9565 64.0953 32.4433
3525 1 5.5391 65.6779 34.0259
3526 1 3.9565 64.0953 35.6085
3527 1 5.5391 65.6779 37.1911
3528 1 3.9565 64.0953 38.7737
3529 1 5.5391 65.6779 40.3563
3530 1 3.9565 64.0953 41.9389
3531 1 5.5391 65.6779 43.5215
3532 1 3.9565 64.0953 45.1041
3533 1 5.5391 65.6779 46.6867
3534 1 3.9565 64.0953 48.2693
3535 1 5.5391 65.6779 49.8519
3536 1 3.9565 64.0953 51.4345
3537 1 5.5391 65.6779 53.0171
3538 1 3.9565 64.0953 54.5997
3539 1 5.5391 65.6779 56.1823
3540 1 3.9565 64.0953 57.7649
3541 1 5.5391 65.6779 59.3475
3542 1 3.9565 64.0953 60.9301
3543 1 5.5391 65.6779 62.5127
3544 1 3.9565 64.0953 64.0953
3545 1 5.5391 65.6779 65.6779
3546 1 3.9565 64.0953 67.2605
3547 1 5.5391 65.6779 68.8431
3548 1 3.9565 64.0953 70.4257
3549 1 5.5391 65.6779 72.0083
3550 1 3.9565 64.0953 73.5909
3551 1 5.5391 65.6779 75.1735
3552 1 3.9565 64.0953 76.7561
3553 1 5.5391 65.6779 78.3387
3554 1 3.9565 67.2605 0.7913
3555 1 5.5391 68.8431 2.3739
3556 1 3.9565 67.2605 3.9565
3557 1 5.5391 68.8431 5.5391
3558 1 3.9565 67.2605 7.1217
3559 1 5.5391 68.8431 8.7043
3560 1 3.9565 67.2605 10.2869
3561 1 5.5391 68.8431 11.8695
3562 1 3.9565 67.2605 13.4521
3563 1 5.5391 68.8431 15.0347
3564 1 3.9565 67.2605 16.6173
3565 1 5.5391 68.8431 18.1999
3566 1 3.9565 67.2605 19.7825
3567 1 5.5391 68.8431 21.3651
3568 1 3.9565 67.2605 22.9477
3569 1 5.5391 68.8431 24.5303
3570 1 3.9565 67.2605 26.1129
3571 1 5.5391 68.8431 27.6955
3572 1 3.9565 67.2605 29.2781
3573 1 5.5391 68.8431 30.8607
3574 1 3.9565 67.2605 32.4433
3575 1 5.5391 68.8431 34.0259
3576 1 3.9565 67.2605 35.6085
3577 1 5.5391 68.8431 37.1911
3578 1 3.9565 67.2605 38.7737
3579 1 5.5391 68.8431 40.3563
3580 1 3.9565 67.2605 41.9389
3581 1 5.5391 68.8431 43.5215
3582 1 3.9565 67.2605 45.1041
3583 1 5.5391 68.8431 46.6867
3584 1 3.9565 67.2605 48.2693
3585 1 5.5391 68.8431 49.8519
3586 1 3.9565 67.2605 51.4345
3587 1 5.5391 68.8431 53.0171
3588 1 3.9565 67.2605 54.5997
3589 1 5.5391 68.8431 56.1823
3590 1 3.9565 67.2605 57.7649
3591 1 5.5391 68.8431 59.3475
3592 1 3.9565 67.2605 60.9301
3593 1 5.5391 68.8431 62.5127
3594 1 3.9565 67.2605 64.0953
3595 1 5.5391 68.8431 65.6779
3596 1 3.9565 67.2605 67.2605
3597 1 5.5391 68.8431 68.8431
3598 1 3.9565 67.2605 70.4257
3599 1 5.5391 68.8431 72.0083
3600 1 3.9565 67.2605 73.5909
3601 1 5.5391 68.8431 75.1735
3602 1 3.9565 67.2605 76.7561
3603 1 5.5391 68.8431 78.3387
3604 1 3.9565 70.4257 0.7913
3605 1 5.5391 72.0083 2.3739
3606 1 3.9565 70.4257 3.9565
3607 1 5.5391 72.0083 5.5391
3608 1 3.9565 70.4257 7.1217
3609 1 5.5391 72.0083 8.7043
3610 1 3.9565 70.4257 10.2869
3611 1 5.5391 72.0083 11.8695
3612 1 3.9565 70.4257 13.4521
3613 1 5.5391 72.0083 15.0347
3614 1 3.9565 70.4257 16.6173
3615 1 5.5391 72.0083 18.1999
3616 1 3.9565 70.4257 19.7825
3617 1 5.5391 72.0083 21.3651
3618 1 3.9565 70.4257 22.9477
3619 1 5.5391 72.0083 24.5303
3620 1 3.9565 70.4257 26.1129
3621 1 5.5391 72.0083 27.6955
3622 1 3.9565 70.4257 29.2781
3623 1 5.5391 72.0083 30.8607
3624 1 3.9565 70.4257 32.4433
3625 1 5.5391 72.0083 34.0259
3626 1 3.9565 70.4257 35.6085
3627 1 5.5391 72.0083 37.1911
3628 1 3.9565 70.4257 38.7737
3629 1 5.5391 72.0083 40.3563
3630 1 3.9565 70.4257 41.9389
3631 1 5.5391 72.0083 43.5215
3632 1 3.9565 70.4257 45.1041
3633 1 5.5391 72.0083 46.6867
3634 1 3.9565 70.4257 48.2693
3635 1 5.5391 72.0083 49.8519
3636 1 3.9565 70.4257 51.4345
3637 1 5.5391 72.0083 53.0171
3638 1 3.9565 70.4257 54.5997
3639 1 5.5391 72.0083 56.1823
3640 1 3.9565 70.4257 57.7649
3641 1 5.5391 72.0083 59.3475
3642 1 3.9565 70.4257 60.9301
3643 1 5.5391 72.0083 62.5127
3644 1 3.9565 70.4257 64.0953
3645 1 5.5391 72.0083 65.6779
3646 1 3.9565 70.4257 67.2605
3647 1 5.5391 72.0083 68.8431
3648 1 3.9565 70.4257 70.4257
3649 1 5.5391 72.0083 72.0083
3650 1 3.9565 70.4257 73.5909
3651 1 5.5391 72.0083 75.1735
3652 1 3.9565 70.4257 76.7561
3653 1 5.5391 72.0083 78.3387
3654 1 3.9565 73.5909 0.7913
3655 1 5.5391 75.1735 2.3739
3656 1 3.9565 73.5909 3.9565
3657 1 5.5391 75.1735 5.5391
3658 1 3.9565 73.5909 7.1217
3659 1 5.5391 75.1735 8.7043
3660 1 3.9565 73.5909 10.2869
3661 1 5.5391 75.1735 11.8695
3662 1 3.9565 73.5909 13.4521
3663 1 5.5391 75.1735 15.0347
3664 1 3.9565 73.5909 16.6173
3665 1 5.5391 75.1735 18.1999
3666 1 3.9565 73.5909 19.7825
3667 1 5.5391 75.1735 21.3651
3668 1 3.9565 73.5909 22.9477
3669 1 5.5391 75.1735 24.5303
3670 1 3.9565 73.5909 26.1129
3671 1 5.5391 75.1735 27.6955
3672 1 3.9565 73.5909 29.2781
3673 1 5.5391 75.1735 30.8607
3674 1 3.9565 73.5909 32.4433
3675 1 5.5391 75.1735 34.0259
3676 1 3.9565 73.5909 35.6085
3677 1 5.5391 75.1735 37.1911
3678 1 3.9565 73.5909 38.7737
3679 1 5.5391 75.1735 40.3563
3680 1 3.9565 73.5909 41.9389
3681 1 5.5391 75.1735 43.5215
3682 1 3.9565 73.5909 45.1041
3683 1 5.5391 75.1735 46.6867
3684 1 3.9565 73.5909 48.2693
3685 1 5.5391 75.1735 49.8519
3686 1 3.9565 73.5909 51.4345
3687 1 5.5391 75.1735 53.0171
3688 1 3.9565 73.5909 54.5997
3689 1 5.5391 75.1735 56.1823
3690 1 3.9565 73.5909 57.7649
3691 1 5.5391 75.1735 59.3475
3692 1 3.9565 73.5909 60.9301
3693 1 5.5391 75.1735 62.5127
3694 1 3.9565 73.5909 64.0953
3695 1 5.5391 75.1735 65.6779
3696 1 3.9565 73.5909 67.2605
3697 1 5.5391 75.1735 68.8431
3698 1 3.9565 73.5909 70.4257
3699 1 5.5391 75.1735 72.0083
3700 1 3.9565 73.5909 73.5909
3701 1 5.5391 75.1735 75.1735
3702 1 3.9565 73.5909 76.7561
3703 1 5.5391 75.1735 78.3387
3704 1 3.9565 76.7561 0.7913
3705 1 5.5391 78.3387 2.3739
3706 1 3.9565 76.7561 3.9565
3707 1 5.5391 78.3387 5.5391
3708 1 3.9565 76.7561 7.1217
3709 1 5.5391 78.3387 8.7043
3710 1 3.9565 76.7561 10.2869
3711 1 5.5391 78.3387 11.8695
3712 1 3.9565 76.7561 13.4521
3713 1 5.5391 78.3387 15.0347
3714 1 3.9565 76.7561 16.6173
3715 1 5.5391 78.3387 18.1999
3716 1 3.9565 76.7561 19.7825
3717 1 5.5391 78.3387 21.3651
3718 1 3.9565 76.7561 22.9477
3719 1 5.5391 78.3387 24.5303
3720 1 3.9565 76.7561 26.1129
3721 1 5.5391 78.3387 27.6955
3722 1 3.9565 76.7561 29.2781
3723 1 5.5391 78.3387 30.8607
3724 1 3.9565 76.7561 32.4433
3725 1 5.5391 78.3387 34.0259
3726 1 3.9565 76.7561 35.6085
3727 1 5.5391 78.3387 37.1911
3728 1 3.9565 76.7561 38.7737
3729 1 5.5391 78.3387 40.3563
3730 1 3.9565 76.7561 41.9389
3731 1 5.5391 78.3387 43.5215
3732 1 3.9565 76.7561 45.1041
3733 1 5.5391 78.3387 46.6867
3734 1 3.9565 76.7561 48.2693
3735 1 5.5391 78.3387 49.8519
3736 1 3.9565 76.7561 51.4345
3737 1 5.5391 78.3387 53.0171
3738 1 3.9565 76.7561 54.5997
3739 1 5.5391 78.3387 56.1823
3740 1 3.9565 76.7561 57.7649
3741 1 5.5391 78.3387 59.3475
3742 1 3.9565 76.7561 60.9301
3743 1 5.5391 78.3387 62.5127
3744 1 3.9565 76.7561 64.0953
3745 1 5.5391 78.3387 65.6779
3746 1 3.9565 76.7561 67.2605
3747 1 5.5391 78.3387 68.8431
3748 1 3.9565 76.7561 70.4257
3749 1 5.5391 78.3387 72.0083
3750 1 3.9565 76.7561 73.5909
3751 1 5.5391 78.3387 75.1735
3752 1 3.9565 76.7561 76.7561
3753 1 5.5391 78.3387 78.3387
3754 1 7.1217 0.7913 0.7913
3755 1 8.7043 2.3739 2.3739
3756 1 7.1217 0.7913 3.9565
3757 1 8.7043 2.3739 5.5391
3758 1 7.1217 0.7913 7.1217
3759 1 8.7043 2.3739 8.7043
3760 1 7.1217 0.7913 10.2869
3761 1 8.7043 2.3739 11.8695
3762 1 7.1217 0.7913 13.4521
3763 1 8.7043 2.3739 15.0347
3764 1 7.1217 0.7913 16.6173
3765 1 8.7043 2.3739 18.1999
3766 1 7.1217 0.7913 19.7825
3767 1 8.7043 2.3739 21.3651
3768 1 7.1217 0.7913 22.9477
3769 1 8.7043 2.3739 24.5303
3770 1 7.1217 0.7913 26.1129
3771 1 8.7043 2.3739 27.6955
3772 1 7.1217 0.7913 29.2781
3773 1 8.7043 2.3739 30.8607
3774 1 7.1217 0.7913 32.4433
3775 1 8.7043 2.3739 34.0259
3776 1 7.1217 0.7913 35.6085
3777 1 8.7043 2.3739 37.1911
3778 1 7.1217 0.7913 38.7737
3779 1 8.7043 2.3739 40.3563
3780 1 7.1217 0.7913 41.9389
3781 1 8.7043 2.3739 43.5215
3782 1 7.1217 0.7913 45.1041
3783 1 8.7043 2.3739 46.6867
3784 1 7.1217 0.7913 48.2693
3785 1 8.7043 2.3739 49.8519
3786 1 7.1217 0.7913 51.4345
3787 1 8.7043 2.3739 53.0171
3788 1 7.1217 0.7913 54.5997
3789 1 8.7043 2.3739 56.1823
3790 1 7.1217 0.7913 57.7649
3791 1 8.7043 2.3739 59.3475
3792 1 7.1217 0.7913 60.9301
3793 1 8.7043 2.3739 62.5127
3794 1 7.1217 0.7913 64.0953
3795 1 8.7043 2.3739 65.6779
3796 1 7.1217 0.7913 67.2605
3797 1 8.7043 2.3739 68.8431
3798 1 7.1217 0.7913 70.4257
3799 1 8.7043 2.3739 72.0083
3800 1 7.1217 0.7913 73.5909
3801 1 8.7043 2.3739 75.1735
3802 1 7.1217 0.7913 76.7561
3803 1 8.7043 2.3739 78.3387
3804 1 7.1217 3.9565 0.7913
3805 1 8.7043 5.5391 2.3739
3806 1 7.1217 3.9565 3.9565
3807 1 8.7043 5.5391 5.5391
3808 1 7.1217 3.9565 7.1217
3809 1 8.7043 5.5391 8.7043
3810 1 7.1217 3.9565 10.2869
3811 1 8.7043 5.5391 11.8695
3812 1 7.1217 3.9565 13.4521
3813 1 8.7043 5.5391 15.0347
3814 1 7.1217 3.9565 16.6173
3815 1 8.7043 5.5391 18.1999
3816 1 7.1217 3.9565 19.7825
3817 1 8.7043 5.5391 21.3651
3818 1 7.1217 3.9565 22.9477
3819 1 8.7043 5.5391 24.5303
3820 1 7.1217 3.9565 26.1129
3821 1 8.7043 5.5391 27.6955
3822 1 7.1217 3.9565 29.2781
3823 1 8.7043 5.5391 30.8607
3824 1 7.1217 3.9565 32.4433
3825 1 8.7043 5.5391 34.0259
3826 1 7.1217 3.9565 35.6085
3827 1 8.7043 5.5391 37.1911
3828 1 7.1217 3.9565 38.7737
3829 1 8.7043 5.5391 40.3563
3830 1 7.1217 3.9565 41.9389
3831 1 8.7043 5.5391 43.5215
3832 1 7.1217 3.9565 45.1041
3833 1 8.7043 5.5391 46.6867
3834 1 7.1217 3.9565 48.2693
3835 1 8.7043 5.5391 49.8519
3836 1 7.1217 3.9565 51.4345
3837 1 8.7043 5.5391 53.0171
3838 1 7.1217 3.9565 54.5997
3839 1 8.7043 5.5391 56.1823
3840 1 7.1217 3.9565 57.7649
3841 1 8.7043 5.5391 59.3475
3842 1 7.1217 3.9565 60.9301
3843 1 8.7043 5.5391 62.5127
3844 1 7.1217 3.9565 64.0953
3845 1 8.7043 5.5391 65.6779
3846 1 7.1217 3.9565 67.2605
3847 1 8.7043 5.5391 68.8431
3848 1 7.1217 3.9565 70.4257
3849 1 8.7043 5.5391 72.0083
3850 1 7.1217 3.9565 73.5909
3851 1 8.7043 5.5391 75.1735
3852 1 7.1217 3.9565 76.7561
3853 1 8.7043 5.5391 78.3387
3854 1 7.1217 7.1217 0.7913
3855 1 8.7043 8.7043 2.3739
3856 1 7.1217 7.1217 3.9565
3857 1 8.7043 8.7043 5.5391
3858 1 7.1217 7.1217 7.1217
3859 1 8.7043 8.7043 8.7043
3860 1 7.1217 7.1217 10.2869
3861 1 8.7043 8.7043 11.8695
3862 1 7.1217 7.1217 13.4521
3863 1 8.7043 8.7043 15.0347
3864 1 7.1217 7.1217 16.6173
3865 1 8.7043 8.7043 18.1999
3866 1 7.1217 7.1217 19.7825
3867 1 8.7043 8.7043 21.3651
3868 1 7.1217 7.1217 22.9477
3869 1 8.7043 8.7043 24.5303
3870 1 7.1217 7.1217 26.1129
3871 1 8.7043 8.7043 27.6955
3872 1 7.1217 7.1217 29.2781
3873 1 8.7043 8.7043 30.8607
3874 1 7.1217 7.1217 32.4433
3875 1 8.7043 8.7043 34.0259
3876 1 7.1217 7.1217 35.6085
3877 1 8.7043 8.7043 37.1911
3878 1 7.1217 7.1217 38.7737
3879 1 8.7043 8.7043 40.3563
3880 1 7.1217 7.1217 41.9389
3881 1 8.7043 8.7043 43.5215
3882 1 7.1217 7.1217 45.1041
3883 1 8.7043 8.7043 46.6867
3884 1 7.1217 7.1217 48.2693
3885 1 8.7043 8.7043 49.8519
3886 1 7.1217 7.1217 51.4345
3887 1 8.7043 8.7043 53.0171
3888 1 7.1217 7.1217 54.5997
3889 1 8.7043 8.7043 56.1823
3890 1 7.1217 7.1217 57.7649
3891 1 8.7043 8.7043 59.3475
3892 1 7.1217 7.1217 60.9301
3893 1 8.7043 8.7043 62.5127
3894 1 7.1217 7.1217 64.0953
3895 1 8.7043 8.7043 65.6779
3896 1 7.1217 7.1217 67.2605
3897 1 8.7043 8.7043 68.8431
3898 1 7.1217 7.1217 70.4257
3899 1 8.7043 8.7043 72.0083
3900 1 7.1217 7.1217 73.5909
3901 1 8.7043 8.7043 75.1735
3902 1 7.1217 7.1217 76.7561
3903 1 8.7043 8.7043 78.3387
3904 1 7.1217 10.2869 0.7913
3905 1 8.7043 11.8695 2.3739
3906 1 7.1217 10.2869 3.9565
3907 1 8.7043 11.8695 5.5391
3908 1 7.1217 10.2869 7.1217
3909 1 8.7043 11.8695 8.7043
3910 1 7.1217 10.2869 10.2869
3911 1 8.7043 11.8695 11.8695
3912 1 7.1217 10.2869 13.4521
3913 1 8.7043 11.8695 15.0347
3914 1 7.1217 10.2869 16.6173
3915 1 8.7043 11.8695 18.1999
3916 1 7.1217 10.2869 19.7825
3917 1 8.7043 11.8695 21.3651
3918 1 7.1217 10.2869 22.9477
3919 1 8.7043 11.8695 24.5303
3920 1 7.1217 10.2869 26.1129
3921 1 8.7043 11.8695 27.6955
3922 1 7.1217 10.2869 29.2781
3923 1 8.7043 11.8695 30.8607
3924 1 7.1217 10.2869 32.4433
3925 1 8.7043 11.8695 34.0259
3926 1 7.1217 10.2869 35.6085
3927 1 8.7043 11.8695 37.1911
3928 1 7.1217 10.2869 38.7737
3929 1 8.7043 11.8695 40.3563
3930 1 7.1217 10.2869 41.9389
3931 1 8.7043 11.8695 43.5215
3932 1 7.1217 10.2869 45.1041
3933 1 8.7043 11.8695 46.6867
3934 1 7.1217 10.2869 48.2693
3935 1 8.7043 11.8695 49.8519
3936 1 7.1217 10.2869 51.4345
3937 1 8.7043 11.8695 53.0171
3938 1 7.1217 10.2869 54.5997
3939 1 8.7043 11.8695 56.1823
3940 1 7.1217 10.2869 57.7649
3941 1 8.7043 11.8695 59.3475
3942 1 7.1217 10.2869 60.9301
3943 1 8.7043 11.8695 62.5127
3944 1 7.1217 10.2869 64.0953
3945 1 8.7043 11.8695 65.6779
3946 1 7.1217 10.2869 67.2605
3947 1 8.7043 11.8695 68.8431
3948 1 7.1217 10.2869 70.4257
3949 1 8.7043 11.8695 72.0083
3950 1 7.1217 10.2869 73.5909
3951 1 8.7043 11.8695 75.1735
3952 1 7.1217 10.2869 76.7561
3953 1 8.7043 11.8695 78.3387
3954 1 7.1217 13.4521 0.7913
3955 1 8.7043 15.0347 2.3739
3956 1 7.1217 13.4521 3.9565
3957 1 8.7043 15.0347 5.5391
3958 1 7.1217 13.4521 7.1217
3959 1 8.7043 15.0347 8.7043
3960 1 7.1217 13.4521 10.2869
3961 1 8.7043 15.0347 11.8695
3962 1 7.1217 13.4521 13.4521
3963 1 8.7043 15.0347 15.0347
3964 1 7.1217 13.4521 16.6173
3965 1 8.7043 15.0347 18.1999
3966 1 7.1217 13.4521 19.7825
3967 1 8.7043 15.0347 21.3651
3968 1 7.1217 13.4521 22.9477
3969 1 8.7043 15.0347 24.5303
3970 1 7.1217 13.4521 26.1129
3971 1 8.7043 15.0347 27.6955
3972 1 7.1217 13.4521 29.2781
3973 1 8.7043 15.0347 30.8607
3974 1 7.1217 13.4521 32.4433
3975 1 8.7043 15.0347 34.0259
3976 1 7.1217 13.4521 35.6085
3977 1 8.7043 15.0347 37.1911
3978 1 7.1217 13.4521 38.7737
3979 1 8.7043 15.0347 40.3563
3980 1 7.1217 13.4521 41.9389
3981 1 8.7043 15.0347 43.5215
3982 1 7.1217 13.4521 45.1041
3983 1 8.7043 15.0347 46.6867
3984 1 7.1217 13.4521 48.2693
3985 1 8.7043 15.0347 49.8519
3986 1 7.1217 13.4521 51.4345
3987 1 8.7043 15.0347 53.0171
3988 1 7.1217 13.4521 54.5997
3989 1 8.7043 15.0347 56.1823
3990 1 7.1217 13.4521 57.7649
3991 1 8.7043 15.0347 59.3475
3992 1 7.1217 13.4521 60.9301
3993 1 8.7043 15.0347 62.5127
3994 1 7.1217 13.4521 64.0953
3995 1 8.7043 15.0347 65.6779
3996 1 7.1217 13.4521 67.2605
3997 1 8.7043 15.0347 68.8431
3998 1 7.1217 13.4521 70.4257
3999 1 8.7043 15.0347 72.0083
4000 1 7.1217 13.4521 73.5909
4001 1 8.7043 15.0347 75.1735
4002 1 7.1217 13.4521 76.7561
4003 1 8.7043 15.0347 78.3387
4004 1 7.1217 16.6173 0.7913
4005 1 8.7043 18.1999 2.3739
4006 1 7.1217 16.6173 3.9565
4007 1 8.7043 18.1999 5.5391
4008 1 7.1217 16.6173 7.1217
4009 1 8.7043 18.1999 8.7043
4010 1 7.1217 16.6173 10.2869
4011 1 8.7043 18.1999 11.8695
4012 1 7.1217 16.6173 13.4521
4013 1 8.7043 18.1999 15.0347
4014 1 7.1217 16.6173 16.6173
4015 1 8.7043 18.1999 18.1999
4016 1 7.1217 16.6173 19.7825
4017 1 8.7043 18.1999 21.3651
4018 1 7.1217 16.6173 22.9477
4019 1 8.7043 18.1999 24.5303
4020 1 7.1217 16.6173 26.1129
4021 1 8.7043 18.1999 27.6955
4022 1 7.1217 16.6173 29.2781
4023 1 8.7043 18.1999 30.8607
4024 1 7.1217 16.6173 32.4433
4025 1 8.7043 18.1999 34.0259
4026 1 7.1217 16.6173 35.6085
4027 1 8.7043 18.1999 37.1911
4028 1 7.1217 16.6173 38.7737
4029 1 8.7043 18.1999 40.3563
4030 1 7.1217 16.6173 41.9389
4031 1 8.7043 18.1999 43.5215
4032 1 7.1217 16.6173 45.1041
4033 1 8.7043 18.1999 46.6867
4034 1 7.1217 16.6173 48.2693
4035 1 8.7043 18.1999 49.8519
4036 1 7.1217 16.6173 51.4345
4037 1 8.7043 18.1999 53.0171
4038 1 7.1217 16.6173 54.5997
4039 1 8.7043 18.1999 56.1823
4040 1 7.1217 16.6173 57.7649
4041 1 8.7043 18.1999 59.3475
4042 1 7.1217 16.6173 60.9301
4043 1 8.7043 18.1999 62.5127
4044 1 7.1217 16.6173 64.0953
4045 1 8.7043 18.1999 65.6779
4046 1 7.1217 16.6173 67.2605
4047 1 8.7043 18.1999 68.8431
4048 1 7.1217 16.6173 70.4257
4049 1 8.7043 18.1999 72.0083
4050 1 7.1217 16.6173 73.5909
4051 1 8.7043 18.1999 75.1735
4052 1 7.1217 16.6173 76.7561
4053 1 8.7043 18.1999 78.3387
4054 1 7.1217 19.7825 0.7913
4055 1 8.7043 21.3651 2.3739
4056 1 7.1217 19.7825 3.9565
4057 1 8.7043 21.3651 5.5391
4058 1 7.1217 19.7825 7.1217
4059 1 8.7043 21.3651 8.7043
4060 1 7.1217 19.7825 10.2869
4061 1 8.7043 21.3651 11.8695
4062 1 7.1217 19.7825 13.4521
4063 1 8.7043 21.3651 15.0347
4064 1 7.1217 19.7825 16.6173
4065 1 8.7043 21.3651 18.1999
4066 1 7.1217 19.7825 19.7825
4067 1 8.7043 21.3651 21.3651
4068 1 7.1217 19.7825 22.9477
4069 1 8.7043 21.3651 24.5303
4070 1 7.1217 19.7825 26.1129
4071 1 8.7043 21.3651 27.6955
4072 1 7.1217 19.7825 29.2781
4073 1 8.7043 21.3651 30.8607
4074 1 7.1217 19.7825 32.4433
4075 1 8.7043 21.3651 34.0259
4076 1 7.1217 19.7825 35.6085
4077 1 8.7043 21.3651 37.1911
4078 1 7.1217 19.7825 38.7737
4079 1 8.7043 21.3651 40.3563
4080 1 7.1217 19.7825 41.9389
4081 1 8.7043 21.3651 43.5215
4082 1 7.1217 19.7825 45.1041
4083 1 8.7043 21.3651 46.6867
4084 1 7.1217 19.7825 48.2693
4085 1 8.7043 21.3651 49.8519
4086 1 7.1217 19.7825 51.4345
4087 1 8.7043 21.3651 53.0171
4088 1 7.1217 19.7825 54.5997
4089 1 8.7043 21.3651 56.1823
4090 1 7.1217 19.7825 57.7649
4091 1 8.7043 21.3651 59.3475
4092 1 7.1217 19.7825 60.9301
4093 1 8.7043 21.3651 62.5127
4094 1 7.1217 19.7825 64.0953
4095 1 8.7043 21.3651 65.6779
4096 1 7.1217 19.7825 67.2605
4097 1 8.7043 21.3651 68.8431
4098 1 7.1217 19.7825 70.4257
4099 1 8.7043 21.3651 72.0083
4100 1 7.1217 19.7825 73.5909
4101 1 8.7043 21.3651 75.1735
4102 1 7.1217 19.7825 76.7561
4103 1 8.7043 21.3651 78.3387
4104 1 7.1217 22.9477 0.7913
4105 1 8.7043 24.5303 2.3739
4106 1 7.1217 22.9477 3.9565
4107 1 8.7043 24.5303 5.5391
4108 1 7.1217 22.9477 7.1217
4109 1 8.7043 24.5303 8.7043
4110 1 7.1217 22.9477 10.2869
4111 1 8.7043 24.5303 11.8695
4112 1 7.1217 22.9477 13.4521
4113 1 8.7043 24.5303 15.0347
4114 1 7.1217 22.9477 16.6173
4115 1 8.7043 24.5303 18.1999
4116 1 7.1217 22.9477 19.7825
4117 1 8.7043 24.5303 21.3651
4118 1 7.1217 22.9477 22.9477
4119 1 8.7043 24.5303 24.5303
4120 1 7.1217 22.9477 26.1129
4121 1 8.7043 24.5303 27.6955
4122 1 7.1217 22.9477 29.2781
4123 1 8.7043 24.5303 30.8607
4124 1 7.1217 22.9477 32.4433
4125 1 8.7043 24.5303 34.0259
4126 1 7.1217 22.9477 35.6085
4127 1 8.7043 24.5303 37.1911
4128 1 7.1217 22.9477 38.7737
4129 1 8.7043 24.5303 40.3563
4130 1 7.1217 22.9477 41.9389
4131 1 8.7043 24.5303 43.5215
4132 1 7.1217 22.9477 45.1041
4133 1 8.7043 24.5303 46.6867
4134 1 7.1217 22.9477 48.2693
4135 1 8.7043 24.5303 49.8519
4136 1 7.1217 22.9477 51.4345
4137 1 8.7043 24.5303 53.0171
4138 1 7.1217 22.9477 54.5997
4139 1 8.7043 24.5303 56.1823
4140 1 7.1217 22.9477 57.7649
4141 1 8.7043 24.5303 59.3475
4142 1 7.1217 22.9477 60.9301
4143 1 8.7043 24.5303 62.5127
4144 1 7.1217 22.9477 64.0953
4145 1 8.7043 24.5303 65.6779
4146 1 7.1217 22.9477 67.2605
4147 1 8.7043 24.5303 68.8431
4148 1 7.1217 22.9477 70.4257
4149 1 8.7043 24.5303 72.0083
4150 1 7.1217 22.9477 73.5909
4151 1 8.7043 24.5303 75.1735
4152 1 7.1217 22.9477 76.7561
4153 1 8.7043 24.5303 78.3387
4154 1 7.1217 26.1129 0.7913
4155 1 8.7043 27.6955 2.3739
4156 1 7.1217 26.1129 3.9565
4157 1 8.7043 27.6955 5.5391
4158 1 7.1217 26.1129 7.1217
4159 1 8.7043 27.6955 8.7043
4160 1 7.1217 26.1129 10.2869
4161 1 8.7043 27.6955 11.8695
4162 1 7.1217 26.1129 13.4521
4163 1 8.7043 27.6955 15.0347
4164 1 7.1217 26.1129 16.6173
4165 1 8.7043 27.6955 18.1999
4166 1 7.1217 26.1129 19.7825
4167 1 8.7043 27.6955 21.3651
4168 1 7.1217 26.1129 22.9477
4169 1 8.7043 27.6955 24.5303
4170 1 7.1217 26.1129 26.1129
4171 1 8.7043 27.6955 27.6955
4172 1 7.1217 26.1129 29.2781
4173 1 8.7043 27.6955 30.8607
4174 1 7.1217 26.1129 32.4433
4175 1 8.7043 27.6955 34.0259
4176 1 7.1217 26.1129 35.6085
4177 1 8.7043 27.6955 37.1911
4178 1 7.1217 26.1129 38.7737
4179 1 8.7043 27.6955 40.3563
4180 1 7.1217 26.1129 41.9389
4181 1 8.7043 27.6955 43.5215
4182 1 7.1217 26.1129 45.1041
4183 1 8.7043 27.6955 46.6867
4184 1 7.1217 26.1129 48.2693
4185 1 8.7043 27.6955 49.8519
4186 1 7.1217 26.1129 51.4345
4187 1 8.7043 27.6955 53.0171
4188 1 7.1217 26.1129 54.5997
4189 1 8.7043 27.6955 56.1823
4190 1 7.1217 26.1129 57.7649
4191 1 8.7043 27.6955 59.3475
4192 1 7.1217 26.1129 60.9301
4193 1 8.7043 27.6955 62.5127
4194 1 7.1217 26.1129 64.0953
4195 1 8.7043 27.6955 65.6779
4196 1 7.1217 26.1129 67.2605
4197 1 8.7043 27.6955 68.8431
4198 1 7.1217 26.1129 70.4257
4199 1 8.7043 27.6955 72.0083
4200 1 7.1217 26.1129 73.5909
4201 1 8.7043 27.6955 75.1735
4202 1 7.1217 26.1129 76.7561
4203 1 8.7043 27.6955 78.3387
4204 1 7.1217 29.2781 0.7913
4205 1 8.7043 30.8607 2.3739
4206 1 7.1217 29.2781 3.9565
4207 1 8.7043 30.8607 5.5391
4208 1 7.1217 29.2781 7.1217
4209 1 8.7043 30.8607 8.7043
4210 1 7.1217 29.2781 10.2869
4211 1 8.7043 30.8607 11.8695
4212 1 7.1217 29.2781 13.4521
4213 1 8.7043 30.8607 15.0347
4214 1 7.1217 29.2781 16.6173
4215 1 8.7043 30.8607 18.1999
4216 1 7.1217 29.2781 19.7825
4217 1 8.7043 30.8607 21.3651
4218 1 7.1217 29.2781 22.9477
4219 1 8.7043 30.8607 24.5303
4220 1 7.1217 29.2781 26.1129
4221 1 8.7043 30.8607 27.6955
4222 1 7.1217 29.2781 29.2781
4223 1 8.7043 30.8607 30.8607
4224 1 7.1217 29.2781 32.4433
4225 1 8.7043 30.8607 34.0259
4226 1 7.1217 29.2781 35.6085
4227 1 8.7043 30.8607 37.1911
4228 1 7.1217 29.2781 38.7737
4229 1 8.7043 30.8607 40.3563
4230 1 7.1217 29.2781 41.9389
4231 1 8.7043 30.8607 43.5215
4232 1 7.1217 29.2781 45.1041
4233 1 8.7043 30.8607 46.6867
4234 1 7.1217 29.2781 48.2693
4235 1 8.7043 30.8607 49.8519
4236 1 7.1217 29.2781 51.4345
4237 1 8.7043 30.8607 53.0171
4238 1 7.1217 29.2781 54.5997
4239 1 8.7043 30.8607 56.1823
4240 1 7.1217 29.2781 57.7649
4241 1 8.7043 30.8607 59.3475
4242 1 7.1217 29.2781 60.9301
4243 1 8.7043 30.8607 62.5127
4244 1 7.1217 29.2781 64.0953
4245 1 8.7043 30.8607 65.6779
4246 1 7.1217 29.2781 67.2605
4247 1 8.7043 30.8607 68.8431
4248 1 7.1217 29.2781 70.4257
4249 1 8.7043 30.8607 72.0083
4250 1 7.1217 29.2781 73.5909
4251 1 8.7043 30.8607 75.1735
4252 1 7.1217 29.2781 76.7561
4253 1 8.7043 30.8607 78.3387
4254 1 7.1217 32.4433 0.7913
4255 1 8.7043 34.0259 2.3739
4256 1 7.1217 32.4433 3.9565
4257 1 8.7043 34.0259 5.5391
4258 1 7.1217 32.4433 7.1217
4259 1 8.7043 34.0259 8.7043
4260 1 7.1217 32.4433 10.2869
4261 1 8.7043 34.0259 11.8695
4262 1 7.1217 32.4433 13.4521
4263 1 8.7043 34.0259 15.0347
4264 1 7.1217 32.4433 16.6173
4265 1 8.7043 34.0259 18.1999
4266 1 7.1217 32.4433 19.7825
4267 1 8.7043 34.0259 21.3651
4268 1 7.1217 32.4433 22.9477
4269 1 8.7043 34.0259 24.5303
4270 1 7.1217 32.4433 26.1129
4271 1 8.7043 34.0259 27.6955
4272 1 7.1217 32.4433 29.2781
4273 1 8.7043 34.0259 30.8607
4274 1 7.1217 32.4433 32.4433
4275 1 8.7043 34.0259 34.0259
4276 1 7.1217 32.4433 35.6085
4277 1 8.7043 34.0259 37.1911
4278 1 7.1217 32.4433 38.7737
4279 1 8.7043 34.0259 40.3563
4280 1 7.1217 32.4433 41.9389
4281 1 8.7043 34.0259 43.5215
4282 1 7.1217 32.4433 45.1041
4283 1 8.7043 34.0259 46.6867
4284 1 7.1217 32.4433 48.2693
4285 1 8.7043 34.0259 49.8519
4286 1 7.1217 32.4433 51.4345
4287 1 8.7043 34.0259 53.0171
4288 1 7.1217 32.4433 54.5997
4289 1 8.7043 34.0259 56.1823
4290 1 7.1217 32.4433 57.7649
4291 1 8.7043 34.0259 59.3475
4292 1 7.1217 32.4433 60.9301
4293 1 8.7043 34.0259 62.5127
4294 1 7.1217 32.4433 64.0953
4295 1 8.7043 34.0259 65.6779
4296 1 7.1217 32.4433 67.2605
4297 1 8.7043 34.0259 68.8431
4298 1 7.1217 32.4433 70.4257
4299 1 8.7043 34.0259 72.0083
4300 1 7.1217 32.4433 73.5909
4301 1 8.7043 34.0259 75.1735
4302 1 7.1217 32.4433 76.7561
4303 1 8.7043 34.0259 78.3387
4304 1 7.1217 35.6085 0.7913
4305 1 8.7043 37.1911 2.3739
4306 1 7.1217 35.6085 3.9565
4307 1 8.7043 37.1911 5.5391
4308 1 7.1217 35.6085 7.1217
4309 1 8.7043 37.1911 8.7043
4310 1 7.1217 35.6085 10.2869
4311 1 8.7043 37.1911 11.8695
4312 1 7.1217 35.6085 13.4521
4313 1 8.7043 37.1911 15.0347
4314 1 7.1217 35.6085 16.6173
4315 1 8.7043 37.1911 18.1999
4316 1 7.1217 35.6085 19.7825
4317 1 8.7043 37.1911 21.3651
4318 1 7.1217 35.6085 22.9477
4319 1 8.7043 37.1911 24.5303
4320 1 7.1217 35.6085 26.1129
4321 1 8.7043 37.1911 27.6955
4322 1 7.1217 35.6085 29.2781
4323 1 8.7043 37.1911 30.8607
4324 1 7.1217 35.6085 32.4433
4325 1 8.7043 37.1911 34.0259
4326 1 7.1217 35.6085 35.6085
4327 1 8.7043 37.1911 37.1911
4328 1 7.1217 35.6085 38.7737
4329 1 8.7043 37.1911 40.3563
4330 1 7.1217 35.6085 41.9389
4331 1 8.7043 37.1911 43.5215
4332 1 7.1217 35.6085 45.1041
4333 1 8.7043 37.1911 46.6867
4334 1 7.1217 35.6085 48.2693
4335 1 8.7043 37.1911 49.8519
4336 1 7.1217 35.6085 51.4345
4337 1 8.7043 37.1911 53.0171
4338 1 7.1217 35.6085 54.5997
4339 1 8.7043 37.1911 56.1823
4340 1 7.1217 35.6085 57.7649
4341 1 8.7043 37.1911 59.3475
4342 1 7.1217 35.6085 60.9301
4343 1 8.7043 37.1911 62.5127
4344 1 7.1217 35.6085 64.0953
4345 1 8.7043 37.1911 65.6779
4346 1 7.1217 35.6085 67.2605
4347 1 8.7043 37.1911 68.8431
4348 1 7.1217 35.6085 70.4257
4349 1 8.7043 37.1911 72.0083
4350 1 7.1217 35.6085 73.5909
4351 1 8.7043 37.1911 75.1735
4352 1 7.1217 35.6085 76.7561
4353 1 8.7043 37.1911 78.3387
4354 1 7.1217 38.7737 0.7913
4355 1 8.7043 40.3563 2.3739
4356 1 7.1217 38.7737 3.9565
4357 1 8.7043 40.3563 5.5391
4358 1 7.1217 38.7737 7.1217
4359 1 8.7043 40.3563 8.7043
4360 1 7.1217 38.7737 10.2869
4361 1 8.7043 40.3563 11.8695
4362 1 7.1217 38.7737 13.4521
4363 1 8.7043 40.3563 15.0347
4364 1 7.1217 38.7737 16.6173
4365 1 8.7043 40.3563 18.1999
4366 1 7.1217 38.7737 19.7825
4367 1 8.7043 40.3563 21.3651
4368 1 7.1217 38.7737 22.9477
4369 1 8.7043 40.3563 24.5303
4370 1 7.1217 38.7737 26.1129
4371 1 8.7043 40.3563 27.6955
4372 1 7.1217 38.7737 29.2781
4373 1 8.7043 40.3563 30.8607
4374 1 7.1217 38.7737 32.4433
4375 1 8.7043 40.3563 34.0259
4376 1 7.1217 38.7737 35.6085
4377 1 8.7043 40.3563 37.1911
4378 1 7.1217 38.7737 38.7737
4379 1 8.7043 40.3563 40.3563
4380 1 7.1217 38.7737 41.9389
4381 1 8.7043 40.3563 43.5215
4382 1 7.1217 38.7737 45.1041
4383 1 8.7043 40.3563 46.6867
4384 1 7.1217 38.7737 48.2693
4385 1 8.7043 40.3563 49.8519
4386 1 7.1217 38.7737 51.4345
4387 1 8.7043 40.3563 53.0171
4388 1 7.1217 38.7737 54.5997
4389 1 8.7043 40.3563 56.1823
4390 1 7.1217 38.7737 57.7649
4391 1 8.7043 40.3563 59.3475
4392 1 7.1217 38.7737 60.9301
4393 1 8.7043 40.3563 62.5127
4394 1 7.1217 38.7737 64.0953
4395 1 8.7043 40.3563 65.6779
4396 1 7.1217 38.7737 67.2605
4397 1 8.7043 40.3563 68.8431
4398 1 7.1217 38.7737 70.4257
4399 1 8.7043 40.3563 72.0083
4400 1 7.1217 38.7737 73.5909
4401 1 8.7043 40.3563 75.1735
4402 1 7.1217 38.7737 76.7561
4403 1 8.7043 40.3563 78.3387
4404 1 7.1217 41.9389 0.7913
4405 1 8.7043 43.5215 2.3739
4406 1 7.1217 41.9389 3.9565
4407 1 8.7043 43.5215 5.5391
4408 1 7.1217 41.9389 7.1217
4409 1 8.7043 43.5215 8.7043
4410 1 7.1217 41.9389 10.2869
4411 1 8.7043 43.5215 11.8695
4412 1 7.1217 41.9389 13.4521
4413 1 8.7043 43.5215 15.0347
4414 1 7.1217 41.9389 16.6173
4415 1 8.7043 43.5215 18.1999
4416 1 7.1217 41.9389 19.7825
4417 1 8.7043 43.5215 21.3651
4418 1 7.1217 41.9389 22.9477
4419 1 8.7043 43.5215 24.5303
4420 1 7.1217 41.9389 26.1129
4421 1 8.7043 43.5215 27.6955
4422 1 7.1217 41.9389 29.2781
4423 1 8.7043 43.5215 30.8607
4424 1 7.1217 41.9389 32.4433
4425 1 8.7043 43.5215 34.0259
4426 1 7.1217 41.9389 35.6085
4427 1 8.7043 43.5215 37.1911
4428 1 7.1217 41.9389 38.7737
4429 1 8.7043 43.5215 40.3563
4430 1 7.1217 41.9389 41.9389
4431 1 8.7043 43.5215 43.5215
4432 1 7.1217 41.9389 45.1041
4433 1 8.7043 43.5215 46.6867
4434 1 7.1217 41.9389 48.2693
4435 1 8.7043 43.5215 49.8519
4436 1 7.1217 41.9389 51.4345
4437 1 8.7043 43.5215 53.0171
4438 1 7.1217 41.9389 54.5997
4439 1 8.7043 43.5215 56.1823
4440 1 7.1217 41.9389 57.7649
4441 1 8.7043 43.5215 59.3475
4442 1 7.1217 41.9389 60.9301
4443 1 8.7043 43.5215 62.5127
4444 1 7.1217 41.9389 64.0953
4445 1 8.7043 43.5215 65.6779
4446 1 7.1217 41.9389 67.2605
4447 1 8.7043 43.5215 68.8431
4448 1 7.1217 41.9389 70.4257
4449 1 8.7043 43.5215 72.0083
4450 1 7.1217 41.9389 73.5909
4451 1 8.7043 43.5215 75.1735
4452 1 7.1217 41.9389 76.7561
4453 1 8.7043 43.5215 78.3387
4454 1 7.1217 45.1041 0.7913
4455 1 8.7043 46.6867 2.3739
4456 1 7.1217 45.1041 3.9565
4457 1 8.7043 46.6867 5.5391
4458 1 7.1217 45.1041 7.1217
4459 1 8.7043 46.6867 8.7043
4460 1 7.1217 45.1041 10.2869
4461 1 8.7043 46.6867 11.8695
4462 1 7.1217 45.1041 13.4521
4463 1 8.7043 46.6867 15.0347
4464 1 7.1217 45.1041 16.6173
4465 1 8.7043 46.6867 18.1999
4466 1 7.1217 45.1041 19.7825
4467 1 8.7043 46.6867 21.3651
4468 1 7.1217 45.1041 22.9477
4469 1 8.7043 46.6867 24.5303
4470 1 7.1217 45.1041 26.1129
4471 1 8.7043 46.6867 27.6955
4472 1 7.1217 45.1041 29.2781
4473 1 8.7043 46.6867 30.8607
4474 1 7.1217 45.1041 32.4433
4475 1 8.7043 46.6867 34.0259
4476 1 7.1217 45.1041 35.6085
4477 1 8.7043 46.6867 37.1911
4478 1 7.1217 45.1041 38.7737
4479 1 8.7043 46.6867 40.3563
4480 1 7.1217 45.1041 41.9389
4481 1 8.7043 46.6867 43.5215
4482 1 7.1217 45.1041 45.1041
4483 1 8.7043 46.6867 46.6867
4484 1 7.1217 45.1041 48.2693
4485 1 8.7043 46.6867 49.8519
4486 1 7.1217 45.1041 51.4345
4487 1 8.7043 46.6867 53.0171
4488 1 7.1217 45.1041 54.5997
4489 1 8.7043 46.6867 56.1823
4490 1 7.1217 45.1041 57.7649
4491 1 8.7043 46.6867 59.3475
4492 1 7.1217 45.1041 60.9301
4493 1 8.7043 46.6867 62.5127
4494 1 7.1217 45.1041 64.0953
4495 1 8.7043 46.6867 65.6779
4496 1 7.1217 45.1041 67.2605
4497 1 8.7043 46.6867 68.8431
4498 1 7.1217 45.1041 70.4257
4499 1 8.7043 46.6867 72.0083
4500 1 7.1217 45.1041 73.5909
4501 1 8.7043 46.6867 75.1735
4502 1 7.1217 45.1041 76.7561
4503 1 8.7043 46.6867 78.3387
4504 1 7.1217 48.2693 0.7913
4505 1 8.7043 49.8519 2.3739
4506 1 7.1217 48.2693 3.9565
4507 1 8.7043 49.8519 5.5391
4508 1 7.1217 48.2693 7.1217
4509 1 8.7043 49.8519 8.7043
4510 1 7.1217 48.2693 10.2869
4511 1 8.7043 49.8519 11.8695
4512 1 7.1217 48.2693 13.4521
4513 1 8.7043 49.8519 15.0347
4514 1 7.1217 48.2693 16.6173
4515 1 8.7043 49.8519 18.1999
4516 1 7.1217 48.2693 19.7825
4517 1 8.7043 49.8519 21.3651
4518 1 7.1217 48.2693 22.9477
4519 1 8.7043 49.8519 24.5303
4520 1 7.1217 48.2693 26.1129
4521 1 8.7043 49.8519 27.6955
4522 1 7.1217 48.2693 29.2781
4523 1 8.7043 49.8519 30.8607
4524 1 7.1217 48.2693 32.4433
4525 1 8.7043 49.8519 34.0259
4526 1 7.1217 48.2693 35.6085
4527 1 8.7043 49.8519 37.1911
4528 1 7.1217 48.2693 38.7737
4529 1 8.7043 49.8519 40.3563
4530 1 7.1217 48.2693 41.9389
4531 1 8.7043 49.8519 43.5215
4532 1 7.1217 48.2693 45.1041
4533 1 8.7043 49.8519 46.6867
4534 1 7.1217 48.2693 48.2693
4535 1 8.7043 49.8519 49.8519
4536 1 7.1217 48.2693 51.4345
4537 1 8.7043 49.8519 53.0171
4538 1 7.1217 48.2693 54.5997
4539 1 8.7043 49.8519 56.1823
4540 1 7.1217 48.2693 57.7649
4541 1 8.7043 49.8519 59.3475
4542 1 7.1217 48.2693 60.9301
4543 1 8.7043 49.8519 62.5127
4544 1 7.1217 48.2693 64.0953
4545 1 8.7043 49.8519 65.6779
4546 1 7.1217 48.2693 67.2605
4547 1 8.7043 49.8519 68.8431
4548 1 7.1217 48.2693 70.4257
4549 1 8.7043 49.8519 72.0083
4550 1 7.1217 48.2693 73.5909
4551 1 8.7043 49.8519 75.1735
4552 1 7.1217 48.2693 76.7561
4553 1 8.7043 49.8519 78.3387
4554 1 7.1217 51.4345 0.7913
4555 1 8.7043 53.0171 2.3739
4556 1 7.1217 51.4345 3.9565
4557 1 8.7043 53.0171 5.5391
4558 1 7.1217 51.4345 7.1217
4559 1 8.7043 53.0171 8.7043
4560 1 7.1217 51.4345 10.2869
4561 1 8.7043 53.0171 11.8695
4562 1 7.1217 51.4345 13.4521
4563 1 8.7043 53.0171 15.0347
4564 1 7.1217 51.4345 16.6173
4565 1 8.7043 53.0171 18.1999
4566 1 7.1217 51.4345 19.7825
4567 1 8.7043 53.0171 21.3651
4568 1 7.1217 51.4345 22.9477
4569 1 8.7043 53.0171 24.5303
4570 1 7.1217 51.4345 26.1129
4571 1 8.7043 53.0171 27.6955
4572 1 7.1217 51.4345 29.2781
4573 1 8.7043 53.0171 30.8607
4574 1 7.1217 51.4345 32.4433
4575 1 8.7043 53.0171 34.0259
4576 1 7.1217 51.4345 35.6085
4577 1 8.7043 53.0171 37.1911
4578 1 7.1217 51.4345 38.7737
4579 1 8.7043 53.0171 40.3563
4580 1 7.1217 51.4345 41.9389
4581 1 8.7043 53.0171 43.5215
4582 1 7.1217 51.4345 45.1041
4583 1 8.7043 53.0171 46.6867
4584 1 7.1217 51.4345 48.2693
4585 1 8.7043 53.0171 49.8519
4586 1 7.1217 51.4345 51.4345
4587 1 8.7043 53.0171 53.0171
4588 1 7.1217 51.4345 54.5997
4589 1 8.7043 53.0171 56.1823
4590 1 7.1217 51.4345 57.7649
4591 1 8.7043 53.0171 59.3475
4592 1 7.1217 51.4345 60.9301
4593 1 8.7043 53.0171 62.5127
4594 1 7.1217 51.4345 64.0953
4595 1 8.7043 53.0171 65.6779
4596 1 7.1217 51.4345 67.2605
4597 1 8.7043 53.0171 68.8431
4598 1 7.1217 51.4345 70.4257
4599 1 8.7043 53.0171 72.0083
4600 1 7.1217 51.4345 73.5909
4601 1 8.7043 53.0171 75.1735
4602 1 7.1217 51.4345 76.7561
4603 1 8.7043 53.0171 78.3387
4604 1 7.1217 54.5997 0.7913
4605 1 8.7043 56.1823 2.3739
4606 1 7.1217 54.5997 3.9565
4607 1 8.7043 56.1823 5.5391
4608 1 7.1217 54.5997 7.1217
4609 1 8.7043 56.1823 8.7043
4610 1 7.1217 54.5997 10.2869
4611 1 8.7043 56.1823 11.8695
4612 1 7.1217 54.5997 13.4521
4613 1 8.7043 56.1823 15.0347
4614 1 7.1217 54.5997 16.6173
4615 1 8.7043 56.1823 18.1999
4616 1 7.1217 54.5997 19.7825
4617 1 8.7043 56.1823 21.3651
4618 1 7.1217 54.5997 22.9477
4619 1 8.7043 56.1823 24.5303
4620 1 7.1217 54.5997 26.1129
4621 1 8.7043 56.1823 27.6955
4622 1 7.1217 54.5997 29.2781
4623 1 8.7043 56.1823 30.8607
4624 1 7.1217 54.5997 32.4433
4625 1 8.7043 56.1823 34.0259
4626 1 7.1217 54.5997 35.6085
4627 1 8.7043 56.1823 37.1911
4628 1 7.1217 54.5997 38.7737
4629 1 8.7043 56.1823 40.3563
4630 1 7.1217 54.5997 41.9389
4631 1 8.7043 56.1823 43.5215
4632 1 7.1217 54.5997 45.1041
4633 1 8.7043 56.1823 46.6867
4634 1 7.1217 54.5997 48.2693
4635 1 8.7043 56.1823 49.8519
4636 1 7.1217 54.5997 51.4345
4637 1 8.7043 56.1823 53.0171
4638 1 7.1217 54.5997 54.5997
4639 1 8.7043 56.1823 56.1823
4640 1 7.1217 54.5997 57.7649
4641 1 8.7043 56.1823 59.3475
4642 1 7.1217 54.5997 60.9301
4643 1 8.7043 56.1823 62.5127
4644 1 7.1217 54.5997 64.0953
4645 1 8.7043 56.1823 65.6779
4646 1 7.1217 54.5997 67.2605
4647 1 8.7043 56.1823 68.8431
4648 1 7.1217 54.5997 70.4257
4649 1 8.7043 56.1823 72.0083
4650 1 7.1217 54.5997 73.5909
4651 1 8.7043 56.1823 75.1735
4652 1 7.1217 54.5997 76.7561
4653 1 8.7043 56.1823 78.3387
4654 1 7.1217 57.7649 0.7913
4655 1 8.7043 59.3475 2.3739
4656 1 7.1217 57.7649 3.9565
4657 1 8.7043 59.3475 5.5391
4658 1 7.1217 57.7649 7.1217
4659 1 8.7043 59.3475 8.7043
4660 1 7.1217 57.7649 10.2869
4661 1 8.7043 59.3475 11.8695
4662 1 7.1217 57.7649 13.4521
4663 1 8.7043 59.3475 15.0347
4664 1 7.1217 57.7649 16.6173
4665 1 8.7043 59.3475 18.1999
4666 1 7.1217 57.7649 19.7825
4667 1 8.7043 59.3475 21.3651
4668 1 7.1217 57.7649 22.9477
4669 1 8.7043 59.3475 24.5303
4670 1 7.1217 57.7649 26.1129
4671 1 8.7043 59.3475 27.6955
4672 1 7.1217 57.7649 29.2781
4673 1 8.7043 59.3475 30.8607
4674 1 7.1217 57.7649 32.4433
4675 1 8.7043 59.3475 34.0259
4676 1 7.1217 57.7649 35.6085
4677 1 8.7043 59.3475 37.1911
4678 1 7.1217 57.7649 38.7737
4679 1 8.7043 59.3475 40.3563
4680 1 7.1217 57.7649 41.9389
4681 1 8.7043 59.3475 43.5215
4682 1 7.1217 57.7649 45.1041
4683 1 8.7043 59.3475 46.6867
4684 1 7.1217 57.7649 48.2693
4685 1 8.7043 59.3475 49.8519
4686 1 7.1217 57.7649 51.4345
4687 1 8.7043 59.3475 53.0171
4688 1 7.1217 57.7649 54.5997
4689 1 8.7043 59.3475 56.1823
4690 1 7.1217 57.7649 57.7649
4691 1 8.7043 59.3475 59.3475
4692 1 7.1217 57.7649 60.9301
4693 1 8.7043 59.3475 62.5127
4694 1 7.1217 57.7649 64.0953
4695 1 8.7043 59.3475 65.6779
4696 1 7.1217 57.7649 67.2605
4697 1 8.7043 59.3475 68.8431
4698 1 7.1217 57.7649 70.4257
4699 1 8.7043 59.3475 72.0083
4700 1 7.1217 57.7649 73.5909
4701 1 8.7043 59.3475 75.1735
4702 1 7.1217 57.7649 76.7561
4703 1 8.7043 59.3475 78.3387
4704 1 7.1217 60.9301 0.7913
4705 1 8.7043 62.5127 2.3739
4706 1 7.1217 60.9301 3.9565
4707 1 8.7043 62.5127 5.5391
4708 1 7.1217 60.9301 7.1217
4709 1 8.7043 62.5127 8.7043
4710 1 7.1217 60.9301 10.2869
4711 1 8.7043 62.5127 11.8695
4712 1 7.1217 60.9301 13.4521
4713 1 8.7043 62.5127 15.0347
4714 1 7.1217 60.9301 16.6173
4715 1 8.7043 62.5127 18.1999
4716 1 7.1217 60.9301 19.7825
4717 1 8.7043 62.5127 21.3651
4718 1 7.1217 60.9301 22.9477
4719 1 8.7043 62.5127 24.5303
4720 1 7.1217 60.9301 26.1129
4721 1 8.7043 62.5127 27.6955
4722 1 7.1217 60.9301 29.2781
4723 1 8.7043 62.5127 30.8607
4724 1 7.1217 60.9301 32.4433
4725 1 8.7043 62.5127 34.0259
4726 1 7.1217 60.9301 35.6085
4727 1 8.7043 62.5127 37.1911
4728 1 7.1217 60.9301 38.7737
4729 1 8.7043 62.5127 40.3563
4730 1 7.1217 60.9301 41.9389
4731 1 8.7043 62.5127 43.5215
4732 1 7.1217 60.9301 45.1041
4733 1 8.7043 62.5127 46.6867
4734 1 7.1217 60.9301 48.2693
4735 1 8.7043 62.5127 49.8519
4736 1 7.1217 60.9301 51.4345
4737 1 8.7043 62.5127 53.0171
4738 1 7.1217 60.9301 54.5997
4739 1 8.7043 62.5127 56.1823
4740 1 7.1217 60.9301 57.7649
4741 1 8.7043 62.5127 59.3475
4742 1 7.1217 60.9301 60.9301
4743 1 8.7043 62.5127 62.5127
4744 1 7.1217 60.9301 64.0953
4745 1 8.7043 62.5127 65.6779
4746 1 7.1217 60.9301 67.2605
4747 1 8.7043 62.5127 68.8431
4748 1 7.1217 60.9301 70.4257
4749 1 8.7043 62.5127 72.0083
4750 1 7.1217 60.9301 73.5909
4751 1 8.7043 62.5127 75.1735
4752 1 7.1217 60.9301 76.7561
4753 1 8.7043 62.5127 78.3387
4754 1 7.1217 64.0953 0.7913
4755 1 8.7043 65.6779 2.3739
4756 1 7.1217 64.0953 3.9565
4757 1 8.7043 65.6779 5.5391
4758 1 7.1217 64.0953 7.1217
4759 1 8.7043 65.6779 8.7043
4760 1 7.1217 64.0953 10.2869
4761 1 8.7043 65.6779 11.8695
4762 1 7.1217 64.0953 13.4521
4763 1 8.7043 65.6779 15.0347
4764 1 7.1217 64.0953 16.6173
4765 1 8.7043 65.6779 18.1999
4766 1 7.1217 64.0953 19.7825
4767 1 8.7043 65.6779 21.3651
4768 1 7.1217 64.0953 22.9477
4769 1 8.7043 65.6779 24.5303
4770 1 7.1217 64.0953 26.1129
4771 1 8.7043 65.6779 27.6955
4772 1 7.1217 64.0953 29.2781
4773 1 8.7043 65.6779 30.8607
4774 1 7.1217 64.0953 32.4433
4775 1 8.7043 65.6779 34.0259
4776 1 7.1217 64.0953 35.6085
4777 1 8.7043 65.6779 37.1911
4778 1 7.1217 64.0953 38.7737
4779 1 8.7043 65.6779 40.3563
4780 1 7.1217 64.0953 41.9389
4781 1 8.7043 65.6779 43.5215
4782 1 7.1217 64.0953 45.1041
4783 1 8.7043 65.6779 46.6867
4784 1 7.1217 64.0953 48.2693
4785 1 8.7043 65.6779 49.8519
4786 1 7.1217 64.0953 51.4345
4787 1 8.7043 65.6779 53.0171
4788 1 7.1217 64.0953 54.5997
4789 1 8.7043 65.6779 56.1823
4790 1 7.1217 64.0953 57.7649
4791 1 8.7043 65.6779 59.3475
4792 1 7.1217 64.0953 60.9301
4793 1 8.7043 65.6779 62.5127
4794 1 7.1217 64.0953 64.0953
4795 1 8.7043 65.6779 65.6779
4796 1 7.1217 64.0953 67.2605
4797 1 8.7043 65.6779 68.8431
4798 1 7.1217 64.0953 70.4257
4799 1 8.7043 65.6779 72.0083
4800 1 7.1217 64.0953 73.5909
4801 1 8.7043 65.6779 75.1735
4802 1 7.1217 64.0953 76.7561
4803 1 8.7043 65.6779 78.3387
4804 1 7.1217 67.2605 0.7913
4805 1 8.7043 68.8431 2.3739
4806 1 7.1217 67.2605 3.9565
4807 1 8.7043 68.8431 5.5391
4808 1 7.1217 67.2605 7.1217
4809 1 8.7043 68.8431 8.7043
4810 1 7.1217 67.2605 10.2869
4811 1 8.7043 68.8431 11.8695
4812 1 7.1217 67.2605 13.4521
4813 1 8.7043 68.8431 15.0347
4814 1 7.1217 67.2605 16.6173
4815 1 8.7043 68.8431 18.1999
4816 1 7.1217 67.2605 19.7825
4817 1 8.7043 68.8431 21.3651
4818 1 7.1217 67.2605 22.9477
4819 1 8.7043 68.8431 24.5303
4820 1 7.1217 67.2605 26.1129
4821 1 8.7043 68.8431 27.6955
4822 1 7.1217 67.2605 29.2781
4823 1 8.7043 68.8431 30.8607
4824 1 7.1217 67.2605 32.4433
4825 1 8.7043 68.8431 34.0259
4826 1 7.1217 67.2605 35.6085
4827 1 8.7043 68.8431 37.1911
4828 1 7.1217 67.2605 38.7737
4829 1 8.7043 68.8431 40.3563
4830 1 7.1217 67.2605 41.9389
4831 1 8.7043 68.8431 43.5215
4832 1 7.1217 67.2605 45.1041
4833 1 8.7043 68.8431 46.6867
4834 1 7.1217 67.2605 48.2693
4835 1 8.7043 68.8431 49.8519
4836 1 7.1217 67.2605 51.4345
4837 1 8.7043 68.8431 53.0171
4838 1 7.1217 67.2605 54.5997
4839 1 8.7043 68.8431 56.1823
4840 1 7.1217 67.2605 57.7649
4841 1 8.7043 68.8431 59.3475
4842 1 7.1217 67.2605 60.9301
4843 1 8.7043 68.8431 62.5127
4844 1 7.1217 67.2605 64.0953
4845 1 8.7043 68.8431 65.6779
4846 1 7.1217 67.2605 67.2605
4847 1 8.7043 68.8431 68.8431
4848 1 7.1217 67.2605 70.4257
4849 1 8.7043 68.8431 72.0083
4850 1 7.1217 67.2605 73.5909
4851 1 8.7043 68.8431 75.1735
4852 1 7.1217 67.2605 76.7561
4853 1 8.7043 68.8431 78.3387
4854 1 7.1217 70.4257 0.7913
4855 1 8.7043 72.0083 2.3739
4856 1 7.1217 70.4257 3.9565
4857 1 8.7043 72.0083 5.5391
4858 1 7.1217 70.4257 7.1217
4859 1 8.7043 72.0083 8.7043
4860 1 7.1217 70.4257 10.2869
4861 1 8.7043 72.0083 11.8695
4862 1 7.1217 70.4257 13.4521
4863 1 8.7043 72.0083 15.0347
4864 1 7.1217 70.4257 16.6173
4865 1 8.7043 72.0083 18.1999
4866 1 7.1217 70.4257 19.7825
4867 1 8.7043 72.0083 21.3651
4868 1 7.1217 70.4257 22.9477
4869 1 8.7043 72.0083 24.5303
4870 1 7.1217 70.4257 26.1129
4871 1 8.7043 72.0083 27.6955
4872 1 7.1217 70.4257 29.2781
4873 1 8.7043 72.0083 30.8607
4874 1 7.1217 70.4257 32.4433
4875 1 8.7043 72.0083 34.0259
4876 1 7.1217 70.4257 35.6085
4877 1 8.7043 72.0083 37.1911
4878 1 7.1217 70.4257 38.7737
4879 1 8.7043 72.0083 40.3563
4880 1 7.1217 70.4257 41.9389
4881 1 8.7043 72.0083 43.5215
4882 1 7.1217 70.4257 45.1041
4883 1 8.7043 72.0083 46.6867
4884 1 7.1217 70.4257 48.2693
4885 1 8.7043 72.0083 49.8519
4886 1 7.1217 70.4257 51.4345
4887 1 8.7043 72.0083 53.0171
4888 1 7.1217 70.4257 54.5997
4889 1 8.7043 72.0083 56.1823
4890 1 7.1217 70.4257 57.7649
4891 1 8.7043 72.0083 59.3475
4892 1 7.1217 70.4257 60.9301
4893 1 8.7043 72.0083 62.5127
4894 1 7.1217 70.4257 64.0953
4895 1 8.7043 72.0083 65.6779
4896 1 7.1217 70.4257 67.2605
4897 1 8.7043 72.0083 68.8431
4898 1 7.1217 70.4257 70.4257
4899 1 8.7043 72.0083 72.0083
4900 1 7.1217 70.4257 73.5909
4901 1 8.7043 72.0083 75.1735
4902 1 7.1217 70.4257 76.7561
4903 1 8.7043 72.0083 78.3387
4904 1 7.1217 73.5909 0.7913
4905 1 8.7043 75.1735 2.3739
4906 1 7.1217 73.5909 3.9565
4907 1 8.7043 75.1735 5.5391
4908 1 7.1217 73.5909 7.1217
4909 1 8.7043 75.1735 8.7043
4910 1 7.1217 73.5909 10.2869
4911 1 8.7043 75.1735 11.8695
4912 1 7.1217 73.5909 13.4521
4913 1 8.7043 75.1735 15.0347
4914 1 7.1217 73.5909 16.6173
4915 1 8.7043 75.1735 18.1999
4916 1 7.1217 73.5909 19.7825
4917 1 8.7043 75.1735 21.3651
4918 1 7.1217 73.5909 22.9477
4919 1 8.7043 75.1735 24.5303
4920 1 7.1217 73.5909 26.1129
4921 1 8.7043 75.1735 27.6955
4922 1 7.1217 73.5909 29.2781
4923 1 8.7043 75.1735 30.8607
4924 1 7.1217 73.5909 32.4433
4925 1 8.7043 75.1735 34.0259
4926 1 7.1217 73.5909 35.6085
4927 1 8.7043 75.1735 37.1911
4928 1 7.1217 73.5909 38.7737
4929 1 8.7043 75.1735 40.3563
4930 1 7.1217 73.5909 41.9389
4931 1 8.7043 75.1735 43.5215
4932 1 7.1217 73.5909 45.1041
4933 1 8.7043 75.1735 46.6867
4934 1 7.1217 73.5909 48.2693
4935 1 8.7043 75.1735 49.8519
4936 1 7.1217 73.5909 51.4345
4937 1 8.7043 75.1735 53.0171
4938 1 7.1217 73.5909 54.5997
4939 1 8.7043 75.1735 56.1823
4940 1 7.1217 73.5909 57.7649
4941 1 8.7043 75.1735 59.3475
4942 1 7.1217 73.5909 60.9301
4943 1 8.7043 75.1735 62.5127
4944 1 7.1217 73.5909 64.0953
4945 1 8.7043 75.1735 65.6779
4946 1 7.1217 73.5909 67.2605
4947 1 8.7043 75.1735 68.8431
4948 1 7.1217 73.5909 70.4257
4949 1 8.7043 75.1735 72.0083
4950 1 7.1217 73.5909 73.5909
4951 1 8.7043 75.1735 75.1735
4952 1 7.1217 73.5909 76.7561
4953 1 8.7043 75.1735 78.3387
4954 1 7.1217 76.7561 0.7913
4955 1 8.7043 78.3387 2.3739
4956 1 7.1217 76.7561 3.9565
4957 1 8.7043 78.3387 5.5391
4958 1 7.1217 76.7561 7.1217
4959 1 8.7043 78.3387 8.7043
4960 1 7.1217 76.7561 10.2869
4961 1 8.7043 78.3387 11.8695
4962 1 7.1217 76.7561 13.4521
4963 1 8.7043 78.3387 15.0347
4964 1 7.1217 76.7561 16.6173
4965 1 8.7043 78.3387 18.1999
4966 1 7.1217 76.7561 19.7825
4967 1 8.7043 78.3387 21.3651
4968 1 7.1217 76.7561 22.9477
4969 1 8.7043 78.3387 24.5303
4970 1 7.1217 76.7561 26.1129
4971 1 8.7043 78.3387 27.6955
4972 1 7.1217 76.7561 29.2781
4973 1 8.7043 78.3387 30.8607
4974 1 7.1217 76.7561 32.4433
4975 1 8.7043 78.3387 34.0259
4976 1 7.1217 76.7561 35.6085
4977 1 8.7043 78.3387 37.1911
4978 1 7.1217 76.7561 38.7737
4979 1 8.7043 78.3387 40.3563
4980 1 7.1217 76.7561 41.9389
4981 1 8.7043 78.3387 43.5215
4982 1 7.1217 76.7561 45.1041
4983 1 8.7043 78.3387 46.6867
4984 1 7.1217 76.7561 48.2693
4985 1 8.7043 78.3387 49.8519
4986 1 7.1217 76.7561 51.4345
4987 1 8.7043 78.3387 53.0171
4988 1 7.1217 76.7561 54.5997
4989 1 8.7043 78.3387 56.1823
4990 1 7.1217 76.7561 57.7649
4991 1 8.7043 78.3387 59.3475
4992 1 7.1217 76.7561 60.9301
4993 1 8.7043 78.3387 62.5127
4994 1 7.1217 76.7561 64.0953
4995 1 8.7043 78.3387 65.6779
4996 1 7.1217 76.7561 67.2605
4997 1 8.7043 78.3387 68.8431
4998 1 7.1217 76.7561 70.4257
4999 1 8.7043 78.3387 72.0083
5000 1 7.1217 76.7561 73.5909
5001 1 8.7043 78.3387 75.1735
5002 1 7.1217 76.7561 76.7561
5003 1 8.7043 78.3387 78.3387
5004 1 10.2869 0.7913 0.7913
5005 1 11.8695 2.3739 2.3739
5006 1 10.2869 0.7913 3.9565
5007 1 11.8695 2.3739 5.5391
5008 1 10.2869 0.7913 7.1217
5009 1 11.8695 2.3739 8.7043
5010 1 10.2869 0.7913 10.2869
5011 1 11.8695 2.3739 11.8695
5012 1 10.2869 0.7913 13.4521
5013 1 11.8695 2.3739 15.0347
5014 1 10.2869 0.7913 16.6173
5015 1 11.8695 2.3739 18.1999
5016 1 10.2869 0.7913 19.7825
5017 1 11.8695 2.3739 21.3651
5018 1 10.2869 0.7913 22.9477
5019 1 11.8695 2.3739 24.5303
5020 1 10.2869 0.7913 26.1129
5021 1 11.8695 2.3739 27.6955
5022 1 10.2869 0.7913 29.2781
5023 1 11.8695 2.3739 30.8607
5024 1 10.2869 0.7913 32.4433
5025 1 11.8695 2.3739 34.0259
5026 1 10.2869 0.7913 35.6085
5027 1 11.8695 2.3739 37.1911
5028 1 10.2869 0.7913 38.7737
5029 1 11.8695 2.3739 40.3563
5030 1 10.2869 0.7913 41.9389
5031 1 11.8695 2.3739 43.5215
5032 1 10.2869 0.7913 45.1041
5033 1 11.8695 2.3739 46.6867
5034 1 10.2869 0.7913 48.2693
5035 1 11.8695 2.3739 49.8519
5036 1 10.2869 0.7913 51.4345
5037 1 11.8695 2.3739 53.0171
5038 1 10.2869 0.7913 54.5997
5039 1 11.8695 2.3739 56.1823
5040 1 10.2869 0.7913 57.7649
5041 1 11.8695 2.3739 59.3475
5042 1 10.2869 0.7913 60.9301
5043 1 11.8695 2.3739 62.5127
5044 1 10.2869 0.7913 64.0953
5045 1 11.8695 2.3739 65.6779
5046 1 10.2869 0.7913 67.2605
5047 1 11.8695 2.3739 68.8431
5048 1 10.2869 0.7913 70.4257
5049 1 11.8695 2.3739 72.0083
5050 1 10.2869 0.7913 73.5909
5051 1 11.8695 2.3739 75.1735
5052 1 10.2869 0.7913 76.7561
5053 1 11.8695 2.3739 78.3387
5054 1 10.2869 3.9565 0.7913
5055 1 11.8695 5.5391 2.3739
5056 1 10.2869 3.9565 3.9565
5057 1 11.8695 5.5391 5.5391
5058 1 10.2869 3.9565 7.1217
5059 1 11.8695 5.5391 8.7043
5060 1 10.2869 3.9565 10.2869
5061 1 11.8695 5.5391 11.8695
5062 1 10.2869 3.9565 13.4521
5063 1 11.8695 5.5391 15.0347
5064 1 10.2869 3.9565 16.6173
5065 1 11.8695 5.5391 18.1999
5066 1 10.2869 3.9565 19.7825
5067 1 11.8695 5.5391 21.3651
5068 1 10.2869 3.9565 22.9477
5069 1 11.8695 5.5391 24.5303
5070 1 10.2869 3.9565 26.1129
5071 1 11.8695 5.5391 27.6955
5072 1 10.2869 3.9565 29.2781
5073 1 11.8695 5.5391 30.8607
5074 1 10.2869 3.9565 32.4433
5075 1 11.8695 5.5391 34.0259
5076 1 10.2869 3.9565 35.6085
5077 1 11.8695 5.5391 37.1911
5078 1 10.2869 3.9565 38.7737
5079 1 11.8695 5.5391 40.3563
5080 1 10.2869 3.9565 41.9389
5081 1 11.8695 5.5391 43.5215
5082 1 10.2869 3.9565 45.1041
5083 1 11.8695 5.5391 46.6867
5084 1 10.2869 3.9565 48.2693
5085 1 11.8695 5.5391 49.8519
5086 1 10.2869 3.9565 51.4345
5087 1 11.8695 5.5391 53.0171
5088 1 10.2869 3.9565 54.5997
5089 1 11.8695 5.5391 56.1823
5090 1 10.2869 3.9565 57.7649
5091 1 11.8695 5.5391 59.3475
5092 1 10.2869 3.9565 60.9301
5093 1 11.8695 5.5391 62.5127
5094 1 10.2869 3.9565 64.0953
5095 1 11.8695 5.5391 65.6779
5096 1 10.2869 3.9565 67.2605
5097 1 11.8695 5.5391 68.8431
5098 1 10.2869 3.9565 70.4257
5099 1 11.8695 5.5391 72.0083
5100 1 10.2869 3.9565 73.5909
5101 1 11.8695 5.5391 75.1735
5102 1 10.2869 3.9565 76.7561
5103 1 11.8695 5.5391 78.3387
5104 1 10.2869 7.1217 0.7913
5105 1 11.8695 8.7043 2.3739
5106 1 10.2869 7.1217 3.9565
5107 1 11.8695 8.7043 5.5391
5108 1 10.2869 7.1217 7.1217
5109 1 11.8695 8.7043 8.7043
5110 1 10.2869 7.1217 10.2869
5111 1 11.8695 8.7043 11.8695
5112 1 10.2869 7.1217 13.4521
5113 1 11.8695 8.7043 15.0347
5114 1 10.2869 7.1217 16.6173
5115 1 11.8695 8.7043 18.1999
5116 1 10.2869 7.1217 19.7825
5117 1 11.8695 8.7043 21.3651
5118 1 10.2869 7.1217 22.9477
5119 1 11.8695 8.7043 24.5303
5120 1 10.2869 7.1217 26.1129
5121 1 11.8695 8.7043 27.6955
5122 1 10.2869 7.1217 29.2781
5123 1 11.8695 8.7043 30.8607
5124 1 10.2869 7.1217 32.4433
5125 1 11.8695 8.7043 34.0259
5126 1 10.2869 7.1217 35.6085
5127 1 11.8695 8.7043 37.1911
5128 1 10.2869 7.1217 38.7737
5129 1 11.8695 8.7043 40.3563
5130 1 10.2869 7.1217 41.9389
5131 1 11.8695 8.7043 43.5215
5132 1 10.2869 7.1217 45.1041
5133 1 11.8695 8.7043 46.6867
5134 1 10.2869 7.1217 48.2693
5135 1 11.8695 8.7043 49.8519
5136 1 10.2869 7.1217 51.4345
5137 1 11.8695 8.7043 53.0171
5138 1 10.2869 7.1217 54.5997
5139 1 11.8695 8.7043 56.1823
5140 1 10.2869 7.1217 57.7649
5141 1 11.8695 8.7043 59.3475
5142 1 10.2869 7.1217 60.9301
5143 1 11.8695 8.7043 62.5127
5144 1 10.2869 7.1217 64.0953
5145 1 11.8695 8.7043 65.6779
5146 1 10.2869 7.1217 67.2605
5147 1 11.8695 8.7043 68.8431
5148 1 10.2869 7.1217 70.4257
5149 1 11.8695 8.7043 72.0083
5150 1 10.2869 7.1217 73.5909
5151 1 11.8695 8.7043 75.1735
5152 1 10.2869 7.1217 76.7561
5153 1 11.8695 8.7043 78.3387
5154 1 10.2869 10.2869 0.7913
5155 1 11.8695 11.8695 2.3739
5156 1 10.2869 10.2869 3.9565
5157 1 11.8695 11.8695 5.5391
5158 1 10.2869 10.2869 7.1217
5159 1 11.8695 11.8695 8.7043
5160 1 10.2869 10.2869 10.2869
5161 1 11.8695 11.8695 11.8695
5162 1 10.2869 10.2869 13.4521
5163 1 11.8695 11.8695 15.0347
5164 1 10.2869 10.2869 16.6173
5165 1 11.8695 11.8695 18.1999
5166 1 10.2869 10.2869 19.7825
5167 1 11.8695 11.8695 21.3651
5168 1 10.2869 10.2869 22.9477
5169 1 11.8695 11.8695 24.5303
5170 1 10.2869 10.2869 26.1129
5171 1 11.8695 11.8695 27.6955
5172 1 10.2869 10.2869 29.2781
5173 1 11.8695 11.8695 30.8607
5174 1 10.2869 10.2869 32.4433
5175 1 11.8695 11.8695 34.0259
5176 1 10.2869 10.2869 35.6085
5177 1 11.8695 11.8695 37.1911
5178 1 10.2869 10.2869 38.7737
5179 1 11.8695 11.8695 40.3563
5180 1 10.2869 10.2869 41.9389
5181 1 11.8695 11.8695 43.5215
5182 1 10.2869 10.2869 45.1041
5183 1 11.8695 11.8695 46.6867
5184 1 10.2869 10.2869 48.2693
5185 1 11.8695 11.8695 49.8519
5186 1 10.2869 10.2869 51.4345
5187 1 11.8695 11.8695 53.0171
5188 1 10.2869 10.2869 54.5997
5189 1 11.8695 11.8695 56.1823
5190 1 10.2869 10.2869 57.7649
5191 1 11.8695 11.8695 59.3475
5192 1 10.2869 10.2869 60.9301
5193 1 11.8695 11.8695 62.5127
5194 1 10.2869 10.2869 64.0953
5195 1 11.8695 11.8695 65.6779
5196 1 10.2869 10.2869 67.2605
5197 1 11.8695 11.8695 68.8431
5198 1 10.2869 10.2869 70.4257
5199 1 11.8695 11.8695 72.0083
5200 1 10.2869 10.2869 73.5909
5201 1 11.8695 11.8695 75.1735
5202 1 10.2869 10.2869 76.7561
5203 1 11.8695 11.8695 78.3387
5204 1 10.2869 13.4521 0.7913
5205 1 11.8695 15.0347 2.3739
5206 1 10.2869 13.4521 3.9565
5207 1 11.8695 15.0347 5.5391
5208 1 10.2869 13.4521 7.1217
5209 1 11.8695 15.0347 8.7043
5210 1 10.2869 13.4521 10.2869
5211 1 11.8695 15.0347 11.8695
5212 1 10.2869 13.4521 13.4521
5213 1 11.8695 15.0347 15.0347
5214 1 10.2869 13.4521 16.6173
5215 1 11.8695 15.0347 18.1999
5216 1 10.2869 13.4521 19.7825
5217 1 11.8695 15.0347 21.3651
5218 1 10.2869 13.4521 22.9477
5219 1 11.8695 15.0347 24.5303
5220 1 10.2869 13.4521 26.1129
5221 1 11.8695 15.0347 27.6955
5222 1 10.2869 13.4521 29.2781
5223 1 11.8695 15.0347 30.8607
5224 1 10.2869 13.4521 32.4433
5225 1 11.8695 15.0347 34.0259
5226 1 10.2869 13.4521 35.6085
5227 1 11.8695 15.0347 37.1911
5228 1 10.2869 13.4521 38.7737
5229 1 11.8695 15.0347 40.3563
5230 1 10.2869 13.4521 41.9389
5231 1 11.8695 15.0347 43.5215
5232 1 10.2869 13.4521 45.1041
5233 1 11.8695 15.0347 46.6867
5234 1 10.2869 13.4521 48.2693
5235 1 11.8695 15.0347 49.8519
5236 1 10.2869 13.4521 51.4345
5237 1 11.8695 15.0347 53.0171
5238 1 10.2869 13.4521 54.5997
5239 1 11.8695 15.0347 56.1823
5240 1 10.2869 13.4521 57.7649
5241 1 11.8695 15.0347 59.3475
5242 1 10.2869 13.4521 60.9301
5243 1 11.8695 15.0347 62.5127
5244 1 10.2869 13.4521 64.0953
5245 1 11.8695 15.0347 65.6779
5246 1 10.2869 13.4521 67.2605
5247 1 11.8695 15.0347 68.8431
5248 1 10.2869 13.4521 70.4257
5249 1 11.8695 15.0347 72.0083
5250 1 10.2869 13.4521 73.5909
5251 1 11.8695 15.0347 75.1735
5252 1 10.2869 13.4521 76.7561
5253 1 11.8695 15.0347 78.3387
5254 1 10.2869 16.6173 0.7913
5255 1 11.8695 18.1999 2.3739
5256 1 10.2869 16.6173 3.9565
5257 1 11.8695 18.1999 5.5391
5258 1 10.2869 16.6173 7.1217
5259 1 11.8695 18.1999 8.7043
5260 1 10.2869 16.6173 10.2869
5261 1 11.8695 18.1999 11.8695
5262 1 10.2869 16.6173 13.4521
5263 1 11.8695 18.1999 15.0347
5264 1 10.2869 16.6173 16.6173
5265 1 11.8695 18.1999 18.1999
5266 1 10.2869 16.6173 19.7825
5267 1 11.8695 18.1999 21.3651
5268 1 10.2869 16.6173 22.9477
5269 1 11.8695 18.1999 24.5303
5270 1 10.2869 16.6173 26.1129
5271 1 11.8695 18.1999 27.6955
5272 1 10.2869 16.6173 29.2781
5273 1 11.8695 18.1999 30.8607
5274 1 10.2869 16.6173 32.4433
5275 1 11.8695 18.1999 34.0259
5276 1 10.2869 16.6173 35.6085
5277 1 11.8695 18.1999 37.1911
5278 1 10.2869 16.6173 38.7737
5279 1 11.8695 18.1999 40.3563
5280 1 10.2869 16.6173 41.9389
5281 1 11.8695 18.1999 43.5215
5282 1 10.2869 16.6173 45.1041
5283 1 11.8695 18.1999 46.6867
5284 1 10.2869 16.6173 48.2693
5285 1 11.8695 18.1999 49.8519
5286 1 10.2869 16.6173 51.4345
5287 1 11.8695 18.1999 53.0171
5288 1 10.2869 16.6173 54.5997
5289 1 11.8695 18.1999 56.1823
5290 1 10.2869 16.6173 57.7649
5291 1 11.8695 18.1999 59.3475
5292 1 10.2869 16.6173 60.9301
5293 1 11.8695 18.1999 62.5127
5294 1 10.2869 16.6173 64.0953
5295 1 11.8695 18.1999 65.6779
5296 1 10.2869 16.6173 67.2605
5297 1 11.8695 18.1999 68.8431
5298 1 10.2869 16.6173 70.4257
5299 1 11.8695 18.1999 72.0083
5300 1 10.2869 16.6173 73.5909
5301 1 11.8695 18.1999 75.1735
5302 1 10.2869 16.6173 76.7561
5303 1 11.8695 18.1999 78.3387
5304 1 10.2869 19.7825 0.7913
5305 1 11.8695 21.3651 2.3739
5306 1 10.2869 19.7825 3.9565
5307 1 11.8695 21.3651 5.5391
5308 1 10.2869 19.7825 7.1217
5309 1 11.8695 21.3651 8.7043
5310 1 10.2869 19.7825 10.2869
5311 1 11.8695 21.3651 11.8695
5312 1 10.2869 19.7825 13.4521
5313 1 11.8695 21.3651 15.0347
5314 1 10.2869 19.7825 16.6173
5315 1 11.8695 21.3651 18.1999
5316 1 10.2869 19.7825 19.7825
5317 1 11.8695 21.3651 21.3651
5318 1 10.2869 19.7825 22.9477
5319 1 11.8695 21.3651 24.5303
5320 1 10.2869 19.7825 26.1129
5321 1 11.8695 21.3651 27.6955
5322 1 10.2869 19.7825 29.2781
5323 1 11.8695 21.3651 30.8607
5324 1 10.2869 19.7825 32.4433
5325 1 11.8695 21.3651 34.0259
5326 1 10.2869 19.7825 35.6085
5327 1 11.8695 21.3651 37.1911
5328 1 10.2869 19.7825 38.7737
5329 1 11.8695 21.3651 40.3563
5330 1 10.2869 19.7825 41.9389
5331 1 11.8695 21.3651 43.5215
5332 1 10.2869 19.7825 45.1041
5333 1 11.8695 21.3651 46.6867
5334 1 10.2869 19.7825 48.2693
5335 1 11.8695 21.3651 49.8519
5336 1 10.2869 19.7825 51.4345
5337 1 11.8695 21.3651 53.0171
5338 1 10.2869 19.7825 54.5997
5339 1 11.8695 21.3651 56.1823
5340 1 10.2869 19.7825 57.7649
5341 1 11.8695 21.3651 59.3475
5342 1 10.2869 19.7825 60.9301
5343 1 11.8695 21.3651 62.5127
5344 1 10.2869 19.7825 64.0953
5345 1 11.8695 21.3651 65.6779
5346 1 10.2869 19.7825 67.2605
5347 1 11.8695 21.3651 68.8431
5348 1 10.2869 19.7825 70.4257
5349 1 11.8695 21.3651 72.0083
5350 1 10.2869 19.7825 73.5909
5351 1 11.8695 21.3651 75.1735
5352 1 10.2869 19.7825 76.7561
5353 1 11.8695 21.3651 78.3387
5354 1 10.2869 22.9477 0.7913
5355 1 11.8695 24.5303 2.3739
5356 1 10.2869 22.9477 3.9565
5357 1 11.8695 24.5303 5.5391
5358 1 10.2869 22.9477 7.1217
5359 1 11.8695 24.5303 8.7043
5360 1 10.2869 22.9477 10.2869
5361 1 11.8695 24.5303 11.8695
5362 1 10.2869 22.9477 13.4521
5363 1 11.8695 24.5303 15.0347
5364 1 10.2869 22.9477 16.6173
5365 1 11.8695 24.5303 18.1999
5366 1 10.2869 22.9477 19.7825
5367 1 11.8695 24.5303 21.3651
5368 1 10.2869 22.9477 22.9477
5369 1 11.8695 24.5303 24.5303
5370 1 10.2869 22.9477 26.1129
5371 1 11.8695 24.5303 27.6955
5372 1 10.2869 22.9477 29.2781
5373 1 11.8695 24.5303 30.8607
5374 1 10.2869 22.9477 32.4433
5375 1 11.8695 24.5303 34.0259
5376 1 10.2869 22.9477 35.6085
5377 1 11.8695 24.5303 37.1911
5378 1 10.2869 22.9477 38.7737
5379 1 11.8695 24.5303 40.3563
5380 1 10.2869 22.9477 41.9389
5381 1 11.8695 24.5303 43.5215
5382 1 10.2869 22.9477 45.1041
5383 1 11.8695 24.5303 46.6867
5384 1 10.2869 22.9477 48.2693
5385 1 11.8695 24.5303 49.8519
5386 1 10.2869 22.9477 51.4345
5387 1 11.8695 24.5303 53.0171
5388 1 10.2869 22.9477 54.5997
5389 1 11.8695 24.5303 56.1823
5390 1 10.2869 22.9477 57.7649
5391 1 11.8695 24.5303 59.3475
5392 1 10.2869 22.9477 60.9301
5393 1 11.8695 24.5303 62.5127
5394 1 10.2869 22.9477 64.0953
5395 1 11.8695 24.5303 65.6779
5396 1 10.2869 22.9477 67.2605
5397 1 11.8695 24.5303 68.8431
5398 1 10.2869 22.9477 70.4257
5399 1 11.8695 24.5303 72.0083
5400 1 10.2869 22.9477 73.5909
5401 1 11.8695 24.5303 75.1735
5402 1 10.2869 22.9477 76.7561
5403 1 11.8695 24.5303 78.3387
5404 1 10.2869 26.1129 0.7913
5405 1 11.8695 27.6955 2.3739
5406 1 10.2869 26.1129 3.9565
5407 1 11.8695 27.6955 5.5391
5408 1 10.2869 26.1129 7.1217
5409 1 11.8695 27.6955 8.7043
5410 1 10.2869 26.1129 10.2869
5411 1 11.8695 27.6955 11.8695
5412 1 10.2869 26.1129 13.4521
5413 1 11.8695 27.6955 15.0347
5414 1 10.2869 26.1129 16.6173
5415 1 11.8695 27.6955 18.1999
5416 1 10.2869 26.1129 19.7825
5417 1 11.8695 27.6955 21.3651
5418 1 10.2869 26.1129 22.9477
5419 1 11.8695 27.6955 24.5303
5420 1 10.2869 26.1129 26.1129
5421 1 11.8695 27.6955 27.6955
5422 1 10.2869 26.1129 29.2781
5423 1 11.8695 27.6955 30.8607
5424 1 10.2869 26.1129 32.4433
5425 1 11.8695 27.6955 34.0259
5426 1 10.2869 26.1129 35.6085
5427 1 11.8695 27.6955 37.1911
5428 1 10.2869 26.1129 38.7737
5429 1 11.8695 27.6955 40.3563
5430 1 10.2869 26.1129 41.9389
5431 1 11.8695 27.6955 43.5215
5432 1 10.2869 26.1129 45.1041
5433 1 11.8695 27.6955 46.6867
5434 1 10.2869 26.1129 48.2693
5435 1 11.8695 27.6955 49.8519
5436 1 10.2869 26.1129 51.4345
5437 1 11.8695 27.6955 53.0171
5438 1 10.2869 26.1129 54.5997
5439 1 11.8695 27.6955 56.1823
5440 1 10.2869 26.1129 57.7649
5441 1 11.8695 27.6955 59.3475
5442 1 10.2869 26.1129 60.9301
5443 1 11.8695 27.6955 62.5127
5444 1 10.2869 26.1129 64.0953
5445 1 11.8695 27.6955 65.6779
5446 1 10.2869 26.1129 67.2605
5447 1 11.8695 27.6955 68.8431
5448 1 10.2869 26.1129 70.4257
5449 1 11.8695 27.6955 72.0083
5450 1 10.2869 26.1129 73.5909
5451 1 11.8695 27.6955 75.1735
5452 1 10.2869 26.1129 76.7561
5453 1 11.8695 27.6955 78.3387
5454 1 10.2869 29.2781 0.7913
5455 1 11.8695 30.8607 2.3739
5456 1 10.2869 29.2781 3.9565
5457 1 11.8695 30.8607 5.5391
5458 1 10.2869 29.2781 7.1217
5459 1 11.8695 30.8607 8.7043
5460 1 10.2869 29.2781 10.2869
5461 1 11.8695 30.8607 11.8695
5462 1 10.2869 29.2781 13.4521
5463 1 11.8695 30.8607 15.0347
5464 1 10.2869 29.2781 16.6173
5465 1 11.8695 30.8607 18.1999
5466 1 10.2869 29.2781 19.7825
5467 1 11.8695 30.8607 21.3651
5468 1 10.2869 29.2781 22.9477
5469 1 11.8695 30.8607 24.5303
5470 1 10.2869 29.2781 26.1129
5471 1 11.8695 30.8607 27.6955
5472 1 10.2869 29.2781 29.2781
5473 1 11.8695 30.8607 30.8607
5474 1 10.2869 29.2781 32.4433
5475 1 11.8695 30.8607 34.0259
5476 1 10.2869 29.2781 35.6085
5477 1 11.8695 30.8607 37.1911
5478 1 10.2869 29.2781 38.7737
5479 1 11.8695 30.8607 40.3563
5480 1 10.2869 29.2781 41.9389
5481 1 11.8695 30.8607 43.5215
5482 1 10.2869 29.2781 45.1041
5483 1 11.8695 30.8607 46.6867
5484 1 10.2869 29.2781 48.2693
5485 1 11.8695 30.8607 49.8519
5486 1 10.2869 29.2781 51.4345
5487 1 11.8695 30.8607 53.0171
5488 1 10.2869 29.2781 54.5997
5489 1 11.8695 30.8607 56.1823
5490 1 10.2869 29.2781 57.7649
5491 1 11.8695 30.8607 59.3475
5492 1 10.2869 29.2781 60.9301
5493 1 11.8695 30.8607 62.5127
5494 1 10.2869 29.2781 64.0953
5495 1 11.8695 30.8607 65.6779
5496 1 10.2869 29.2781 67.2605
5497 1 11.8695 30.8607 68.8431
5498 1 10.2869 29.2781 70.4257
5499 1 11.8695 30.8607 72.0083
5500 1 10.2869 29.2781 73.5909
5501 1 11.8695 30.8607 75.1735
5502 1 10.2869 29.2781 76.7561
5503 1 11.8695 30.8607 78.3387
5504 1 10.2869 32.4433 0.7913
5505 1 11.8695 34.0259 2.3739
5506 1 10.2869 32.4433 3.9565
5507 1 11.8695 34.0259 5.5391
5508 1 10.2869 32.4433 7.1217
5509 1 11.8695 34.0259 8.7043
5510 1 10.2869 32.4433 10.2869
5511 1 11.8695 34.0259 11.8695
5512 1 10.2869 32.4433 13.4521
5513 1 11.8695 34.0259 15.0347
5514 1 10.2869 32.4433 16.6173
5515 1 11.8695 34.0259 18.1999
5516 1 10.2869 32.4433 19.7825
5517 1 11.8695 34.0259 21.3651
5518 1 10.2869 32.4433 22.9477
5519 1 11.8695 34.0259 24.5303
5520 1 10.2869 32.4433 26.1129
5521 1 11.8695 34.0259 27.6955
5522 1 10.2869 32.4433 29.2781
5523 1 11.8695 34.0259 30.8607
5524 1 10.2869 32.4433 32.4433
5525 1 11.8695 34.0259 34.0259
5526 1 10.2869 32.4433 35.6085
5527 1 11.8695 34.0259 37.1911
5528 1 10.2869 32.4433 38.7737
5529 1 11.8695 34.0259 40.3563
5530 1 10.2869 32.4433 41.9389
5531 1 11.8695 34.0259 43.5215
5532 1 10.2869 32.4433 45.1041
5533 1 11.8695 34.0259 46.6867
5534 1 10.2869 32.4433 48.2693
5535 1 11.8695 34.0259 49.8519
5536 1 10.2869 32.4433 51.4345
5537 1 11.8695 34.0259 53.0171
5538 1 10.2869 32.4433 54.5997
5539 1 11.8695 34.0259 56.1823
5540 1 10.2869 32.4433 57.7649
5541 1 11.8695 34.0259 59.3475
5542 1 10.2869 32.4433 60.9301
5543 1 11.8695 34.0259 62.5127
5544 1 10.2869 32.4433 64.0953
5545 1 11.8695 34.0259 65.6779
5546 1 10.2869 32.4433 67.2605
5547 1 11.8695 34.0259 68.8431
5548 1 10.2869 32.4433 70.4257
5549 1 11.8695 34.0259 72.0083
5550 1 10.2869 32.4433 73.5909
5551 1 11.8695 34.0259 75.1735
5552 1 10.2869 32.4433 76.7561
5553 1 11.8695 34.0259 78.3387
5554 1 10.2869 35.6085 0.7913
5555 1 11.8695 37.1911 2.3739
5556 1 10.2869 35.6085 3.9565
5557 1 11.8695 37.1911 5.5391
5558 1 10.2869 35.6085 7.1217
5559 1 11.8695 37.1911 8.7043
5560 1 10.2869 35.6085 10.2869
5561 1 11.8695 37.1911 11.8695
5562 1 10.2869 35.6085 13.4521
5563 1 11.8695 37.1911 15.0347
5564 1 10.2869 35.6085 16.6173
5565 1 11.8695 37.1911 18.1999
5566 1 10.2869 35.6085 19.7825
5567 1 11.8695 37.1911 21.3651
5568 1 10.2869 35.6085 22.9477
5569 1 11.8695 37.1911 24.5303
5570 1 10.2869 35.6085 26.1129
5571 1 11.8695 37.1911 27.6955
5572 1 10.2869 35.6085 29.2781
5573 1 11.8695 37.1911 30.8607
5574 1 10.2869 35.6085 32.4433
5575 1 11.8695 37.1911 34.0259
5576 1 10.2869 35.6085 35.6085
5577 1 11.8695 37.1911 37.1911
5578 1 10.2869 35.6085 38.7737
5579 1 11.8695 37.1911 40.3563
5580 1 10.2869 35.6085 41.9389
5581 1 11.8695 37.1911 43.5215
5582 1 10.2869 35.6085 45.1041
5583 1 11.8695 37.1911 46.6867
5584 1 10.2869 35.6085 48.2693
5585 1 11.8695 37.1911 49.8519
5586 1 10.2869 35.6085 51.4345
5587 1 11.8695 37.1911 53.0171
5588 1 10.2869 35.6085 54.5997
5589 1 11.8695 37.1911 56.1823
5590 1 10.2869 35.6085 57.7649
5591 1 11.8695 37.1911 59.3475
5592 1 10.2869 35.6085 60.9301
5593 1 11.8695 37.1911 62.5127
5594 1 10.2869 35.6085 64.0953
5595 1 11.8695 37.1911 65.6779
5596 1 10.2869 35.6085 67.2605
5597 1 11.8695 37.1911 68.8431
5598 1 10.2869 35.6085 70.4257
5599 1 11.8695 37.1911 72.0083
5600 1 10.2869 35.6085 73.5909
5601 1 11.8695 37.1911 75.1735
5602 1 10.2869 35.6085 76.7561
5603 1 11.8695 37.1911 78.3387
5604 1 10.2869 38.7737 0.7913
5605 1 11.8695 40.3563 2.3739
5606 1 10.2869 38.7737 3.9565
5607 1 11.8695 40.3563 5.5391
5608 1 10.2869 38.7737 7.1217
5609 1 11.8695 40.3563 8.7043
5610 1 10.2869 38.7737 10.2869
5611 1 11.8695 40.3563 11.8695
5612 1 10.2869 38.7737 13.4521
5613 1 11.8695 40.3563 15.0347
5614 1 10.2869 38.7737 16.6173
5615 1 11.8695 40.3563 18.1999
5616 1 10.2869 38.7737 19.7825
5617 1 11.8695 40.3563 21.3651
5618 1 10.2869 38.7737 22.9477
5619 1 11.8695 40.3563 24.5303
5620 1 10.2869 38.7737 26.1129
5621 1 11.8695 40.3563 27.6955
5622 1 10.2869 38.7737 29.2781
5623 1 11.8695 40.3563 30.8607
5624 1 10.2869 38.7737 32.4433
5625 1 11.8695 40.3563 34.0259
5626 1 10.2869 38.7737 35.6085
5627 1 11.8695 40.3563 37.1911
5628 1 10.2869 38.7737 38.7737
5629 1 11.8695 40.3563 40.3563
5630 1 10.2869 38.7737 41.9389
5631 1 11.8695 40.3563 43.5215
5632 1 10.2869 38.7737 45.1041
5633 1 11.8695 40.3563 46.6867
5634 1 10.2869 38.7737 48.2693
5635 1 11.8695 40.3563 49.8519
5636 1 10.2869 38.7737 51.4345
5637 1 11.8695 40.3563 53.0171
5638 1 10.2869 38.7737 54.5997
5639 1 11.8695 40.3563 56.1823
5640 1 10.2869 38.7737 57.7649
5641 1 11.8695 40.3563 59.3475
5642 1 10.2869 38.7737 60.9301
5643 1 11.8695 40.3563 62.5127
5644 1 10.2869 38.7737 64.0953
5645 1 11.8695 40.3563 65.6779
5646 1 10.2869 38.7737 67.2605
5647 1 11.8695 40.3563 68.8431
5648 1 10.2869 38.7737 70.4257
5649 1 11.8695 40.3563 72.0083
5650 1 10.2869 38.7737 73.5909
5651 1 11.8695 40.3563 75.1735
5652 1 10.2869 38.7737 76.7561
5653 1 11.8695 40.3563 78.3387
5654 1 10.2869 41.9389 0.7913
5655 1 11.8695 43.5215 2.3739
5656 1 10.2869 41.9389 3.9565
5657 1 11.8695 43.5215 5.5391
5658 1 10.2869 41.9389 7.1217
5659 1 11.8695 43.5215 8.7043
5660 1 10.2869 41.9389 10.2869
5661 1 11.8695 43.5215 11.8695
5662 1 10.2869 41.9389 13.4521
5663 1 11.8695 43.5215 15.0347
5664 1 10.2869 41.9389 16.6173
5665 1 11.8695 43.5215 18.1999
5666 1 10.2869 41.9389 19.7825
5667 1 11.8695 43.5215 21.3651
5668 1 10.2869 41.9389 22.9477
5669 1 11.8695 43.5215 24.5303
5670 1 10.2869 41.9389 26.1129
5671 1 11.8695 43.5215 27.6955
5672 1 10.2869 41.9389 29.2781
5673 1 11.8695 43.5215 30.8607
5674 1 10.2869 41.9389 32.4433
5675 1 11.8695 43.5215 34.0259
5676 1 10.2869 41.9389 35.6085
5677 1 11.8695 43.5215 37.1911
5678 1 10.2869 41.9389 38.7737
5679 1 11.8695 43.5215 40.3563
5680 1 10.2869 41.9389 41.9389
5681 1 11.8695 43.5215 43.5215
5682 1 10.2869 41.9389 45.1041
5683 1 11.8695 43.5215 46.6867
5684 1 10.2869 41.9389 48.2693
5685 1 11.8695 43.5215 49.8519
5686 1 10.2869 41.9389 51.4345
5687 1 11.8695 43.5215 53.0171
5688 1 10.2869 41.9389 54.5997
5689 1 11.8695 43.5215 56.1823
5690 1 10.2869 41.9389 57.7649
5691 1 11.8695 43.5215 59.3475
5692 1 10.2869 41.9389 60.9301
5693 1 11.8695 43.5215 62.5127
5694 1 10.2869 41.9389 64.0953
5695 1 11.8695 43.5215 65.6779
5696 1 10.2869 41.9389 67.2605
5697 1 11.8695 43.5215 68.8431
5698 1 10.2869 41.9389 70.4257
5699 1 11.8695 43.5215 72.0083
5700 1 10.2869 41.9389 73.5909
5701 1 11.8695 43.5215 75.1735
5702 1 10.2869 41.9389 76.7561
5703 1 11.8695 43.5215 78.3387
5704 1 10.2869 45.1041 0.7913
5705 1 11.8695 46.6867 2.3739
5706 1 10.2869 45.1041 3.9565
5707 1 11.8695 46.6867 5.5391
5708 1 10.2869 45.1041 7.1217
5709 1 11.8695 46.6867 8.7043
5710 1 10.2869 45.1041 10.2869
5711 1 11.8695 46.6867 11.8695
5712 1 10.2869 45.1041 13.4521
5713 1 11.8695 46.6867 15.0347
5714 1 10.2869 45.1041 16.6173
5715 1 11.8695 46.6867 18.1999
5716 1 10.2869 45.1041 19.7825
5717 1 11.8695 46.6867 21.3651
5718 1 10.2869 45.1041 22.9477
5719 1 11.8695 46.6867 24.5303
5720 1 10.2869 45.1041 26.1129
5721 1 11.8695 46.6867 27.6955
5722 1 10.2869 45.1041 29.2781
5723 1 11.8695 46.6867 30.8607
5724 1 10.2869 45.1041 32.4433
5725 1 11.8695 46.6867 34.0259
5726 1 10.2869 45.1041 35.6085
5727 1 11.8695 46.6867 37.1911
5728 1 10.2869 45.1041 38.7737
5729 1 11.8695 46.6867 40.3563
5730 1 10.2869 45.1041 41.9389
5731 1 11.8695 46.6867 43.5215
5732 1 10.2869 45.1041 45.1041
5733 1 11.8695 46.6867 46.6867
5734 1 10.2869 45.1041 48.2693
5735 1 11.8695 46.6867 49.8519
5736 1 10.2869 45.1041 51.4345
5737 1 11.8695 46.6867 53.0171
5738 1 10.2869 45.1041 54.5997
5739 1 11.8695 46.6867 56.1823
5740 1 10.2869 45.1041 57.7649
5741 1 11.8695 46.6867 59.3475
5742 1 10.2869 45.1041 60.9301
5743 1 11.8695 46.6867 62.5127
5744 1 10.2869 45.1041 64.0953
5745 1 11.8695 46.6867 65.6779
5746 1 10.2869 45.1041 67.2605
5747 1 11.8695 46.6867 68.8431
5748 1 10.2869 45.1041 70.4257
5749 1 11.8695 46.6867 72.0083
5750 1 10.2869 45.1041 73.5909
5751 1 11.8695 46.6867 75.1735
5752 1 10.2869 45.1041 76.7561
5753 1 11.8695 46.6867 78.3387
5754 1 10.2869 48.2693 0.7913
5755 1 11.8695 49.8519 2.3739
5756 1 10.2869 48.2693 3.9565
5757 1 11.8695 49.8519 5.5391
5758 1 10.2869 48.2693 7.1217
5759 1 11.8695 49.8519 8.7043
5760 1 10.2869 48.2693 10.2869
5761 1 11.8695 49.8519 11.8695
5762 1 10.2869 48.2693 13.4521
5763 1 11.8695 49.8519 15.0347
5764 1 10.2869 48.2693 16.6173
5765 1 11.8695 49.8519 18.1999
5766 1 10.2869 48.2693 19.7825
5767 1 11.8695 49.8519 21.3651
5768 1 10.2869 48.2693 22.9477
5769 1 11.8695 49.8519 24.5303
5770 1 10.2869 48.2693 26.1129
5771 1 11.8695 49.8519 27.6955
5772 1 10.2869 48.2693 29.2781
5773 1 11.8695 49.8519 30.8607
5774 1 10.2869 48.2693 32.4433
5775 1 11.8695 49.8519 34.0259
5776 1 10.2869 48.2693 35.6085
5777 1 11.8695 49.8519 37.1911
5778 1 10.2869 48.2693 38.7737
5779 1 11.8695 49.8519 40.3563
5780 1 10.2869 48.2693 41.9389
5781 1 11.8695 49.8519 43.5215
5782 1 10.2869 48.2693 45.1041
5783 1 11.8695 49.8519 46.6867
5784 1 10.2869 48.2693 48.2693
5785 1 11.8695 49.8519 49.8519
5786 1 10.2869 48.2693 51.4345
5787 1 11.8695 49.8519 53.0171
5788 1 10.2869 48.2693 54.5997
5789 1 11.8695 49.8519 56.1823
5790 1 10.2869 48.2693 57.7649
5791 1 11.8695 49.8519 59.3475
5792 1 10.2869 48.2693 60.9301
5793 1 11.8695 49.8519 62.5127
5794 1 10.2869 48.2693 64.0953
5795 1 11.8695 49.8519 65.6779
5796 1 10.2869 48.2693 67.2605
5797 1 11.8695 49.8519 68.8431
5798 1 10.2869 48.2693 70.4257
5799 1 11.8695 49.8519 72.0083
5800 1 10.2869 48.2693 73.5909
5801 1 11.8695 49.8519 75.1735
5802 1 10.2869 48.2693 76.7561
5803 1 11.8695 49.8519 78.3387
5804 1 10.2869 51.4345 0.7913
5805 1 11.8695 53.0171 2.3739
5806 1 10.2869 51.4345 3.9565
5807 1 11.8695 53.0171 5.5391
5808 1 10.2869 51.4345 7.1217
5809 1 11.8695 53.0171 8.7043
5810 1 10.2869 51.4345 10.2869
5811 1 11.8695 53.0171 11.8695
5812 1 10.2869 51.4345 13.4521
5813 1 11.8695 53.0171 15.0347
5814 1 10.2869 51.4345 16.6173
5815 1 11.8695 53.0171 18.1999
5816 1 10.2869 51.4345 19.7825
5817 1 11.8695 53.0171 21.3651
5818 1 10.2869 51.4345 22.9477
5819 1 11.8695 53.0171 24.5303
5820 1 10.2869 51.4345 26.1129
5821 1 11.8695 53.0171 27.6955
5822 1 10.2869 51.4345 29.2781
5823 1 11.8695 53.0171 30.8607
5824 1 10.2869 51.4345 32.4433
5825 1 11.8695 53.0171 34.0259
5826 1 10.2869 51.4345 35.6085
5827 1 11.8695 53.0171 37.1911
5828 1 10.2869 51.4345 38.7737
5829 1 11.8695 53.0171 40.3563
5830 1 10.2869 51.4345 41.9389
5831 1 11.8695 53.0171 43.5215
5832 1 10.2869 51.4345 45.1041
5833 1 11.8695 53.0171 46.6867
5834 1 10.2869 51.4345 48.2693
5835 1 11.8695 53.0171 49.8519
5836 1 10.2869 51.4345 51.4345
5837 1 11.8695 53.0171 53.0171
5838 1 10.2869 51.4345 54.5997
5839 1 11.8695 53.0171 56.1823
5840 1 10.2869 51.4345 57.7649
5841 1 11.8695 53.0171 59.3475
5842 1 10.2869 51.4345 60.9301
5843 1 11.8695 53.0171 62.5127
5844 1 10.2869 51.4345 64.0953
5845 1 11.8695 53.0171 65.6779
5846 1 10.2869 51.4345 67.2605
5847 1 11.8695 53.0171 68.8431
5848 1 10.2869 51.4345 70.4257
5849 1 11.8695 53.0171 72.0083
5850 1 10.2869 51.4345 73.5909
5851 1 11.8695 53.0171 75.1735
5852 1 10.2869 51.4345 76.7561
5853 1 11.8695 53.0171 78.3387
5854 1 10.2869 54.5997 0.7913
5855 1 11.8695 56.1823 2.3739
5856 1 10.2869 54.5997 3.9565
5857 1 11.8695 56.1823 5.5391
5858 1 10.2869 54.5997 7.1217
5859 1 11.8695 56.1823 8.7043
5860 1 10.2869 54.5997 10.2869
5861 1 11.8695 56.1823 11.8695
5862 1 10.2869 54.5997 13.4521
5863 1 11.8695 56.1823 15.0347
5864 1 10.2869 54.5997 16.6173
5865 1 11.8695 56.1823 18.1999
5866 1 10.2869 54.5997 19.7825
5867 1 11.8695 56.1823 21.3651
5868 1 10.2869 54.5997 22.9477
5869 1 11.8695 56.1823 24.5303
5870 1 10.2869 54.5997 26.1129
5871 1 11.8695 56.1823 27.6955
5872 1 10.2869 54.5997 29.2781
5873 1 11.8695 56.1823 30.8607
5874 1 10.2869 54.5997 32.4433
5875 1 11.8695 56.1823 34.0259
5876 1 10.2869 54.5997 35.6085
5877 1 11.8695 56.1823 37.1911
5878 1 10.2869 54.5997 38.7737
5879 1 11.8695 56.1823 40.3563
5880 1 10.2869 54.5997 41.9389
5881 1 11.8695 56.1823 43.5215
5882 1 10.2869 54.5997 45.1041
5883 1 11.8695 56.1823 46.6867
5884 1 10.2869 54.5997 48.2693
5885 1 11.8695 56.1823 49.8519
5886 1 10.2869 54.5997 51.4345
5887 1 11.8695 56.1823 53.0171
5888 1 10.2869 54.5997 54.5997
5889 1 11.8695 56.1823 56.1823
5890 1 10.2869 54.5997 57.7649
5891 1 11.8695 56.1823 59.3475
5892 1 10.2869 54.5997 60.9301
5893 1 11.8695 56.1823 62.5127
5894 1 10.2869 54.5997 64.0953
5895 1 11.8695 56.1823 65.6779
5896 1 10.2869 54.5997 67.2605
5897 1 11.8695 56.1823 68.8431
5898 1 10.2869 54.5997 70.4257
5899 1 11.8695 56.1823 72.0083
5900 1 10.2869 54.5997 73.5909
5901 1 11.8695 56.1823 75.1735
5902 1 10.2869 54.5997 76.7561
5903 1 11.8695 56.1823 78.3387
5904 1 10.2869 57.7649 0.7913
5905 1 11.8695 59.3475 2.3739
5906 1 10.2869 57.7649 3.9565
5907 1 11.8695 59.3475 5.5391
5908 1 10.2869 57.7649 7.1217
5909 1 11.8695 59.3475 8.7043
5910 1 10.2869 57.7649 10.2869
5911 1 11.8695 59.3475 11.8695
5912 1 10.2869 57.7649 13.4521
5913 1 11.8695 59.3475 15.0347
5914 1 10.2869 57.7649 16.6173
5915 1 11.8695 59.3475 18.1999
5916 1 10.2869 57.7649 19.7825
5917 1 11.8695 59.3475 21.3651
5918 1 10.2869 57.7649 22.9477
5919 1 11.8695 59.3475 24.5303
5920 1 10.2869 57.7649 26.1129
5921 1 11.8695 59.3475 27.6955
5922 1 10.2869 57.7649 29.2781
5923 1 11.8695 59.3475 30.8607
5924 1 10.2869 57.7649 32.4433
5925 1 11.8695 59.3475 34.0259
5926 1 10.2869 57.7649 35.6085
5927 1 11.8695 59.3475 37.1911
5928 1 10.2869 57.7649 38.7737
5929 1 11.8695 59.3475 40.3563
5930 1 10.2869 57.7649 41.9389
5931 1 11.8695 59.3475 43.5215
5932 1 10.2869 57.7649 45.1041
5933 1 11.8695 59.3475 46.6867
5934 1 10.2869 57.7649 48.2693
5935 1 11.8695 59.3475 49.8519
5936 1 10.2869 57.7649 51.4345
5937 1 11.8695 59.3475 53.0171
5938 1 10.2869 57.7649 54.5997
5939 1 11.8695 59.3475 56.1823
5940 1 10.2869 57.7649 57.7649
5941 1 11.8695 59.3475 59.3475
5942 1 10.2869 57.7649 60.9301
5943 1 11.8695 59.3475 62.5127
5944 1 10.2869 57.7649 64.0953
5945 1 11.8695 59.3475 65.6779
5946 1 10.2869 57.7649 67.2605
5947 1 11.8695 59.3475 68.8431
5948 1 10.2869 57.7649 70.4257
5949 1 11.8695 59.3475 72.0083
5950 1 10.2869 57.7649 73.5909
5951 1 11.8695 59.3475 75.1735
5952 1 10.2869 57.7649 76.7561
5953 1 11.8695 59.3475 78.3387
5954 1 10.2869 60.9301 0.7913
5955 1 11.8695 62.5127 2.3739
5956 1 10.2869 60.9301 3.9565
5957 1 11.8695 62.5127 5.5391
5958 1 10.2869 60.9301 7.1217
5959 1 11.8695 62.5127 8.7043
5960 1 10.2869 60.9301 10.2869
5961 1 11.8695 62.5127 11.8695
5962 1 10.2869 60.9301 13.4521
5963 1 11.8695 62.5127 15.0347
5964 1 10.2869 60.9301 16.6173
5965 1 11.8695 62.5127 18.1999
5966 1 10.2869 60.9301 19.7825
5967 1 11.8695 62.5127 21.3651
5968 1 10.2869 60.9301 22.9477
5969 1 11.8695 62.5127 24.5303
5970 1 10.2869 60.9301 26.1129
5971 1 11.8695 62.5127 27.6955
5972 1 10.2869 60.9301 29.2781
5973 1 11.8695 62.5127 30.8607
5974 1 10.2869 60.9301 32.4433
5975 1 11.8695 62.5127 34.0259
5976 1 10.2869 60.9301 35.6085
5977 1 11.8695 62.5127 37.1911
5978 1 10.2869 60.9301 38.7737
5979 1 11.8695 62.5127 40.3563
5980 1 10.2869 60.9301 41.9389
5981 1 11.8695 62.5127 43.5215
5982 1 10.2869 60.9301 45.1041
5983 1 11.8695 62.5127 46.6867
5984 1 10.2869 60.9301 48.2693
5985 1 11.8695 62.5127 49.8519
5986 1 10.2869 60.9301 51.4345
5987 1 11.8695 62.5127 53.0171
5988 1 10.2869 60.9301 54.5997
5989 1 11.8695 62.5127 56.1823
5990 1 10.2869 60.9301 57.7649
5991 1 11.8695 62.5127 59.3475
5992 1 10.2869 60.9301 60.9301
5993 1 11.8695 62.5127 62.5127
5994 1 10.2869 60.9301 64.0953
5995 1 11.8695 62.5127 65.6779
5996 1 10.2869 60.9301 67.2605
5997 1 11.8695 62.5127 68.8431
5998 1 10.2869 60.9301 70.4257
5999 1 11.8695 62.5127 72.0083
6000 1 10.2869 60.9301 73.5909
6001 1 11.8695 62.5127 75.1735
6002 1 10.2869 60.9301 76.7561
6003 1 11.8695 62.5127 78.3387
6004 1 10.2869 64.0953 0.7913
6005 1 11.8695 65.6779 2.3739
6006 1 10.2869 64.0953 3.9565
6007 1 11.8695 65.6779 5.5391
6008 1 10.2869 64.0953 7.1217
6009 1 11.8695 65.6779 8.7043
6010 1 10.2869 64.0953 10.2869
6011 1 11.8695 65.6779 11.8695
6012 1 10.2869 64.0953 13.4521
6013 1 11.8695 65.6779 15.0347
6014 1 10.2869 64.0953 16.6173
6015 1 11.8695 65.6779 18.1999
6016 1 10.2869 64.0953 19.7825
6017 1 11.8695 65.6779 21.3651
6018 1 10.2869 64.0953 22.9477
6019 1 11.8695 65.6779 24.5303
6020 1 10.2869 64.0953 26.1129
6021 1 11.8695 65.6779 27.6955
6022 1 10.2869 64.0953 29.2781
6023 1 11.8695 65.6779 30.8607
6024 1 10.2869 64.0953 32.4433
6025 1 11.8695 65.6779 34.0259
6026 1 10.2869 64.0953 35.6085
6027 1 11.8695 65.6779 37.1911
6028 1 10.2869 64.0953 38.7737
6029 1 11.8695 65.6779 40.3563
6030 1 10.2869 64.0953 41.9389
6031 1 11.8695 65.6779 43.5215
6032 1 10.2869 64.0953 45.1041
6033 1 11.8695 65.6779 46.6867
6034 1 10.2869 64.0953 48.2693
6035 1 11.8695 65.6779 49.8519
6036 1 10.2869 64.0953 51.4345
6037 1 11.8695 65.6779 53.0171
6038 1 10.2869 64.0953 54.5997
6039 1 11.8695 65.6779 56.1823
6040 1 10.2869 64.0953 57.7649
6041 1 11.8695 65.6779 59.3475
6042 1 10.2869 64.0953 60.9301
6043 1 11.8695 65.6779 62.5127
6044 1 10.2869 64.0953 64.0953
6045 1 11.8695 65.6779 65.6779
6046 1 10.2869 64.0953 67.2605
6047 1 11.8695 65.6779 68.8431
6048 1 10.2869 64.0953 70.4257
6049 1 11.8695 65.6779 72.0083
6050 1 10.2869 64.0953 73.5909
6051 1 11.8695 65.6779 75.1735
6052 1 10.2869 64.0953 76.7561
6053 1 11.8695 65.6779 78.3387
6054 1 10.2869 67.2605 0.7913
6055 1 11.8695 68.8431 2.3739
6056 1 10.2869 67.2605 3.9565
6057 1 11.8695 68.8431 5.5391
6058 1 10.2869 67.2605 7.1217
6059 1 11.8695 68.8431 8.7043
6060 1 10.2869 67.2605 10.2869
6061 1 11.8695 68.8431 11.8695
6062 1 10.2869 67.2605 13.4521
6063 1 11.8695 68.8431 15.0347
6064 1 10.2869 67.2605 16.6173
6065 1 11.8695 68.8431 18.1999
6066 1 10.2869 67.2605 19.7825
6067 1 11.8695 68.8431 21.3651
6068 1 10.2869 67.2605 22.9477
6069 1 11.8695 68.8431 24.5303
6070 1 10.2869 67.2605 26.1129
6071 1 11.8695 68.8431 27.6955
6072 1 10.2869 67.2605 29.2781
6073 1 11.8695 68.8431 30.8607
6074 1 10.2869 67.2605 32.4433
6075 1 11.8695 68.8431 34.0259
6076 1 10.2869 67.2605 35.6085
6077 1 11.8695 68.8431 37.1911
6078 1 10.2869 67.2605 38.7737
6079 1 11.8695 68.8431 40.3563
6080 1 10.2869 67.2605 41.9389
6081 1 11.8695 68.8431 43.5215
6082 1 10.2869 67.2605 45.1041
6083 1 11.8695 68.8431 46.6867
6084 1 10.2869 67.2605 48.2693
6085 1 11.8695 68.8431 49.8519
6086 1 10.2869 67.2605 51.4345
6087 1 11.8695 68.8431 53.0171
6088 1 10.2869 67.2605 54.5997
6089 1 11.8695 68.8431 56.1823
6090 1 10.2869 67.2605 57.7649
6091 1 11.8695 68.8431 59.3475
6092 1 10.2869 67.2605 60.9301
6093 1 11.8695 68.8431 62.5127
6094 1 10.2869 67.2605 64.0953
6095 1 11.8695 68.8431 65.6779
6096 1 10.2869 67.2605 67.2605
6097 1 11.8695 68.8431 68.8431
6098 1 10.2869 67.2605 70.4257
6099 1 11.8695 68.8431 72.0083
6100 1 10.2869 67.2605 73.5909
6101 1 11.8695 68.8431 75.1735
6102 1 10.2869 67.2605 76.7561
6103 1 11.8695 68.8431 78.3387
6104 1 10.2869 70.4257 0.7913
6105 1 11.8695 72.0083 2.3739
6106 1 10.2869 70.4257 3.9565
6107 1 11.8695 72.0083 5.5391
6108 1 10.2869 70.4257 7.1217
6109 1 11.8695 72.0083 8.7043
6110 1 10.2869 70.4257 10.2869
6111 1 11.8695 72.0083 11.8695
6112 1 10.2869 70.4257 13.4521
6113 1 11.8695 72.0083 15.0347
6114 1 10.2869 70.4257 16.6173
6115 1 11.8695 72.0083 18.1999
6116 1 10.2869 70.4257 19.7825
6117 1 11.8695 72.0083 21.3651
6118 1 10.2869 70.4257 22.9477
6119 1 11.8695 72.0083 24.5303
6120 1 10.2869 70.4257 26.1129
6121 1 11.8695 72.0083 27.6955
6122 1 10.2869 70.4257 29.2781
6123 1 11.8695 72.0083 30.8607
6124 1 10.2869 70.4257 32.4433
6125 1 11.8695 72.0083 34.0259
6126 1 10.2869 70.4257 35.6085
6127 1 11.8695 72.0083 37.1911
6128 1 10.2869 70.4257 38.7737
6129 1 11.8695 72.0083 40.3563
6130 1 10.2869 70.4257 41.9389
6131 1 11.8695 72.0083 43.5215
6132 1 10.2869 70.4257 45.1041
6133 1 11.8695 72.0083 46.6867
6134 1 10.2869 70.4257 48.2693
6135 1 11.8695 72.0083 49.8519
6136 1 10.2869 70.4257 51.4345
6137 1 11.8695 72.0083 53.0171
6138 1 10.2869 70.4257 54.5997
6139 1 11.8695 72.0083 56.1823
6140 1 10.2869 70.4257 57.7649
6141 1 11.8695 72.0083 59.3475
6142 1 10.2869 70.4257 60.9301
6143 1 11.8695 72.0083 62.5127
6144 1 10.2869 70.4257 64.0953
6145 1 11.8695 72.0083 65.6779
6146 1 10.2869 70.4257 67.2605
6147 1 11.8695 72.0083 68.8431
6148 1 10.2869 70.4257 70.4257
6149 1 11.8695 72.0083 72.0083
6150 1 10.2869 70.4257 73.5909
6151 1 11.8695 72.0083 75.1735
6152 1 10.2869 70.4257 76.7561
6153 1 11.8695 72.0083 78.3387
6154 1 10.2869 73.5909 0.7913
6155 1 11.8695 75.1735 2.3739
6156 1 10.2869 73.5909 3.9565
6157 1 11.8695 75.1735 5.5391
6158 1 10.2869 73.5909 7.1217
6159 1 11.8695 75.1735 8.7043
6160 1 10.2869 73.5909 10.2869
6161 1 11.8695 75.1735 11.8695
6162 1 10.2869 73.5909 13.4521
6163 1 11.8695 75.1735 15.0347
6164 1 10.2869 73.5909 16.6173
6165 1 11.8695 75.1735 18.1999
6166 1 10.2869 73.5909 19.7825
6167 1 11.8695 75.1735 21.3651
6168 1 10.2869 73.5909 22.9477
6169 1 11.8695 75.1735 24.5303
6170 1 10.2869 73.5909 26.1129
6171 1 11.8695 75.1735 27.6955
6172 1 10.2869 73.5909 29.2781
6173 1 11.8695 75.1735 30.8607
6174 1 10.2869 73.5909 32.4433
6175 1 11.8695 75.1735 34.0259
6176 1 10.2869 73.5909 35.6085
6177 1 11.8695 75.1735 37.1911
6178 1 10.2869 73.5909 38.7737
6179 1 11.8695 75.1735 40.3563
6180 1 10.2869 73.5909 41.9389
6181 1 11.8695 75.1735 43.5215
6182 1 10.2869 73.5909 45.1041
6183 1 11.8695 75.1735 46.6867
6184 1 10.2869 73.5909 48.2693
6185 1 11.8695 75.1735 49.8519
6186 1 10.2869 73.5909 51.4345
6187 1 11.8695 75.1735 53.0171
6188 1 10.2869 73.5909 54.5997
6189 1 11.8695 75.1735 56.1823
6190 1 10.2869 73.5909 57.7649
6191 1 11.8695 75.1735 59.3475
6192 1 10.2869 73.5909 60.9301
6193 1 11.8695 75.1735 62.5127
6194 1 10.2869 73.5909 64.0953
6195 1 11.8695 75.1735 65.6779
6196 1 10.2869 73.5909 67.2605
6197 1 11.8695 75.1735 68.8431
6198 1 10.2869 73.5909 70.4257
6199 1 11.8695 75.1735 72.0083
6200 1 10.2869 73.5909 73.5909
6201 1 11.8695 75.1735 75.1735
6202 1 10.2869 73.5909 76.7561
6203 1 11.8695 75.1735 78.3387
6204 1 10.2869 76.7561 0.7913
6205 1 11.8695 78.3387 2.3739
6206 1 10.2869 76.7561 3.9565
6207 1 11.8695 78.3387 5.5391
6208 1 10.2869 76.7561 7.1217
6209 1 11.8695 78.3387 8.7043
6210 1 10.2869 76.7561 10.2869
6211 1 11.8695 78.3387 11.8695
6212 1 10.2869 76.7561 13.4521
6213 1 11.8695 78.3387 15.0347
6214 1 10.2869 76.7561 16.6173
6215 1 11.8695 78.3387 18.1999
6216 1 10.2869 76.7561 19.7825
6217 1 11.8695 78.3387 21.3651
6218 1 10.2869 76.7561 22.9477
6219 1 11.8695 78.3387 24.5303
6220 1 10.2869 76.7561 26.1129
6221 1 11.8695 78.3387 27.6955
6222 1 10.2869 76.7561 29.2781
6223 1 11.8695 78.3387 30.8607
6224 1 10.2869 76.7561 32.4433
6225 1 11.8695 78.3387 34.0259
6226 1 10.2869 76.7561 35.6085
6227 1 11.8695 78.3387 37.1911
6228 1 10.2869 76.7561 38.7737
6229 1 11.8695 78.3387 40.3563
6230 1 10.2869 76.7561 41.9389
6231 1 11.8695 78.3387 43.5215
6232 1 10.2869 76.7561 45.1041
6233 1 11.8695 78.3387 46.6867
6234 1 10.2869 76.7561 48.2693
6235 1 11.8695 78.3387 49.8519
6236 1 10.2869 76.7561 51.4345
6237 1 11.8695 78.3387 53.0171
6238 1 10.2869 76.7561 54.5997
6239 1 11.8695 78.3387 56.1823
6240 1 10.2869 76.7561 57.7649
6241 1 11.8695 78.3387 59.3475
6242 1 10.2869 76.7561 60.9301
6243 1 11.8695 78.3387 62.5127
6244 1 10.2869 76.7561 64.0953
6245 1 11.8695 78.3387 65.6779
6246 1 10.2869 76.7561 67.2605
6247 1 11.8695 78.3387 68.8431
6248 1 10.2869 76.7561 70.4257
6249 1 11.8695 78.3387 72.0083
6250 1 10.2869 76.7561 73.5909
6251 1 11.8695 78.3387 75.1735
6252 1 10.2869 76.7561 76.7561
6253 1 11.8695 78.3387 78.3387
6254 1 13.4521 0.7913 0.7913
6255 1 15.0347 2.3739 2.3739
6256 1 13.4521 0.7913 3.9565
6257 1 15.0347 2.3739 5.5391
6258 1 13.4521 0.7913 7.1217
6259 1 15.0347 2.3739 8.7043
6260 1 13.4521 0.7913 10.2869
6261 1 15.0347 2.3739 11.8695
6262 1 13.4521 0.7913 13.4521
6263 1 15.0347 2.3739 15.0347
6264 1 13.4521 0.7913 16.6173
6265 1 15.0347 2.3739 18.1999
6266 1 13.4521 0.7913 19.7825
6267 1 15.0347 2.3739 21.3651
6268 1 13.4521 0.7913 22.9477
6269 1 15.0347 2.3739 24.5303
6270 1 13.4521 0.7913 26.1129
6271 1 15.0347 2.3739 27.6955
6272 1 13.4521 0.7913 29.2781
6273 1 15.0347 2.3739 30.8607
6274 1 13.4521 0.7913 32.4433
6275 1 15.0347 2.3739 34.0259
6276 1 13.4521 0.7913 35.6085
6277 1 15.0347 2.3739 37.1911
6278 1 13.4521 0.7913 38.7737
6279 1 15.0347 2.3739 40.3563
6280 1 13.4521 0.7913 41.9389
6281 1 15.0347 2.3739 43.5215
6282 1 13.4521 0.7913 45.1041
6283 1 15.0347 2.3739 46.6867
6284 1 13.4521 0.7913 48.2693
6285 1 15.0347 2.3739 49.8519
6286 1 13.4521 0.7913 51.4345
6287 1 15.0347 2.3739 53.0171
6288 1 13.4521 0.7913 54.5997
6289 1 15.0347 2.3739 56.1823
6290 1 13.4521 0.7913 57.7649
6291 1 15.0347 2.3739 59.3475
6292 1 13.4521 0.7913 60.9301
6293 1 15.0347 2.3739 62.5127
6294 1 13.4521 0.7913 64.0953
6295 1 15.0347 2.3739 65.6779
6296 1 13.4521 0.7913 67.2605
6297 1 15.0347 2.3739 68.8431
6298 1 13.4521 0.7913 70.4257
6299 1 15.0347 2.3739 72.0083
6300 1 13.4521 0.7913 73.5909
6301 1 15.0347 2.3739 75.1735
6302 1 13.4521 0.7913 76.7561
6303 1 15.0347 2.3739 78.3387
6304 1 13.4521 3.9565 0.7913
6305 1 15.0347 5.5391 2.3739
6306 1 13.4521 3.9565 3.9565
6307 1 15.0347 5.5391 5.5391
6308 1 13.4521 3.9565 7.1217
6309 1 15.0347 5.5391 8.7043
6310 1 13.4521 3.9565 10.2869
6311 1 15.0347 5.5391 11.8695
6312 1 13.4521 3.9565 13.4521
6313 1 15.0347 5.5391 15.0347
6314 1 13.4521 3.9565 16.6173
6315 1 15.0347 5.5391 18.1999
6316 1 13.4521 3.9565 19.7825
6317 1 15.0347 5.5391 21.3651
6318 1 13.4521 3.9565 22.9477
6319 1 15.0347 5.5391 24.5303
6320 1 13.4521 3.9565 26.1129
6321 1 15.0347 5.5391 27.6955
6322 1 13.4521 3.9565 29.2781
6323 1 15.0347 5.5391 30.8607
6324 1 13.4521 3.9565 32.4433
6325 1 15.0347 5.5391 34.0259
6326 1 13.4521 3.9565 35.6085
6327 1 15.0347 5.5391 37.1911
6328 1 13.4521 3.9565 38.7737
6329 1 15.0347 5.5391 40.3563
6330 1 13.4521 3.9565 41.9389
6331 1 15.0347 5.5391 43.5215
6332 1 13.4521 3.9565 45.1041
6333 1 15.0347 5.5391 46.6867
6334 1 13.4521 3.9565 48.2693
6335 1 15.0347 5.5391 49.8519
6336 1 13.4521 3.9565 51.4345
6337 1 15.0347 5.5391 53.0171
6338 1 13.4521 3.9565 54.5997
6339 1 15.0347 5.5391 56.1823
6340 1 13.4521 3.9565 57.7649
6341 1 15.0347 5.5391 59.3475
6342 1 13.4521 3.9565 60.9301
6343 1 15.0347 5.5391 62.5127
6344 1 13.4521 3.9565 64.0953
6345 1 15.0347 5.5391 65.6779
6346 1 13.4521 3.9565 67.2605
6347 1 15.0347 5.5391 68.8431
6348 1 13.4521 3.9565 70.4257
6349 1 15.0347 5.5391 72.0083
6350 1 13.4521 3.9565 73.5909
6351 1 15.0347 5.5391 75.1735
6352 1 13.4521 3.9565 76.7561
6353 1 15.0347 5.5391 78.3387
6354 1 13.4521 7.1217 0.7913
6355 1 15.0347 8.7043 2.3739
6356 1 13.4521 7.1217 3.9565
6357 1 15.0347 8.7043 5.5391
6358 1 13.4521 7.1217 7.1217
6359 1 15.0347 8.7043 8.7043
6360 1 13.4521 7.1217 10.2869
6361 1 15.0347 8.7043 11.8695
6362 1 13.4521 7.1217 13.4521
6363 1 15.0347 8.7043 15.0347
6364 1 13.4521 7.1217 16.6173
6365 1 15.0347 8.7043 18.1999
6366 1 13.4521 7.1217 19.7825
6367 1 15.0347 8.7043 21.3651
6368 1 13.4521 7.1217 22.9477
6369 1 15.0347 8.7043 24.5303
6370 1 13.4521 7.1217 26.1129
6371 1 15.0347 8.7043 27.6955
6372 1 13.4521 7.1217 29.2781
6373 1 15.0347 8.7043 30.8607
6374 1 13.4521 7.1217 32.4433
6375 1 15.0347 8.7043 34.0259
6376 1 13.4521 7.1217 35.6085
6377 1 15.0347 8.7043 37.1911
6378 1 13.4521 7.1217 38.7737
6379 1 15.0347 8.7043 40.3563
6380 1 13.4521 7.1217 41.9389
6381 1 15.0347 8.7043 43.5215
6382 1 13.4521 7.1217 45.1041
6383 1 15.0347 8.7043 46.6867
6384 1 13.4521 7.1217 48.2693
6385 1 15.0347 8.7043 49.8519
6386 1 13.4521 7.1217 51.4345
6387 1 15.0347 8.7043 53.0171
6388 1 13.4521 7.1217 54.5997
6389 1 15.0347 8.7043 56.1823
6390 1 13.4521 7.1217 57.7649
6391 1 15.0347 8.7043 59.3475
6392 1 13.4521 7.1217 60.9301
6393 1 15.0347 8.7043 62.5127
6394 1 13.4521 7.1217 64.0953
6395 1 15.0347 8.7043 65.6779
6396 1 13.4521 7.1217 67.2605
6397 1 15.0347 8.7043 68.8431
6398 1 13.4521 7.1217 70.4257
6399 1 15.0347 8.7043 72.0083
6400 1 13.4521 7.1217 73.5909
6401 1 15.0347 8.7043 75.1735
6402 1 13.4521 7.1217 76.7561
6403 1 15.0347 8.7043 78.3387
6404 1 13.4521 10.2869 0.7913
6405 1 15.0347 11.8695 2.3739
6406 1 13.4521 10.2869 3.9565
6407 1 15.0347 11.8695 5.5391
6408 1 13.4521 10.2869 7.1217
6409 1 15.0347 11.8695 8.7043
6410 1 13.4521 10.2869 10.2869
6411 1 15.0347 11.8695 11.8695
6412 1 13.4521 10.2869 13.4521
6413 1 15.0347 11.8695 15.0347
6414 1 13.4521 10.2869 16.6173
6415 1 15.0347 11.8695 18.1999
6416 1 13.4521 10.2869 19.7825
6417 1 15.0347 11.8695 21.3651
6418 1 13.4521 10.2869 22.9477
6419 1 15.0347 11.8695 24.5303
6420 1 13.4521 10.2869 26.1129
6421 1 15.0347 11.8695 27.6955
6422 1 13.4521 10.2869 29.2781
6423 1 15.0347 11.8695 30.8607
6424 1 13.4521 10.2869 32.4433
6425 1 15.0347 11.8695 34.0259
6426 1 13.4521 10.2869 35.6085
6427 1 15.0347 11.8695 37.1911
6428 1 13.4521 10.2869 38.7737
6429 1 15.0347 11.8695 40.3563
6430 1 13.4521 10.2869 41.9389
6431 1 15.0347 11.8695 43.5215
6432 1 13.4521 10.2869 45.1041
6433 1 15.0347 11.8695 46.6867
6434 1 13.4521 10.2869 48.2693
6435 1 15.0347 11.8695 49.8519
6436 1 13.4521 10.2869 51.4345
6437 1 15.0347 11.8695 53.0171
6438 1 13.4521 10.2869 54.5997
6439 1 15.0347 11.8695 56.1823
6440 1 13.4521 10.2869 57.7649
6441 1 15.0347 11.8695 59.3475
6442 1 13.4521 10.2869 60.9301
6443 1 15.0347 11.8695 62.5127
6444 1 13.4521 10.2869 64.0953
6445 1 15.0347 11.8695 65.6779
6446 1 13.4521 10.2869 67.2605
6447 1 15.0347 11.8695 68.8431
6448 1 13.4521 10.2869 70.4257
6449 1 15.0347 11.8695 72.0083
6450 1 13.4521 10.2869 73.5909
6451 1 15.0347 11.8695 75.1735
6452 1 13.4521 10.2869 76.7561
6453 1 15.0347 11.8695 78.3387
6454 1 13.4521 13.4521 0.7913
6455 1 15.0347 15.0347 2.3739
6456 1 13.4521 13.4521 3.9565
6457 1 15.0347 15.0347 5.5391
6458 1 13.4521 13.4521 7.1217
6459 1 15.0347 15.0347 8.7043
6460 1 13.4521 13.4521 10.2869
6461 1 15.0347 15.0347 11.8695
6462 1 13.4521 13.4521 13.4521
6463 1 15.0347 15.0347 15.0347
6464 1 13.4521 13.4521 16.6173
6465 1 15.0347 15.0347 18.1999
6466 1 13.4521 13.4521 19.7825
6467 1 15.0347 15.0347 21.3651
6468 1 13.4521 13.4521 22.9477
6469 1 15.0347 15.0347 24.5303
6470 1 13.4521 13.4521 26.1129
6471 1 15.0347 15.0347 27.6955
6472 1 13.4521 13.4521 29.2781
6473 1 15.0347 15.0347 30.8607
6474 1 13.4521 13.4521 32.4433
6475 1 15.0347 15.0347 34.0259
6476 1 13.4521 13.4521 35.6085
6477 1 15.0347 15.0347 37.1911
6478 1 13.4521 13.4521 38.7737
6479 1 15.0347 15.0347 40.3563
6480 1 13.4521 13.4521 41.9389
6481 1 15.0347 15.0347 43.5215
6482 1 13.4521 13.4521 45.1041
6483 1 15.0347 15.0347 46.6867
6484 1 13.4521 13.4521 48.2693
6485 1 15.0347 15.0347 49.8519
6486 1 13.4521 13.4521 51.4345
6487 1 15.0347 15.0347 53.0171
6488 1 13.4521 13.4521 54.5997
6489 1 15.0347 15.0347 56.1823
6490 1 13.4521 13.4521 57.7649
6491 1 15.0347 15.0347 59.3475
6492 1 13.4521 13.4521 60.9301
6493 1 15.0347 15.0347 62.5127
6494 1 13.4521 13.4521 64.0953
6495 1 15.0347 15.0347 65.6779
6496 1 13.4521 13.4521 67.2605
6497 1 15.0347 15.0347 68.8431
6498 1 13.4521 13.4521 70.4257
6499 1 15.0347 15.0347 72.0083
6500 1 13.4521 13.4521 73.5909
6501 1 15.0347 15.0347 75.1735
6502 1 13.4521 13.4521 76.7561
6503 1 15.0347 15.0347 78.3387
6504 1 13.4521 16.6173 0.7913
6505 1 15.0347 18.1999 2.3739
6506 1 13.4521 16.6173 3.9565
6507 1 15.0347 18.1999 5.5391
6508 1 13.4521 16.6173 7.1217
6509 1 15.0347 18.1999 8.7043
6510 1 13.4521 16.6173 10.2869
6511 1 15.0347 18.1999 11.8695
6512 1 13.4521 16.6173 13.4521
6513 1 15.0347 18.1999 15.0347
6514 1 13.4521 16.6173 16.6173
6515 1 15.0347 18.1999 18.1999
6516 1 13.4521 16.6173 19.7825
6517 1 15.0347 18.1999 21.3651
6518 1 13.4521 16.6173 22.9477
6519 1 15.0347 18.1999 24.5303
6520 1 13.4521 16.6173 26.1129
6521 1 15.0347 18.1999 27.6955
6522 1 13.4521 16.6173 29.2781
6523 1 15.0347 18.1999 30.8607
6524 1 13.4521 16.6173 32.4433
6525 1 15.0347 18.1999 34.0259
6526 1 13.4521 16.6173 35.6085
6527 1 15.0347 18.1999 37.1911
6528 1 13.4521 16.6173 38.7737
6529 1 15.0347 18.1999 40.3563
6530 1 13.4521 16.6173 41.9389
6531 1 15.0347 18.1999 43.5215
6532 1 13.4521 16.6173 45.1041
6533 1 15.0347 18.1999 46.6867
6534 1 13.4521 16.6173 48.2693
6535 1 15.0347 18.1999 49.8519
6536 1 13.4521 16.6173 51.4345
6537 1 15.0347 18.1999 53.0171
6538 1 13.4521 16.6173 54.5997
6539 1 15.0347 18.1999 56.1823
6540 1 13.4521 16.6173 57.7649
6541 1 15.0347 18.1999 59.3475
6542 1 13.4521 16.6173 60.9301
6543 1 15.0347 18.1999 62.5127
6544 1 13.4521 16.6173 64.0953
6545 1 15.0347 18.1999 65.6779
6546 1 13.4521 16.6173 67.2605
6547 1 15.0347 18.1999 68.8431
6548 1 13.4521 16.6173 70.4257
6549 1 15.0347 18.1999 72.0083
6550 1 13.4521 16.6173 73.5909
6551 1 15.0347 18.1999 75.1735
6552 1 13.4521 16.6173 76.7561
6553 1 15.0347 18.1999 78.3387
6554 1 13.4521 19.7825 0.7913
6555 1 15.0347 21.3651 2.3739
6556 1 13.4521 19.7825 3.9565
6557 1 15.0347 21.3651 5.5391
6558 1 13.4521 19.7825 7.1217
6559 1 15.0347 21.3651 8.7043
6560 1 13.4521 19.7825 10.2869
6561 1 15.0347 21.3651 11.8695
6562 1 13.4521 19.7825 13.4521
6563 1 15.0347 21.3651 15.0347
6564 1 13.4521 19.7825 16.6173
6565 1 15.0347 21.3651 18.1999
6566 1 13.4521 19.7825 19.7825
6567 1 15.0347 21.3651 21.3651
6568 1 13.4521 19.7825 22.9477
6569 1 15.0347 21.3651 24.5303
6570 1 13.4521 19.7825 26.1129
6571 1 15.0347 21.3651 27.6955
6572 1 13.4521 19.7825 29.2781
6573 1 15.0347 21.3651 30.8607
6574 1 13.4521 19.7825 32.4433
6575 1 15.0347 21.3651 34.0259
6576 1 13.4521 19.7825 35.6085
6577 1 15.0347 21.3651 37.1911
6578 1 13.4521 19.7825 38.7737
6579 1 15.0347 21.3651 40.3563
6580 1 13.4521 19.7825 41.9389
6581 1 15.0347 21.3651 43.5215
6582 1 13.4521 19.7825 45.1041
6583 1 15.0347 21.3651 46.6867
6584 1 13.4521 19.7825 48.2693
6585 1 15.0347 21.3651 49.8519
6586 1 13.4521 19.7825 51.4345
6587 1 15.0347 21.3651 53.0171
6588 1 13.4521 19.7825 54.5997
6589 1 15.0347 21.3651 56.1823
6590 1 13.4521 19.7825 57.7649
6591 1 15.0347 21.3651 59.3475
6592 1 13.4521 19.7825 60.9301
6593 1 15.0347 21.3651 62.5127
6594 1 13.4521 19.7825 64.0953
6595 1 15.0347 21.3651 65.6779
6596 1 13.4521 19.7825 67.2605
6597 1 15.0347 21.3651 68.8431
6598 1 13.4521 19.7825 70.4257
6599 1 15.0347 21.3651 72.0083
6600 1 13.4521 19.7825 73.5909
6601 1 15.0347 21.3651 75.1735
6602 1 13.4521 19.7825 76.7561
6603 1 15.0347 21.3651 78.3387
6604 1 13.4521 22.9477 0.7913
6605 1 15.0347 24.5303 2.3739
6606 1 13.4521 22.9477 3.9565
6607 1 15.0347 24.5303 5.5391
6608 1 13.4521 22.9477 7.1217
6609 1 15.0347 24.5303 8.7043
6610 1 13.4521 22.9477 10.2869
6611 1 15.0347 24.5303 11.8695
6612 1 13.4521 22.9477 13.4521
6613 1 15.0347 24.5303 15.0347
6614 1 13.4521 22.9477 16.6173
6615 1 15.0347 24.5303 18.1999
6616 1 13.4521 22.9477 19.7825
6617 1 15.0347 24.5303 21.3651
6618 1 13.4521 22.9477 22.9477
6619 1 15.0347 24.5303 24.5303
6620 1 13.4521 22.9477 26.1129
6621 1 15.0347 24.5303 27.6955
6622 1 13.4521 22.9477 29.2781
6623 1 15.0347 24.5303 30.8607
6624 1 13.4521 22.9477 32.4433
6625 1 15.0347 24.5303 34.0259
6626 1 13.4521 22.9477 35.6085
6627 1 15.0347 24.5303 37.1911
6628 1 13.4521 22.9477 38.7737
6629 1 15.0347 24.5303 40.3563
6630 1 13.4521 22.9477 41.9389
6631 1 15.0347 24.5303 43.5215
6632 1 13.4521 22.9477 45.1041
6633 1 15.0347 24.5303 46.6867
6634 1 13.4521 22.9477 48.2693
6635 1 15.0347 24.5303 49.8519
6636 1 13.4521 22.9477 51.4345
6637 1 15.0347 24.5303 53.0171
6638 1 13.4521 22.9477 54.5997
6639 1 15.0347 24.5303 56.1823
6640 1 13.4521 22.9477 57.7649
6641 1 15.0347 24.5303 59.3475
6642 1 13.4521 22.9477 60.9301
6643 1 15.0347 24.5303 62.5127
6644 1 13.4521 22.9477 64.0953
6645 1 15.0347 24.5303 65.6779
6646 1 13.4521 22.9477 67.2605
6647 1 15.0347 24.5303 68.8431
6648 1 13.4521 22.9477 70.4257
6649 1 15.0347 24.5303 72.0083
6650 1 13.4521 22.9477 73.5909
6651 1 15.0347 24.5303 75.1735
6652 1 13.4521 22.9477 76.7561
6653 1 15.0347 24.5303 78.3387
6654 1 13.4521 26.1129 0.7913
6655 1 15.0347 27.6955 2.3739
6656 1 13.4521 26.1129 3.9565
6657 1 15.0347 27.6955 5.5391
6658 1 13.4521 26.1129 7.1217
6659 1 15.0347 27.6955 8.7043
6660 1 13.4521 26.1129 10.2869
6661 1 15.0347 27.6955 11.8695
6662 1 13.4521 26.1129 13.4521
6663 1 15.0347 27.6955 15.0347
6664 1 13.4521 26.1129 16.6173
6665 1 15.0347 27.6955 18.1999
6666 1 13.4521 26.1129 19.7825
6667 1 15.0347 27.6955 21.3651
6668 1 13.4521 26.1129 22.9477
6669 1 15.0347 27.6955 24.5303
6670 1 13.4521 26.1129 26.1129
6671 1 15.0347 27.6955 27.6955
6672 1 13.4521 26.1129 29.2781
6673 1 15.0347 27.6955 30.8607
6674 1 13.4521 26.1129 32.4433
6675 1 15.0347 27.6955 34.0259
6676 1 13.4521 26.1129 35.6085
6677 1 15.0347 27.6955 37.1911
6678 1 13.4521 26.1129 38.7737
6679 1 15.0347 27.6955 40.3563
6680 1 13.4521 26.1129 41.9389
6681 1 15.0347 27.6955 43.5215
6682 1 13.4521 26.1129 45.1041
6683 1 15.0347 27.6955 46.6867
6684 1 13.4521 26.1129 48.2693
6685 1 15.0347 27.6955 49.8519
6686 1 13.4521 26.1129 51.4345
6687 1 15.0347 27.6955 53.0171
6688 1 13.4521 26.1129 54.5997
6689 1 15.0347 27.6955 56.1823
6690 1 13.4521 26.1129 57.7649
6691 1 15.0347 27.6955 59.3475
6692 1 13.4521 26.1129 60.9301
6693 1 15.0347 27.6955 62.5127
6694 1 13.4521 26.1129 64.0953
6695 1 15.0347 27.6955 65.6779
6696 1 13.4521 26.1129 67.2605
6697 1 15.0347 27.6955 68.8431
6698 1 13.4521 26.1129 70.4257
6699 1 15.0347 27.6955 72.0083
6700 1 13.4521 26.1129 73.5909
6701 1 15.0347 27.6955 75.1735
6702 1 13.4521 26.1129 76.7561
6703 1 15.0347 27.6955 78.3387
6704 1 13.4521 29.2781 0.7913
6705 1 15.0347 30.8607 2.3739
6706 1 13.4521 29.2781 3.9565
6707 1 15.0347 30.8607 5.5391
6708 1 13.4521 29.2781 7.1217
6709 1 15.0347 30.8607 8.7043
6710 1 13.4521 29.2781 10.2869
6711 1 15.0347 30.8607 11.8695
6712 1 13.4521 29.2781 13.4521
6713 1 15.0347 30.8607 15.0347
6714 1 13.4521 29.2781 16.6173
6715 1 15.0347 30.8607 18.1999
6716 1 13.4521 29.2781 19.7825
6717 1 15.0347 30.8607 21.3651
6718 1 13.4521 29.2781 22.9477
6719 1 15.0347 30.8607 24.5303
6720 1 13.4521 29.2781 26.1129
6721 1 15.0347 30.8607 27.6955
6722 1 13.4521 29.2781 29.2781
6723 1 15.0347 30.8607 30.8607
6724 1 13.4521 29.2781 32.4433
6725 1 15.0347 30.8607 34.0259
6726 1 13.4521 29.2781 35.6085
6727 1 15.0347 30.8607 37.1911
6728 1 13.4521 29.2781 38.7737
6729 1 15.0347 30.8607 40.3563
6730 1 13.4521 29.2781 41.9389
6731 1 15.0347 30.8607 43.5215
6732 1 13.4521 29.2781 45.1041
6733 1 15.0347 30.8607 46.6867
6734 1 13.4521 29.2781 48.2693
6735 1 15.0347 30.8607 49.8519
6736 1 13.4521 29.2781 51.4345
6737 1 15.0347 30.8607 53.0171
6738 1 13.4521 29.2781 54.5997
6739 1 15.0347 30.8607 56.1823
6740 1 13.4521 29.2781 57.7649
6741 1 15.0347 30.8607 59.3475
6742 1 13.4521 29.2781 60.9301
6743 1 15.0347 30.8607 62.5127
6744 1 13.4521 29.2781 64.0953
6745 1 15.0347 30.8607 65.6779
6746 1 13.4521 29.2781 67.2605
6747 1 15.0347 30.8607 68.8431
6748 1 13.4521 29.2781 70.4257
6749 1 15.0347 30.8607 72.0083
6750 1 13.4521 29.2781 73.5909
6751 1 15.0347 30.8607 75.1735
6752 1 13.4521 29.2781 76.7561
6753 1 15.0347 30.8607 78.3387
6754 1 13.4521 32.4433 0.7913
6755 1 15.0347 34.0259 2.3739
6756 1 13.4521 32.4433 3.9565
6757 1 15.0347 34.0259 5.5391
6758 1 13.4521 32.4433 7.1217
6759 1 15.0347 34.0259 8.7043
6760 1 13.4521 32.4433 10.2869
6761 1 15.0347 34.0259 11.8695
6762 1 13.4521 32.4433 13.4521
6763 1 15.0347 34.0259 15.0347
6764 1 13.4521 32.4433 16.6173
6765 1 15.0347 34.0259 18.1999
6766 1 13.4521 32.4433 19.7825
6767 1 15.0347 34.0259 21.3651
6768 1 13.4521 32.4433 22.9477
6769 1 15.0347 34.0259 24.5303
6770 1 13.4521 32.4433 26.1129
6771 1 15.0347 34.0259 27.6955
6772 1 13.4521 32.4433 29.2781
6773 1 15.0347 34.0259 30.8607
6774 1 13.4521 32.4433 32.4433
6775 1 15.0347 34.0259 34.0259
6776 1 13.4521 32.4433 35.6085
6777 1 15.0347 34.0259 37.1911
6778 1 13.4521 32.4433 38.7737
6779 1 15.0347 34.0259 40.3563
6780 1 13.4521 32.4433 41.9389
6781 1 15.0347 34.0259 43.5215
6782 1 13.4521 32.4433 45.1041
6783 1 15.0347 34.0259 46.6867
6784 1 13.4521 32.4433 48.2693
6785 1 15.0347 34.0259 49.8519
6786 1 13.4521 32.4433 51.4345
6787 1 15.0347 34.0259 53.0171
6788 1 13.4521 32.4433 54.5997
6789 1 15.0347 34.0259 56.1823
6790 1 13.4521 32.4433 57.7649
6791 1 15.0347 34.0259 59.3475
6792 1 13.4521 32.4433 60.9301
6793 1 15.0347 34.0259 62.5127
6794 1 13.4521 32.4433 64.0953
6795 1 15.0347 34.0259 65.6779
6796 1 13.4521 32.4433 67.2605
6797 1 15.0347 34.0259 68.8431
6798 1 13.4521 32.4433 70.4257
6799 1 15.0347 34.0259 72.0083
6800 1 13.4521 32.4433 73.5909
6801 1 15.0347 34.0259 75.1735
6802 1 13.4521 32.4433 76.7561
6803 1 15.0347 34.0259 78.3387
6804 1 13.4521 35.6085 0.7913
6805 1 15.0347 37.1911 2.3739
6806 1 13.4521 35.6085 3.9565
6807 1 15.0347 37.1911 5.5391
6808 1 13.4521 35.6085 7.1217
6809 1 15.0347 37.1911 8.7043
6810 1 13.4521 35.6085 10.2869
6811 1 15.0347 37.1911 11.8695
6812 1 13.4521 35.6085 13.4521
6813 1 15.0347 37.1911 15.0347
6814 1 13.4521 35.6085 16.6173
6815 1 15.0347 37.1911 18.1999
6816 1 13.4521 35.6085 19.7825
6817 1 15.0347 37.1911 21.3651
6818 1 13.4521 35.6085 22.9477
6819 1 15.0347 37.1911 24.5303
6820 1 13.4521 35.6085 26.1129
6821 1 15.0347 37.1911 27.6955
6822 1 13.4521 35.6085 29.2781
6823 1 15.0347 37.1911 30.8607
6824 1 13.4521 35.6085 32.4433
6825 1 15.0347 37.1911 34.0259
6826 1 13.4521 35.6085 35.6085
6827 1 15.0347 37.1911 37.1911
6828 1 13.4521 35.6085 38.7737
6829 1 15.0347 37.1911 40.3563
6830 1 13.4521 35.6085 41.9389
6831 1 15.0347 37.1911 43.5215
6832 1 13.4521 35.6085 45.1041
6833 1 15.0347 37.1911 46.6867
6834 1 13.4521 35.6085 48.2693
6835 1 15.0347 37.1911 49.8519
6836 1 13.4521 35.6085 51.4345
6837 1 15.0347 37.1911 53.0171
6838 1 13.4521 35.6085 54.5997
6839 1 15.0347 37.1911 56.1823
6840 1 13.4521 35.6085 57.7649
6841 1 15.0347 37.1911 59.3475
6842 1 13.4521 35.6085 60.9301
6843 1 15.0347 37.1911 62.5127
6844 1 13.4521 35.6085 64.0953
6845 1 15.0347 37.1911 65.6779
6846 1 13.4521 35.6085 67.2605
6847 1 15.0347 37.1911 68.8431
6848 1 13.4521 35.6085 70.4257
6849 1 15.0347 37.1911 72.0083
6850 1 13.4521 35.6085 73.5909
6851 1 15.0347 37.1911 75.1735
6852 1 13.4521 35.6085 76.7561
6853 1 15.0347 37.1911 78.3387
6854 1 13.4521 38.7737 0.7913
6855 1 15.0347 40.3563 2.3739
6856 1 13.4521 38.7737 3.9565
6857 1 15.0347 40.3563 5.5391
6858 1 13.4521 38.7737 7.1217
6859 1 15.0347 40.3563 8.7043
6860 1 13.4521 38.7737 10.2869
6861 1 15.0347 40.3563 11.8695
6862 1 13.4521 38.7737 13.4521
6863 1 15.0347 40.3563 15.0347
6864 1 13.4521 38.7737 16.6173
6865 1 15.0347 40.3563 18.1999
6866 1 13.4521 38.7737 19.7825
6867 1 15.0347 40.3563 21.3651
6868 1 13.4521 38.7737 22.9477
6869 1 15.0347 40.3563 24.5303
6870 1 13.4521 38.7737 26.1129
6871 1 15.0347 40.3563 27.6955
6872 1 13.4521 38.7737 29.2781
6873 1 15.0347 40.3563 30.8607
6874 1 13.4521 38.7737 32.4433
6875 1 15.0347 40.3563 34.0259
6876 1 13.4521 38.7737 35.6085
6877 1 15.0347 40.3563 37.1911
6878 1 13.4521 38.7737 38.7737
6879 1 15.0347 40.3563 40.3563
6880 1 13.4521 38.7737 41.9389
6881 1 15.0347 40.3563 43.5215
6882 1 13.4521 38.7737 45.1041
6883 1 15.0347 40.3563 46.6867
6884 1 13.4521 38.7737 48.2693
6885 1 15.0347 40.3563 49.8519
6886 1 13.4521 38.7737 51.4345
6887 1 15.0347 40.3563 53.0171
6888 1 13.4521 38.7737 54.5997
6889 1 15.0347 40.3563 56.1823
6890 1 13.4521 38.7737 57.7649
6891 1 15.0347 40.3563 59.3475
6892 1 13.4521 38.7737 60.9301
6893 1 15.0347 40.3563 62.5127
6894 1 13.4521 38.7737 64.0953
6895 1 15.0347 40.3563 65.6779
6896 1 13.4521 38.7737 67.2605
6897 1 15.0347 40.3563 68.8431
6898 1 13.4521 38.7737 70.4257
6899 1 15.0347 40.3563 72.0083
6900 1 13.4521 38.7737 73.5909
6901 1 15.0347 40.3563 75.1735
6902 1 13.4521 38.7737 76.7561
6903 1 15.0347 40.3563 78.3387
6904 1 13.4521 41.9389 0.7913
6905 1 15.0347 43.5215 2.3739
6906 1 13.4521 41.9389 3.9565
6907 1 15.0347 43.5215 5.5391
6908 1 13.4521 41.9389 7.1217
6909 1 15.0347 43.5215 8.7043
6910 1 13.4521 41.9389 10.2869
6911 1 15.0347 43.5215 11.8695
6912 1 13.4521 41.9389 13.4521
6913 1 15.0347 43.5215 15.0347
6914 1 13.4521 41.9389 16.6173
6915 1 15.0347 43.5215 18.1999
6916 1 13.4521 41.9389 19.7825
6917 1 15.0347 43.5215 21.3651
6918 1 13.4521 41.9389 22.9477
6919 1 15.0347 43.5215 24.5303
6920 1 13.4521 41.9389 26.1129
6921 1 15.0347 43.5215 27.6955
6922 1 13.4521 41.9389 29.2781
6923 1 15.0347 43.5215 30.8607
6924 1 13.4521 41.9389 32.4433
6925 1 15.0347 43.5215 34.0259
6926 1 13.4521 41.9389 35.6085
6927 1 15.0347 43.5215 37.1911
6928 1 13.4521 41.9389 38.7737
6929 1 15.0347 43.5215 40.3563
6930 1 13.4521 41.9389 41.9389
6931 1 15.0347 43.5215 43.5215
6932 1 13.4521 41.9389 45.1041
6933 1 15.0347 43.5215 46.6867
6934 1 13.4521 41.9389 48.2693
6935 1 15.0347 43.5215 49.8519
6936 1 13.4521 41.9389 51.4345
6937 1 15.0347 43.5215 53.0171
6938 1 13.4521 41.9389 54.5997
6939 1 15.0347 43.5215 56.1823
6940 1 13.4521 41.9389 57.7649
6941 1 15.0347 43.5215 59.3475
6942 1 13.4521 41.9389 60.9301
6943 1 15.0347 43.5215 62.5127
6944 1 13.4521 41.9389 64.0953
6945 1 15.0347 43.5215 65.6779
6946 1 13.4521 41.9389 67.2605
6947 1 15.0347 43.5215 68.8431
6948 1 13.4521 41.9389 70.4257
6949 1 15.0347 43.5215 72.0083
6950 1 13.4521 41.9389 73.5909
6951 1 15.0347 43.5215 75.1735
6952 1 13.4521 41.9389 76.7561
6953 1 15.0347 43.5215 78.3387
6954 1 13.4521 45.1041 0.7913
6955 1 15.0347 46.6867 2.3739
6956 1 13.4521 45.1041 3.9565
6957 1 15.0347 46.6867 5.5391
6958 1 13.4521 45.1041 7.1217
6959 1 15.0347 46.6867 8.7043
6960 1 13.4521 45.1041 10.2869
6961 1 15.0347 46.6867 11.8695
6962 1 13.4521 45.1041 13.4521
6963 1 15.0347 46.6867 15.0347
6964 1 13.4521 45.1041 16.6173
6965 1 15.0347 46.6867 18.1999
6966 1 13.4521 45.1041 19.7825
6967 1 15.0347 46.6867 21.3651
6968 1 13.4521 45.1041 22.9477
6969 1 15.0347 46.6867 24.5303
6970 1 13.4521 45.1041 26.1129
6971 1 15.0347 46.6867 27.6955
6972 1 13.4521 45.1041 29.2781
6973 1 15.0347 46.6867 30.8607
6974 1 13.4521 45.1041 32.4433
6975 1 15.0347 46.6867 34.0259
6976 1 13.4521 45.1041 35.6085
6977 1 15.0347 46.6867 37.1911
6978 1 13.4521 45.1041 38.7737
6979 1 15.0347 46.6867 40.3563
6980 1 13.4521 45.1041 41.9389
6981 1 15.0347 46.6867 43.5215
6982 1 13.4521 45.1041 45.1041
6983 1 15.0347 46.6867 46.6867
6984 1 13.4521 45.1041 48.2693
6985 1 15.0347 46.6867 49.8519
6986 1 13.4521 45.1041 51.4345
6987 1 15.0347 46.6867 53.0171
6988 1 13.4521 45.1041 54.5997
6989 1 15.0347 46.6867 56.1823
6990 1 13.4521 45.1041 57.7649
6991 1 15.0347 46.6867 59.3475
6992 1 13.4521 45.1041 60.9301
6993 1 15.0347 46.6867 62.5127
6994 1 13.4521 45.1041 64.0953
6995 1 15.0347 46.6867 65.6779
6996 1 13.4521 45.1041 67.2605
6997 1 15.0347 46.6867 68.8431
6998 1 13.4521 45.1041 70.4257
6999 1 15.0347 46.6867 72.0083
7000 1 13.4521 45.1041 73.5909
7001 1 15.0347 46.6867 75.1735
7002 1 13.4521 45.1041 76.7561
7003 1 15.0347 46.6867 78.3387
7004 1 13.4521 48.2693 0.7913
7005 1 15.0347 49.8519 2.3739
7006 1 13.4521 48.2693 3.9565
7007 1 15.0347 49.8519 5.5391
7008 1 13.4521 48.2693 7.1217
7009 1 15.0347 49.8519 8.7043
7010 1 13.4521 48.2693 10.2869
7011 1 15.0347 49.8519 11.8695
7012 1 13.4521 48.2693 13.4521
7013 1 15.0347 49.8519 15.0347
7014 1 13.4521 48.2693 16.6173
7015 1 15.0347 49.8519 18.1999
7016 1 13.4521 48.2693 19.7825
7017 1 15.0347 49.8519 21.3651
7018 1 13.4521 48.2693 22.9477
7019 1 15.0347 49.8519 24.5303
7020 1 13.4521 48.2693 26.1129
7021 1 15.0347 49.8519 27.6955
7022 1 13.4521 48.2693 29.2781
7023 1 15.0347 49.8519 30.8607
7024 1 13.4521 48.2693 32.4433
7025 1 15.0347 49.8519 34.0259
7026 1 13.4521 48.2693 35.6085
7027 1 15.0347 49.8519 37.1911
7028 1 13.4521 48.2693 38.7737
7029 1 15.0347 49.8519 40.3563
7030 1 13.4521 48.2693 41.9389
7031 1 15.0347 49.8519 43.5215
7032 1 13.4521 48.2693 45.1041
7033 1 15.0347 49.8519 46.6867
7034 1 13.4521 48.2693 48.2693
7035 1 15.0347 49.8519 49.8519
7036 1 13.4521 48.2693 51.4345
7037 1 15.0347 49.8519 53.0171
7038 1 13.4521 48.2693 54.5997
7039 1 15.0347 49.8519 56.1823
7040 1 13.4521 48.2693 57.7649
7041 1 15.0347 49.8519 59.3475
7042 1 13.4521 48.2693 60.9301
7043 1 15.0347 49.8519 62.5127
7044 1 13.4521 48.2693 64.0953
7045 1 15.0347 49.8519 65.6779
7046 1 13.4521 48.2693 67.2605
7047 1 15.0347 49.8519 68.8431
7048 1 13.4521 48.2693 70.4257
7049 1 15.0347 49.8519 72.0083
7050 1 13.4521 48.2693 73.5909
7051 1 15.0347 49.8519 75.1735
7052 1 13.4521 48.2693 76.7561
7053 1 15.0347 49.8519 78.3387
7054 1 13.4521 51.4345 0.7913
7055 1 15.0347 53.0171 2.3739
7056 1 13.4521 51.4345 3.9565
7057 1 15.0347 53.0171 5.5391
7058 1 13.4521 51.4345 7.1217
7059 1 15.0347 53.0171 8.7043
7060 1 13.4521 51.4345 10.2869
7061 1 15.0347 53.0171 11.8695
7062 1 13.4521 51.4345 13.4521
7063 1 15.0347 53.0171 15.0347
7064 1 13.4521 51.4345 16.6173
7065 1 15.0347 53.0171 18.1999
7066 1 13.4521 51.4345 19.7825
7067 1 15.0347 53.0171 21.3651
7068 1 13.4521 51.4345 22.9477
7069 1 15.0347 53.0171 24.5303
7070 1 13.4521 51.4345 26.1129
7071 1 15.0347 53.0171 27.6955
7072 1 13.4521 51.4345 29.2781
7073 1 15.0347 53.0171 30.8607
7074 1 13.4521 51.4345 32.4433
7075 1 15.0347 53.0171 34.0259
7076 1 13.4521 51.4345 35.6085
7077 1 15.0347 53.0171 37.1911
7078 1 13.4521 51.4345 38.7737
7079 1 15.0347 53.0171 40.3563
7080 1 13.4521 51.4345 41.9389
7081 1 15.0347 53.0171 43.5215
7082 1 13.4521 51.4345 45.1041
7083 1 15.0347 53.0171 46.6867
7084 1 13.4521 51.4345 48.2693
7085 1 15.0347 53.0171 49.8519
7086 1 13.4521 51.4345 51.4345
7087 1 15.0347 53.0171 53.0171
7088 1 13.4521 51.4345 54.5997
7089 1 15.0347 53.0171 56.1823
7090 1 13.4521 51.4345 57.7649
7091 1 15.0347 53.0171 59.3475
7092 1 13.4521 51.4345 60.9301
7093 1 15.0347 53.0171 62.5127
7094 1 13.4521 51.4345 64.0953
7095 1 15.0347 53.0171 65.6779
7096 1 13.4521 51.4345 67.2605
7097 1 15.0347 53.0171 68.8431
7098 1 13.4521 51.4345 70.4257
7099 1 15.0347 53.0171 72.0083
7100 1 13.4521 51.4345 73.5909
7101 1 15.0347 53.0171 75.1735
7102 1 13.4521 51.4345 76.7561
7103 1 15.0347 53.0171 78.3387
7104 1 13.4521 54.5997 0.7913
7105 1 15.0347 56.1823 2.3739
7106 1 13.4521 54.5997 3.9565
7107 1 15.0347 56.1823 5.5391
7108 1 13.4521 54.5997 7.1217
7109 1 15.0347 56.1823 8.7043
7110 1 13.4521 54.5997 10.2869
7111 1 15.0347 56.1823 11.8695
7112 1 13.4521 54.5997 13.4521
7113 1 15.0347 56.1823 15.0347
7114 1 13.4521 54.5997 16.6173
7115 1 15.0347 56.1823 18.1999
7116 1 13.4521 54.5997 19.7825
7117 1 15.0347 56.1823 21.3651
7118 1 13.4521 54.5997 22.9477
7119 1 15.0347 56.1823 24.5303
7120 1 13.4521 54.5997 26.1129
7121 1 15.0347 56.1823 27.6955
7122 1 13.4521 54.5997 29.2781
7123 1 15.0347 56.1823 30.8607
7124 1 13.4521 54.5997 32.4433
7125 1 15.0347 56.1823 34.0259
7126 1 13.4521 54.5997 35.6085
7127 1 15.0347 56.1823 37.1911
7128 1 13.4521 54.5997 38.7737
7129 1 15.0347 56.1823 40.3563
7130 1 13.4521 54.5997 41.9389
7131 1 15.0347 56.1823 43.5215
7132 1 13.4521 54.5997 45.1041
7133 1 15.0347 56.1823 46.6867
7134 1 13.4521 54.5997 48.2693
7135 1 15.0347 56.1823 49.8519
7136 1 13.4521 54.5997 51.4345
7137 1 15.0347 56.1823 53.0171
7138 1 13.4521 54.5997 54.5997
7139 1 15.0347 56.1823 56.1823
7140 1 13.4521 54.5997 57.7649
7141 1 15.0347 56.1823 59.3475
7142 1 13.4521 54.5997 60.9301
7143 1 15.0347 56.1823 62.5127
7144 1 13.4521 54.5997 64.0953
7145 1 15.0347 56.1823 65.6779
7146 1 13.4521 54.5997 67.2605
7147 1 15.0347 56.1823 68.8431
7148 1 13.4521 54.5997 70.4257
7149 1 15.0347 56.1823 72.0083
7150 1 13.4521 54.5997 73.5909
7151 1 15.0347 56.1823 75.1735
7152 1 13.4521 54.5997 76.7561
7153 1 15.0347 56.1823 78.3387
7154 1 13.4521 57.7649 0.7913
7155 1 15.0347 59.3475 2.3739
7156 1 13.4521 57.7649 3.9565
7157 1 15.0347 59.3475 5.5391
7158 1 13.4521 57.7649 7.1217
7159 1 15.0347 59.3475 8.7043
7160 1 13.4521 57.7649 10.2869
7161 1 15.0347 59.3475 11.8695
7162 1 13.4521 57.7649 13.4521
7163 1 15.0347 59.3475 15.0347
7164 1 13.4521 57.7649 16.6173
7165 1 15.0347 59.3475 18.1999
7166 1 13.4521 57.7649 19.7825
7167 1 15.0347 59.3475 21.3651
7168 1 13.4521 57.7649 22.9477
7169 1 15.0347 59.3475 24.5303
7170 1 13.4521 57.7649 26.1129
7171 1 15.0347 59.3475 27.6955
7172 1 13.4521 57.7649 29.2781
7173 1 15.0347 59.3475 30.8607
7174 1 13.4521 57.7649 32.4433
7175 1 15.0347 59.3475 34.0259
7176 1 13.4521 57.7649 35.6085
7177 1 15.0347 59.3475 37.1911
7178 1 13.4521 57.7649 38.7737
7179 1 15.0347 59.3475 40.3563
7180 1 13.4521 57.7649 41.9389
7181 1 15.0347 59.3475 43.5215
7182 1 13.4521 57.7649 45.1041
7183 1 15.0347 59.3475 46.6867
7184 1 13.4521 57.7649 48.2693
7185 1 15.0347 59.3475 49.8519
7186 1 13.4521 57.7649 51.4345
7187 1 15.0347 59.3475 53.0171
7188 1 13.4521 57.7649 54.5997
7189 1 15.0347 59.3475 56.1823
7190 1 13.4521 57.7649 57.7649
7191 1 15.0347 59.3475 59.3475
7192 1 13.4521 57.7649 60.9301
7193 1 15.0347 59.3475 62.5127
7194 1 13.4521 57.7649 64.0953
7195 1 15.0347 59.3475 65.6779
7196 1 13.4521 57.7649 67.2605
7197 1 15.0347 59.3475 68.8431
7198 1 13.4521 57.7649 70.4257
7199 1 15.0347 59.3475 72.0083
7200 1 13.4521 57.7649 73.5909
7201 1 15.0347 59.3475 75.1735
7202 1 13.4521 57.7649 76.7561
7203 1 15.0347 59.3475 78.3387
7204 1 13.4521 60.9301 0.7913
7205 1 15.0347 62.5127 2.3739
7206 1 13.4521 60.9301 3.9565
7207 1 15.0347 62.5127 5.5391
7208 1 13.4521 60.9301 7.1217
7209 1 15.0347 62.5127 8.7043
7210 1 13.4521 60.9301 10.2869
7211 1 15.0347 62.5127 11.8695
7212 1 13.4521 60.9301 13.4521
7213 1 15.0347 62.5127 15.0347
7214 1 13.4521 60.9301 16.6173
7215 1 15.0347 62.5127 18.1999
7216 1 13.4521 60.9301 19.7825
7217 1 15.0347 62.5127 21.3651
7218 1 13.4521 60.9301 22.9477
7219 1 15.0347 62.5127 24.5303
7220 1 13.4521 60.9301 26.1129
7221 1 15.0347 62.5127 27.6955
7222 1 13.4521 60.9301 29.2781
7223 1 15.0347 62.5127 30.8607
7224 1 13.4521 60.9301 32.4433
7225 1 15.0347 62.5127 34.0259
7226 1 13.4521 60.9301 35.6085
7227 1 15.0347 62.5127 37.1911
7228 1 13.4521 60.9301 38.7737
7229 1 15.0347 62.5127 40.3563
7230 1 13.4521 60.9301 41.9389
7231 1 15.0347 62.5127 43.5215
7232 1 13.4521 60.9301 45.1041
7233 1 15.0347 62.5127 46.6867
7234 1 13.4521 60.9301 48.2693
7235 1 15.0347 62.5127 49.8519
7236 1 13.4521 60.9301 51.4345
7237 1 15.0347 62.5127 53.0171
7238 1 13.4521 60.9301 54.5997
7239 1 15.0347 62.5127 56.1823
7240 1 13.4521 60.9301 57.7649
7241 1 15.0347 62.5127 59.3475
7242 1 13.4521 60.9301 60.9301
7243 1 15.0347 62.5127 62.5127
7244 1 13.4521 60.9301 64.0953
7245 1 15.0347 62.5127 65.6779
7246 1 13.4521 60.9301 67.2605
7247 1 15.0347 62.5127 68.8431
7248 1 13.4521 60.9301 70.4257
7249 1 15.0347 62.5127 72.0083
7250 1 13.4521 60.9301 73.5909
7251 1 15.0347 62.5127 75.1735
7252 1 13.4521 60.9301 76.7561
7253 1 15.0347 62.5127 78.3387
7254 1 13.4521 64.0953 0.7913
7255 1 15.0347 65.6779 2.3739
7256 1 13.4521 64.0953 3.9565
7257 1 15.0347 65.6779 5.5391
7258 1 13.4521 64.0953 7.1217
7259 1 15.0347 65.6779 8.7043
7260 1 13.4521 64.0953 10.2869
7261 1 15.0347 65.6779 11.8695
7262 1 13.4521 64.0953 13.4521
7263 1 15.0347 65.6779 15.0347
7264 1 13.4521 64.0953 16.6173
7265 1 15.0347 65.6779 18.1999
7266 1 13.4521 64.0953 19.7825
7267 1 15.0347 65.6779 21.3651
7268 1 13.4521 64.0953 22.9477
7269 1 15.0347 65.6779 24.5303
7270 1 13.4521 64.0953 26.1129
7271 1 15.0347 65.6779 27.6955
7272 1 13.4521 64.0953 29.2781
7273 1 15.0347 65.6779 30.8607
7274 1 13.4521 64.0953 32.4433
7275 1 15.0347 65.6779 34.0259
7276 1 13.4521 64.0953 35.6085
7277 1 15.0347 65.6779 37.1911
7278 1 13.4521 64.0953 38.7737
7279 1 15.0347 65.6779 40.3563
7280 1 13.4521 64.0953 41.9389
7281 1 15.0347 65.6779 43.5215
7282 1 13.4521 64.0953 45.1041
7283 1 15.0347 65.6779 46.6867
7284 1 13.4521 64.0953 48.2693
7285 1 15.0347 65.6779 49.8519
7286 1 13.4521 64.0953 51.4345
7287 1 15.0347 65.6779 53.0171
7288 1 13.4521 64.0953 54.5997
7289 1 15.0347 65.6779 56.1823
7290 1 13.4521 64.0953 57.7649
7291 1 15.0347 65.6779 59.3475
7292 1 13.4521 64.0953 60.9301
7293 1 15.0347 65.6779 62.5127
7294 1 13.4521 64.0953 64.0953
7295 1 15.0347 65.6779 65.6779
7296 1 13.4521 64.0953 67.2605
7297 1 15.0347 65.6779 68.8431
7298 1 13.4521 64.0953 70.4257
7299 1 15.0347 65.6779 72.0083
7300 1 13.4521 64.0953 73.5909
7301 1 15.0347 65.6779 75.1735
7302 1 13.4521 64.0953 76.7561
7303 1 15.0347 65.6779 78.3387
7304 1 13.4521 67.2605 0.7913
7305 1 15.0347 68.8431 2.3739
7306 1 13.4521 67.2605 3.9565
7307 1 15.0347 68.8431 5.5391
7308 1 13.4521 67.2605 7.1217
7309 1 15.0347 68.8431 8.7043
7310 1 13.4521 67.2605 10.2869
7311 1 15.0347 68.8431 11.8695
7312 1 13.4521 67.2605 13.4521
7313 1 15.0347 68.8431 15.0347
7314 1 13.4521 67.2605 16.6173
7315 1 15.0347 68.8431 18.1999
7316 1 13.4521 67.2605 19.7825
7317 1 15.0347 68.8431 21.3651
7318 1 13.4521 67.2605 22.9477
7319 1 15.0347 68.8431 24.5303
7320 1 13.4521 67.2605 26.1129
7321 1 15.0347 68.8431 27.6955
7322 1 13.4521 67.2605 29.2781
7323 1 15.0347 68.8431 30.8607
7324 1 13.4521 67.2605 32.4433
7325 1 15.0347 68.8431 34.0259
7326 1 13.4521 67.2605 35.6085
7327 1 15.0347 68.8431 37.1911
7328 1 13.4521 67.2605 38.7737
7329 1 15.0347 68.8431 40.3563
7330 1 13.4521 67.2605 41.9389
7331 1 15.0347 68.8431 43.5215
7332 1 13.4521 67.2605 45.1041
7333 1 15.0347 68.8431 46.6867
7334 1 13.4521 67.2605 48.2693
7335 1 15.0347 68.8431 49.8519
7336 1 13.4521 67.2605 51.4345
7337 1 15.0347 68.8431 53.0171
7338 1 13.4521 67.2605 54.5997
7339 1 15.0347 68.8431 56.1823
7340 1 13.4521 67.2605 57.7649
7341 1 15.0347 68.8431 59.3475
7342 1 13.4521 67.2605 60.9301
7343 1 15.0347 68.8431 62.5127
7344 1 13.4521 67.2605 64.0953
7345 1 15.0347 68.8431 65.6779
7346 1 13.4521 67.2605 67.2605
7347 1 15.0347 68.8431 68.8431
7348 1 13.4521 67.2605 70.4257
7349 1 15.0347 68.8431 72.0083
7350 1 13.4521 67.2605 73.5909
7351 1 15.0347 68.8431 75.1735
7352 1 13.4521 67.2605 76.7561
7353 1 15.0347 68.8431 78.3387
7354 1 13.4521 70.4257 0.7913
7355 1 15.0347 72.0083 2.3739
7356 1 13.4521 70.4257 3.9565
7357 1 15.0347 72.0083 5.5391
7358 1 13.4521 70.4257 7.1217
7359 1 15.0347 72.0083 8.7043
7360 1 13.4521 70.4257 10.2869
7361 1 15.0347 72.0083 11.8695
7362 1 13.4521 70.4257 13.4521
7363 1 15.0347 72.0083 15.0347
7364 1 13.4521 70.4257 16.6173
7365 1 15.0347 72.0083 18.1999
7366 1 13.4521 70.4257 19.7825
7367 1 15.0347 72.0083 21.3651
7368 1 13.4521 70.4257 22.9477
7369 1 15.0347 72.0083 24.5303
7370 1 13.4521 70.4257 26.1129
7371 1 15.0347 72.0083 27.6955
7372 1 13.4521 70.4257 29.2781
7373 1 15.0347 72.0083 30.8607
7374 1 13.4521 70.4257 32.4433
7375 1 15.0347 72.0083 34.0259
7376 1 13.4521 70.4257 35.6085
7377 1 15.0347 72.0083 37.1911
7378 1 13.4521 70.4257 38.7737
7379 1 15.0347 72.0083 40.3563
7380 1 13.4521 70.4257 41.9389
7381 1 15.0347 72.0083 43.5215
7382 1 13.4521 70.4257 45.1041
7383 1 15.0347 72.0083 46.6867
7384 1 13.4521 70.4257 48.2693
7385 1 15.0347 72.0083 49.8519
7386 1 13.4521 70.4257 51.4345
7387 1 15.0347 72.0083 53.0171
7388 1 13.4521 70.4257 54.5997
7389 1 15.0347 72.0083 56.1823
7390 1 13.4521 70.4257 57.7649
7391 1 15.0347 72.0083 59.3475
7392 1 13.4521 70.4257 60.9301
7393 1 15.0347 72.0083 62.5127
7394 1 13.4521 70.4257 64.0953
7395 1 15.0347 72.0083 65.6779
7396 1 13.4521 70.4257 67.2605
7397 1 15.0347 72.0083 68.8431
7398 1 13.4521 70.4257 70.4257
7399 1 15.0347 72.0083 72.0083
7400 1 13.4521 70.4257 73.5909
7401 1 15.0347 72.0083 75.1735
7402 1 13.4521 70.4257 76.7561
7403 1 15.0347 72.0083 78.3387
7404 1 13.4521 73.5909 0.7913
7405 1 15.0347 75.1735 2.3739
7406 1 13.4521 73.5909 3.9565
7407 1 15.0347 75.1735 5.5391
7408 1 13.4521 73.5909 7.1217
7409 1 15.0347 75.1735 8.7043
7410 1 13.4521 73.5909 10.2869
7411 1 15.0347 75.1735 11.8695
7412 1 13.4521 73.5909 13.4521
7413 1 15.0347 75.1735 15.0347
7414 1 13.4521 73.5909 16.6173
7415 1 15.0347 75.1735 18.1999
7416 1 13.4521 73.5909 19.7825
7417 1 15.0347 75.1735 21.3651
7418 1 13.4521 73.5909 22.9477
7419 1 15.0347 75.1735 24.5303
7420 1 13.4521 73.5909 26.1129
7421 1 15.0347 75.1735 27.6955
7422 1 13.4521 73.5909 29.2781
7423 1 15.0347 75.1735 30.8607
7424 1 13.4521 73.5909 32.4433
7425 1 15.0347 75.1735 34.0259
7426 1 13.4521 73.5909 35.6085
7427 1 15.0347 75.1735 37.1911
7428 1 13.4521 73.5909 38.7737
7429 1 15.0347 75.1735 40.3563
7430 1 13.4521 73.5909 41.9389
7431 1 15.0347 75.1735 43.5215
7432 1 13.4521 73.5909 45.1041
7433 1 15.0347 75.1735 46.6867
7434 1 13.4521 73.5909 48.2693
7435 1 15.0347 75.1735 49.8519
7436 1 13.4521 73.5909 51.4345
7437 1 15.0347 75.1735 53.0171
7438 1 13.4521 73.5909 54.5997
7439 1 15.0347 75.1735 56.1823
7440 1 13.4521 73.5909 57.7649
7441 1 15.0347 75.1735 59.3475
7442 1 13.4521 73.5909 60.9301
7443 1 15.0347 75.1735 62.5127
7444 1 13.4521 73.5909 64.0953
7445 1 15.0347 75.1735 65.6779
7446 1 13.4521 73.5909 67.2605
7447 1 15.0347 75.1735 68.8431
7448 1 13.4521 73.5909 70.4257
7449 1 15.0347 75.1735 72.0083
7450 1 13.4521 73.5909 73.5909
7451 1 15.0347 75.1735 75.1735
7452 1 13.4521 73.5909 76.7561
7453 1 15.0347 75.1735 78.3387
7454 1 13.4521 76.7561 0.7913
7455 1 15.0347 78.3387 2.3739
7456 1 13.4521 76.7561 3.9565
7457 1 15.0347 78.3387 5.5391
7458 1 13.4521 76.7561 7.1217
7459 1 15.0347 78.3387 8.7043
7460 1 13.4521 76.7561 10.2869
7461 1 15.0347 78.3387 11.8695
7462 1 13.4521 76.7561 13.4521
7463 1 15.0347 78.3387 15.0347
7464 1 13.4521 76.7561 16.6173
7465 1 15.0347 78.3387 18.1999
7466 1 13.4521 76.7561 19.7825
7467 1 15.0347 78.3387 21.3651
7468 1 13.4521 76.7561 22.9477
7469 1 15.0347 78.3387 24.5303
7470 1 13.4521 76.7561 26.1129
7471 1 15.0347 78.3387 27.6955
7472 1 13.4521 76.7561 29.2781
7473 1 15.0347 78.3387 30.8607
7474 1 13.4521 76.7561 32.4433
7475 1 15.0347 78.3387 34.0259
7476 1 13.4521 76.7561 35.6085
7477 1 15.0347 78.3387 37.1911
7478 1 13.4521 76.7561 38.7737
7479 1 15.0347 78.3387 40.3563
7480 1 13.4521 76.7561 41.9389
7481 1 15.0347 78.3387 43.5215
7482 1 13.4521 76.7561 45.1041
7483 1 15.0347 78.3387 46.6867
7484 1 13.4521 76.7561 48.2693
7485 1 15.0347 78.3387 49.8519
7486 1 13.4521 76.7561 51.4345
7487 1 15.0347 78.3387 53.0171
7488 1 13.4521 76.7561 54.5997
7489 1 15.0347 78.3387 56.1823
7490 1 13.4521 76.7561 57.7649
7491 1 15.0347 78.3387 59.3475
7492 1 13.4521 76.7561 60.9301
7493 1 15.0347 78.3387 62.5127
7494 1 13.4521 76.7561 64.0953
7495 1 15.0347 78.3387 65.6779
7496 1 13.4521 76.7561 67.2605
7497 1 15.0347 78.3387 68.8431
7498 1 13.4521 76.7561 70.4257
7499 1 15.0347 78.3387 72.0083
7500 1 13.4521 76.7561 73.5909
7501 1 15.0347 78.3387 75.1735
7502 1 13.4521 76.7561 76.7561
7503 1 15.0347 78.3387 78.3387
7504 1 16.6173 0.7913 0.7913
7505 1 18.1999 2.3739 2.3739
7506 1 16.6173 0.7913 3.9565
7507 1 18.1999 2.3739 5.5391
7508 1 16.6173 0.7913 7.1217
7509 1 18.1999 2.3739 8.7043
7510 1 16.6173 0.7913 10.2869
7511 1 18.1999 2.3739 11.8695
7512 1 16.6173 0.7913 13.4521
7513 1 18.1999 2.3739 15.0347
7514 1 16.6173 0.7913 16.6173
7515 1 18.1999 2.3739 18.1999
7516 1 16.6173 0.7913 19.7825
7517 1 18.1999 2.3739 21.3651
7518 1 16.6173 0.7913 22.9477
7519 1 18.1999 2.3739 24.5303
7520 1 16.6173 0.7913 26.1129
7521 1 18.1999 2.3739 27.6955
7522 1 16.6173 0.7913 29.2781
7523 1 18.1999 2.3739 30.8607
7524 1 16.6173 0.7913 32.4433
7525 1 18.1999 2.3739 34.0259
7526 1 16.6173 0.7913 35.6085
7527 1 18.1999 2.3739 37.1911
7528 1 16.6173 0.7913 38.7737
7529 1 18.1999 2.3739 40.3563
7530 1 16.6173 0.7913 41.9389
7531 1 18.1999 2.3739 43.5215
7532 1 16.6173 0.7913 45.1041
7533 1 18.1999 2.3739 46.6867
7534 1 16.6173 0.7913 48.2693
7535 1 18.1999 2.3739 49.8519
7536 1 16.6173 0.7913 51.4345
7537 1 18.1999 2.3739 53.0171
7538 1 16.6173 0.7913 54.5997
7539 1 18.1999 2.3739 56.1823
7540 1 16.6173 0.7913 57.7649
7541 1 18.1999 2.3739 59.3475
7542 1 16.6173 0.7913 60.9301
7543 1 18.1999 2.3739 62.5127
7544 1 16.6173 0.7913 64.0953
7545 1 18.1999 2.3739 65.6779
7546 1 16.6173 0.7913 67.2605
7547 1 18.1999 2.3739 68.8431
7548 1 16.6173 0.7913 70.4257
7549 1 18.1999 2.3739 72.0083
7550 1 16.6173 0.7913 73.5909
7551 1 18.1999 2.3739 75.1735
7552 1 16.6173 0.7913 76.7561
7553 1 18.1999 2.3739 78.3387
7554 1 16.6173 3.9565 0.7913
7555 1 18.1999 5.5391 2.3739
7556 1 16.6173 3.9565 3.9565
7557 1 18.1999 5.5391 5.5391
7558 1 16.6173 3.9565 7.1217
7559 1 18.1999 5.5391 8.7043
7560 1 16.6173 3.9565 10.2869
7561 1 18.1999 5.5391 11.8695
7562 1 16.6173 3.9565 13.4521
7563 1 18.1999 5.5391 15.0347
7564 1 16.6173 3.9565 16.6173
7565 1 18.1999 5.5391 18.1999
7566 1 16.6173 3.9565 19.7825
7567 1 18.1999 5.5391 21.3651
7568 1 16.6173 3.9565 22.9477
7569 1 18.1999 5.5391 24.5303
7570 1 16.6173 3.9565 26.1129
7571 1 18.1999 5.5391 27.6955
7572 1 16.6173 3.9565 29.2781
7573 1 18.1999 5.5391 30.8607
7574 1 16.6173 3.9565 32.4433
7575 1 18.1999 5.5391 34.0259
7576 1 16.6173 3.9565 35.6085
7577 1 18.1999 5.5391 37.1911
7578 1 16.6173 3.9565 38.7737
7579 1 18.1999 5.5391 40.3563
7580 1 16.6173 3.9565 41.9389
7581 1 18.1999 5.5391 43.5215
7582 1 16.6173 3.9565 45.1041
7583 1 18.1999 5.5391 46.6867
7584 1 16.6173 3.9565 48.2693
7585 1 18.1999 5.5391 49.8519
7586 1 16.6173 3.9565 51.4345
7587 1 18.1999 5.5391 53.0171
7588 1 16.6173 3.9565 54.5997
7589 1 18.1999 5.5391 56.1823
7590 1 16.6173 3.9565 57.7649
7591 1 18.1999 5.5391 59.3475
7592 1 16.6173 3.9565 60.9301
7593 1 18.1999 5.5391 62.5127
7594 1 16.6173 3.9565 64.0953
7595 1 18.1999 5.5391 65.6779
7596 1 16.6173 3.9565 67.2605
7597 1 18.1999 5.5391 68.8431
7598 1 16.6173 3.9565 70.4257
7599 1 18.1999 5.5391 72.0083
7600 1 16.6173 3.9565 73.5909
7601 1 18.1999 5.5391 75.1735
7602 1 16.6173 3.9565 76.7561
7603 1 18.1999 5.5391 78.3387
7604 1 16.6173 7.1217 0.7913
7605 1 18.1999 8.7043 2.3739
7606 1 16.6173 7.1217 3.9565
7607 1 18.1999 8.7043 5.5391
7608 1 16.6173 7.1217 7.1217
7609 1 18.1999 8.7043 8.7043
7610 1 16.6173 7.1217 10.2869
7611 1 18.1999 8.7043 11.8695
7612 1 16.6173 7.1217 13.4521
7613 1 18.1999 8.7043 15.0347
7614 1 16.6173 7.1217 16.6173
7615 1 18.1999 8.7043 18.1999
7616 1 16.6173 7.1217 19.7825
7617 1 18.1999 8.7043 21.3651
7618 1 16.6173 7.1217 22.9477
7619 1 18.1999 8.7043 24.5303
7620 1 16.6173 7.1217 26.1129
7621 1 18.1999 8.7043 27.6955
7622 1 16.6173 7.1217 29.2781
7623 1 18.1999 8.7043 30.8607
7624 1 16.6173 7.1217 32.4433
7625 1 18.1999 8.7043 34.0259
7626 1 16.6173 7.1217 35.6085
7627 1 18.1999 8.7043 37.1911
7628 1 16.6173 7.1217 38.7737
7629 1 18.1999 8.7043 40.3563
7630 1 16.6173 7.1217 41.9389
7631 1 18.1999 8.7043 43.5215
7632 1 16.6173 7.1217 45.1041
7633 1 18.1999 8.7043 46.6867
7634 1 16.6173 7.1217 48.2693
7635 1 18.1999 8.7043 49.8519
7636 1 16.6173 7.1217 51.4345
7637 1 18.1999 8.7043 53.0171
7638 1 16.6173 7.1217 54.5997
7639 1 18.1999 8.7043 56.1823
7640 1 16.6173 7.1217 57.7649
7641 1 18.1999 8.7043 59.3475
7642 1 16.6173 7.1217 60.9301
7643 1 18.1999 8.7043 62.5127
7644 1 16.6173 7.1217 64.0953
7645 1 18.1999 8.7043 65.6779
7646 1 16.6173 7.1217 67.2605
7647 1 18.1999 8.7043 68.8431
7648 1 16.6173 7.1217 70.4257
7649 1 18.1999 8.7043 72.0083
7650 1 16.6173 7.1217 73.5909
7651 1 18.1999 8.7043 75.1735
7652 1 16.6173 7.1217 76.7561
7653 1 18.1999 8.7043 78.3387
7654 1 16.6173 10.2869 0.7913
7655 1 18.1999 11.8695 2.3739
7656 1 16.6173 10.2869 3.9565
7657 1 18.1999 11.8695 5.5391
7658 1 16.6173 10.2869 7.1217
7659 1 18.1999 11.8695 8.7043
7660 1 16.6173 10.2869 10.2869
7661 1 18.1999 11.8695 11.8695
7662 1 16.6173 10.2869 13.4521
7663 1 18.1999 11.8695 15.0347
7664 1 16.6173 10.2869 16.6173
7665 1 18.1999 11.8695 18.1999
7666 1 16.6173 10.2869 19.7825
7667 1 18.1999 11.8695 21.3651
7668 1 16.6173 10.2869 22.9477
7669 1 18.1999 11.8695 24.5303
7670 1 16.6173 10.2869 26.1129
7671 1 18.1999 11.8695 27.6955
7672 1 16.6173 10.2869 29.2781
7673 1 18.1999 11.8695 30.8607
7674 1 16.6173 10.2869 32.4433
7675 1 18.1999 11.8695 34.0259
7676 1 16.6173 10.2869 35.6085
7677 1 18.1999 11.8695 37.1911
7678 1 16.6173 10.2869 38.7737
7679 1 18.1999 11.8695 40.3563
7680 1 16.6173 10.2869 41.9389
7681 1 18.1999 11.8695 43.5215
7682 1 16.6173 10.2869 45.1041
7683 1 18.1999 11.8695 46.6867
7684 1 16.6173 10.2869 48.2693
7685 1 18.1999 11.8695 49.8519
7686 1 16.6173 10.2869 51.4345
7687 1 18.1999 11.8695 53.0171
7688 1 16.6173 10.2869 54.5997
7689 1 18.1999 11.8695 56.1823
7690 1 16.6173 10.2869 57.7649
7691 1 18.1999 11.8695 59.3475
7692 1 16.6173 10.2869 60.9301
7693 1 18.1999 11.8695 62.5127
7694 1 16.6173 10.2869 64.0953
7695 1 18.1999 11.8695 65.6779
7696 1 16.6173 10.2869 67.2605
7697 1 18.1999 11.8695 68.8431
7698 1 16.6173 10.2869 70.4257
7699 1 18.1999 11.8695 72.0083
7700 1 16.6173 10.2869 73.5909
7701 1 18.1999 11.8695 75.1735
7702 1 16.6173 10.2869 76.7561
7703 1 18.1999 11.8695 78.3387
7704 1 16.6173 13.4521 0.7913
7705 1 18.1999 15.0347 2.3739
7706 1 16.6173 13.4521 3.9565
7707 1 18.1999 15.0347 5.5391
7708 1 16.6173 13.4521 7.1217
7709 1 18.1999 15.0347 8.7043
7710 1 16.6173 13.4521 10.2869
7711 1 18.1999 15.0347 11.8695
7712 1 16.6173 13.4521 13.4521
7713 1 18.1999 15.0347 15.0347
7714 1 16.6173 13.4521 16.6173
7715 1 18.1999 15.0347 18.1999
7716 1 16.6173 13.4521 19.7825
7717 1 18.1999 15.0347 21.3651
7718 1 16.6173 13.4521 22.9477
7719 1 18.1999 15.0347 24.5303
7720 1 16.6173 13.4521 26.1129
7721 1 18.1999 15.0347 27.6955
7722 1 16.6173 13.4521 29.2781
7723 1 18.1999 15.0347 30.8607
7724 1 16.6173 13.4521 32.4433
7725 1 18.1999 15.0347 34.0259
7726 1 16.6173 13.4521 35.6085
7727 1 18.1999 15.0347 37.1911
7728 1 16.6173 13.4521 38.7737
7729 1 18.1999 15.0347 40.3563
7730 1 16.6173 13.4521 41.9389
7731 1 18.1999 15.0347 43.5215
7732 1 16.6173 13.4521 45.1041
7733 1 18.1999 15.0347 46.6867
7734 1 16.6173 13.4521 48.2693
7735 1 18.1999 15.0347 49.8519
7736 1 16.6173 13.4521 51.4345
7737 1 18.1999 15.0347 53.0171
7738 1 16.6173 13.4521 54.5997
7739 1 18.1999 15.0347 56.1823
7740 1 16.6173 13.4521 57.7649
7741 1 18.1999 15.0347 59.3475
7742 1 16.6173 13.4521 60.9301
7743 1 18.1999 15.0347 62.5127
7744 1 16.6173 13.4521 64.0953
7745 1 18.1999 15.0347 65.6779
7746 1 16.6173 13.4521 67.2605
7747 1 18.1999 15.0347 68.8431
7748 1 16.6173 13.4521 70.4257
7749 1 18.1999 15.0347 72.0083
7750 1 16.6173 13.4521 73.5909
7751 1 18.1999 15.0347 75.1735
7752 1 16.6173 13.4521 76.7561
7753 1 18.1999 15.0347 78.3387
7754 1 16.6173 16.6173 0.7913
7755 1 18.1999 18.1999 2.3739
7756 1 16.6173 16.6173 3.9565
7757 1 18.1999 18.1999 5.5391
7758 1 16.6173 16.6173 7.1217
7759 1 18.1999 18.1999 8.7043
7760 1 16.6173 16.6173 10.2869
7761 1 18.1999 18.1999 11.8695
7762 1 16.6173 16.6173 13.4521
7763 1 18.1999 18.1999 15.0347
7764 1 16.6173 16.6173 16.6173
7765 1 18.1999 18.1999 18.1999
7766 1 16.6173 16.6173 19.7825
7767 1 18.1999 18.1999 21.3651
7768 1 16.6173 16.6173 22.9477
7769 1 18.1999 18.1999 24.5303
7770 1 16.6173 16.6173 26.1129
7771 1 18.1999 18.1999 27.6955
7772 1 16.6173 16.6173 29.2781
7773 1 18.1999 18.1999 30.8607
7774 1 16.6173 16.6173 32.4433
7775 1 18.1999 18.1999 34.0259
7776 1 16.6173 16.6173 35.6085
7777 1 18.1999 18.1999 37.1911
7778 1 16.6173 16.6173 38.7737
7779 1 18.1999 18.1999 40.3563
7780 1 16.6173 16.6173 41.9389
7781 1 18.1999 18.1999 43.5215
7782 1 16.6173 16.6173 45.1041
7783 1 18.1999 18.1999 46.6867
7784 1 16.6173 16.6173 48.2693
7785 1 18.1999 18.1999 49.8519
7786 1 16.6173 16.6173 51.4345
7787 1 18.1999 18.1999 53.0171
7788 1 16.6173 16.6173 54.5997
7789 1 18.1999 18.1999 56.1823
7790 1 16.6173 16.6173 57.7649
7791 1 18.1999 18.1999 59.3475
7792 1 16.6173 16.6173 60.9301
7793 1 18.1999 18.1999 62.5127
7794 1 16.6173 16.6173 64.0953
7795 1 18.1999 18.1999 65.6779
7796 1 16.6173 16.6173 67.2605
7797 1 18.1999 18.1999 68.8431
7798 1 16.6173 16.6173 70.4257
7799 1 18.1999 18.1999 72.0083
7800 1 16.6173 16.6173 73.5909
7801 1 18.1999 18.1999 75.1735
7802 1 16.6173 16.6173 76.7561
7803 1 18.1999 18.1999 78.3387
7804 1 16.6173 19.7825 0.7913
7805 1 18.1999 21.3651 2.3739
7806 1 16.6173 19.7825 3.9565
7807 1 18.1999 21.3651 5.5391
7808 1 16.6173 19.7825 7.1217
7809 1 18.1999 21.3651 8.7043
7810 1 16.6173 19.7825 10.2869
7811 1 18.1999 21.3651 11.8695
7812 1 16.6173 19.7825 13.4521
7813 1 18.1999 21.3651 15.0347
7814 1 16.6173 19.7825 16.6173
7815 1 18.1999 21.3651 18.1999
7816 1 16.6173 19.7825 19.7825
7817 1 18.1999 21.3651 21.3651
7818 1 16.6173 19.7825 22.9477
7819 1 18.1999 21.3651 24.5303
7820 1 16.6173 19.7825 26.1129
7821 1 18.1999 21.3651 27.6955
7822 1 16.6173 19.7825 29.2781
7823 1 18.1999 21.3651 30.8607
7824 1 16.6173 19.7825 32.4433
7825 1 18.1999 21.3651 34.0259
7826 1 16.6173 19.7825 35.6085
7827 1 18.1999 21.3651 37.1911
7828 1 16.6173 19.7825 38.7737
7829 1 18.1999 21.3651 40.3563
7830 1 16.6173 19.7825 41.9389
7831 1 18.1999 21.3651 43.5215
7832 1 16.6173 19.7825 45.1041
7833 1 18.1999 21.3651 46.6867
7834 1 16.6173 19.7825 48.2693
7835 1 18.1999 21.3651 49.8519
7836 1 16.6173 19.7825 51.4345
7837 1 18.1999 21.3651 53.0171
7838 1 16.6173 19.7825 54.5997
7839 1 18.1999 21.3651 56.1823
7840 1 16.6173 19.7825 57.7649
7841 1 18.1999 21.3651 59.3475
7842 1 16.6173 19.7825 60.9301
7843 1 18.1999 21.3651 62.5127
7844 1 16.6173 19.7825 64.0953
7845 1 18.1999 21.3651 65.6779
7846 1 16.6173 19.7825 67.2605
7847 1 18.1999 21.3651 68.8431
7848 1 16.6173 19.7825 70.4257
7849 1 18.1999 21.3651 72.0083
7850 1 16.6173 19.7825 73.5909
7851 1 18.1999 21.3651 75.1735
7852 1 16.6173 19.7825 76.7561
7853 1 18.1999 21.3651 78.3387
7854 1 16.6173 22.9477 0.7913
7855 1 18.1999 24.5303 2.3739
7856 1 16.6173 22.9477 3.9565
7857 1 18.1999 24.5303 5.5391
7858 1 16.6173 22.9477 7.1217
7859 1 18.1999 24.5303 8.7043
7860 1 16.6173 22.9477 10.2869
7861 1 18.1999 24.5303 11.8695
7862 1 16.6173 22.9477 13.4521
7863 1 18.1999 24.5303 15.0347
7864 1 16.6173 22.9477 16.6173
7865 1 18.1999 24.5303 18.1999
7866 1 16.6173 22.9477 19.7825
7867 1 18.1999 24.5303 21.3651
7868 1 16.6173 22.9477 22.9477
7869 1 18.1999 24.5303 24.5303
7870 1 16.6173 22.9477 26.1129
7871 1 18.1999 24.5303 27.6955
7872 1 16.6173 22.9477 29.2781
7873 1 18.1999 24.5303 30.8607
7874 1 16.6173 22.9477 32.4433
7875 1 18.1999 24.5303 34.0259
7876 1 16.6173 22.9477 35.6085
7877 1 18.1999 24.5303 37.1911
7878 1 16.6173 22.9477 38.7737
7879 1 18.1999 24.5303 40.3563
7880 1 16.6173 22.9477 41.9389
7881 1 18.1999 24.5303 43.5215
7882 1 16.6173 22.9477 45.1041
7883 1 18.1999 24.5303 46.6867
7884 1 16.6173 22.9477 48.2693
7885 1 18.1999 24.5303 49.8519
7886 1 16.6173 22.9477 51.4345
7887 1 18.1999 24.5303 53.0171
7888 1 16.6173 22.9477 54.5997
7889 1 18.1999 24.5303 56.1823
7890 1 16.6173 22.9477 57.7649
7891 1 18.1999 24.5303 59.3475
7892 1 16.6173 22.9477 60.9301
7893 1 18.1999 24.5303 62.5127
7894 1 16.6173 22.9477 64.0953
7895 1 18.1999 24.5303 65.6779
7896 1 16.6173 22.9477 67.2605
7897 1 18.1999 24.5303 68.8431
7898 1 16.6173 22.9477 70.4257
7899 1 18.1999 24.5303 72.0083
7900 1 16.6173 22.9477 73.5909
7901 1 18.1999 24.5303 75.1735
7902 1 16.6173 22.9477 76.7561
7903 1 18.1999 24.5303 78.3387
7904 1 16.6173 26.1129 0.7913
7905 1 18.1999 27.6955 2.3739
7906 1 16.6173 26.1129 3.9565
7907 1 18.1999 27.6955 5.5391
7908 1 16.6173 26.1129 7.1217
7909 1 18.1999 27.6955 8.7043
7910 1 16.6173 26.1129 10.2869
7911 1 18.1999 27.6955 11.8695
7912 1 16.6173 26.1129 13.4521
7913 1 18.1999 27.6955 15.0347
7914 1 16.6173 26.1129 16.6173
7915 1 18.1999 27.6955 18.1999
7916 1 16.6173 26.1129 19.7825
7917 1 18.1999 27.6955 21.3651
7918 1 16.6173 26.1129 22.9477
7919 1 18.1999 27.6955 24.5303
7920 1 16.6173 26.1129 26.1129
7921 1 18.1999 27.6955 27.6955
7922 1 16.6173 26.1129 29.2781
7923 1 18.1999 27.6955 30.8607
7924 1 16.6173 26.1129 32.4433
7925 1 18.1999 27.6955 34.0259
7926 1 16.6173 26.1129 35.6085
7927 1 18.1999 27.6955 37.1911
7928 1 16.6173 26.1129 38.7737
7929 1 18.1999 27.6955 40.3563
7930 1 16.6173 26.1129 41.9389
7931 1 18.1999 27.6955 43.5215
7932 1 16.6173 26.1129 45.1041
7933 1 18.1999 27.6955 46.6867
7934 1 16.6173 26.1129 48.2693
7935 1 18.1999 27.6955 49.8519
7936 1 16.6173 26.1129 51.4345
7937 1 18.1999 27.6955 53.0171
7938 1 16.6173 26.1129 54.5997
7939 1 18.1999 27.6955 56.1823
7940 1 16.6173 26.1129 57.7649
7941 1 18.1999 27.6955 59.3475
7942 1 16.6173 26.1129 60.9301
7943 1 18.1999 27.6955 62.5127
7944 1 16.6173 26.1129 64.0953
7945 1 18.1999 27.6955 65.6779
7946 1 16.6173 26.1129 67.2605
7947 1 18.1999 27.6955 68.8431
7948 1 16.6173 26.1129 70.4257
7949 1 18.1999 27.6955 72.0083
7950 1 16.6173 26.1129 73.5909
7951 1 18.1999 27.6955 75.1735
7952 1 16.6173 26.1129 76.7561
7953 1 18.1999 27.6955 78.3387
7954 1 16.6173 29.2781 0.7913
7955 1 18.1999 30.8607 2.3739
7956 1 16.6173 29.2781 3.9565
7957 1 18.1999 30.8607 5.5391
7958 1 16.6173 29.2781 7.1217
7959 1 18.1999 30.8607 8.7043
7960 1 16.6173 29.2781 10.2869
7961 1 18.1999 30.8607 11.8695
7962 1 16.6173 29.2781 13.4521
7963 1 18.1999 30.8607 15.0347
7964 1 16.6173 29.2781 16.6173
7965 1 18.1999 30.8607 18.1999
7966 1 16.6173 29.2781 19.7825
7967 1 18.1999 30.8607 21.3651
7968 1 16.6173 29.2781 22.9477
7969 1 18.1999 30.8607 24.5303
7970 1 16.6173 29.2781 26.1129
7971 1 18.1999 30.8607 27.6955
7972 1 16.6173 29.2781 29.2781
7973 1 18.1999 30.8607 30.8607
7974 1 16.6173 29.2781 32.4433
7975 1 18.1999 30.8607 34.0259
7976 1 16.6173 29.2781 35.6085
7977 1 18.1999 30.8607 37.1911
7978 1 16.6173 29.2781 38.7737
7979 1 18.1999 30.8607 40.3563
7980 1 16.6173 29.2781 41.9389
7981 1 18.1999 30.8607 43.5215
7982 1 16.6173 29.2781 45.1041
7983 1 18.1999 30.8607 46.6867
7984 1 16.6173 29.2781 48.2693
7985 1 18.1999 30.8607 49.8519
7986 1 16.6173 29.2781 51.4345
7987 1 18.1999 30.8607 53.0171
7988 1 16.6173 29.2781 54.5997
7989 1 18.1999 30.8607 56.1823
7990 1 16.6173 29.2781 57.7649
7991 1 18.1999 30.8607 59.3475
7992 1 16.6173 29.2781 60.9301
7993 1 18.1999 30.8607 62.5127
7994 1 16.6173 29.2781 64.0953
7995 1 18.1999 30.8607 65.6779
7996 1 16.6173 29.2781 67.2605
7997 1 18.1999 30.8607 68.8431
7998 1 16.6173 29.2781 70.4257
7999 1 18.1999 30.8607 72.0083
8000 1 16.6173 29.2781 73.5909
8001 1 18.1999 30.8607 75.1735
8002 1 16.6173 29.2781 76.7561
8003 1 18.1999 30.8607 78.3387
8004 1 16.6173 32.4433 0.7913
8005 1 18.1999 34.0259 2.3739
8006 1 16.6173 32.4433 3.9565
8007 1 18.1999 34.0259 5.5391
8008 1 16.6173 32.4433 7.1217
8009 1 18.1999 34.0259 8.7043
8010 1 16.6173 32.4433 10.2869
8011 1 18.1999 34.0259 11.8695
8012 1 16.6173 32.4433 13.4521
8013 1 18.1999 34.0259 15.0347
8014 1 16.6173 32.4433 16.6173
8015 1 18.1999 34.0259 18.1999
8016 1 16.6173 32.4433 19.7825
8017 1 18.1999 34.0259 21.3651
8018 1 16.6173 32.4433 22.9477
8019 1 18.1999 34.0259 24.5303
8020 1 16.6173 32.4433 26.1129
8021 1 18.1999 34.0259 27.6955
8022 1 16.6173 32.4433 29.2781
8023 1 18.1999 34.0259 30.8607
8024 1 16.6173 32.4433 32.4433
8025 1 18.1999 34.0259 34.0259
8026 1 16.6173 32.4433 35.6085
8027 1 18.1999 34.0259 37.1911
8028 1 16.6173 32.4433 38.7737
8029 1 18.1999 34.0259 40.3563
8030 1 16.6173 32.4433 41.9389
8031 1 18.1999 34.0259 43.5215
8032 1 16.6173 32.4433 45.1041
8033 1 18.1999 34.0259 46.6867
8034 1 16.6173 32.4433 48.2693
8035 1 18.1999 34.0259 49.8519
8036 1 16.6173 32.4433 51.4345
8037 1 18.1999 34.0259 53.0171
8038 1 16.6173 32.4433 54.5997
8039 1 18.1999 34.0259 56.1823
8040 1 16.6173 32.4433 57.7649
8041 1 18.1999 34.0259 59.3475
8042 1 16.6173 32.4433 60.9301
8043 1 18.1999 34.0259 62.5127
8044 1 16.6173 32.4433 64.0953
8045 1 18.1999 34.0259 65.6779
8046 1 16.6173 32.4433 67.2605
8047 1 18.1999 34.0259 68.8431
8048 1 16.6173 32.4433 70.4257
8049 1 18.1999 34.0259 72.0083
8050 1 16.6173 32.4433 73.5909
8051 1 18.1999 34.0259 75.1735
8052 1 16.6173 32.4433 76.7561
8053 1 18.1999 34.0259 78.3387
8054 1 16.6173 35.6085 0.7913
8055 1 18.1999 37.1911 2.3739
8056 1 16.6173 35.6085 3.9565
8057 1 18.1999 37.1911 5.5391
8058 1 16.6173 35.6085 7.1217
8059 1 18.1999 37.1911 8.7043
8060 1 16.6173 35.6085 10.2869
8061 1 18.1999 37.1911 11.8695
8062 1 16.6173 35.6085 13.4521
8063 1 18.1999 37.1911 15.0347
8064 1 16.6173 35.6085 16.6173
8065 1 18.1999 37.1911 18.1999
8066 1 16.6173 35.6085 19.7825
8067 1 18.1999 37.1911 21.3651
8068 1 16.6173 35.6085 22.9477
8069 1 18.1999 37.1911 24.5303
8070 1 16.6173 35.6085 26.1129
8071 1 18.1999 37.1911 27.6955
8072 1 16.6173 35.6085 29.2781
8073 1 18.1999 37.1911 30.8607
8074 1 16.6173 35.6085 32.4433
8075 1 18.1999 37.1911 34.0259
8076 1 16.6173 35.6085 35.6085
8077 1 18.1999 37.1911 37.1911
8078 1 16.6173 35.6085 38.7737
8079 1 18.1999 37.1911 40.3563
8080 1 16.6173 35.6085 41.9389
8081 1 18.1999 37.1911 43.5215
8082 1 16.6173 35.6085 45.1041
8083 1 18.1999 37.1911 46.6867
8084 1 16.6173 35.6085 48.2693
8085 1 18.1999 37.1911 49.8519
8086 1 16.6173 35.6085 51.4345
8087 1 18.1999 37.1911 53.0171
8088 1 16.6173 35.6085 54.5997
8089 1 18.1999 37.1911 56.1823
8090 1 16.6173 35.6085 57.7649
8091 1 18.1999 37.1911 59.3475
8092 1 16.6173 35.6085 60.9301
8093 1 18.1999 37.1911 62.5127
8094 1 16.6173 35.6085 64.0953
8095 1 18.1999 37.1911 65.6779
8096 1 16.6173 35.6085 67.2605
8097 1 18.1999 37.1911 68.8431
8098 1 16.6173 35.6085 70.4257
8099 1 18.1999 37.1911 72.0083
8100 1 16.6173 35.6085 73.5909
8101 1 18.1999 37.1911 75.1735
8102 1 16.6173 35.6085 76.7561
8103 1 18.1999 37.1911 78.3387
8104 1 16.6173 38.7737 0.7913
8105 1 18.1999 40.3563 2.3739
8106 1 16.6173 38.7737 3.9565
8107 1 18.1999 40.3563 5.5391
8108 1 16.6173 38.7737 7.1217
8109 1 18.1999 40.3563 8.7043
8110 1 16.6173 38.7737 10.2869
8111 1 18.1999 40.3563 11.8695
8112 1 16.6173 38.7737 13.4521
8113 1 18.1999 40.3563 15.0347
8114 1 16.6173 38.7737 16.6173
8115 1 18.1999 40.3563 18.1999
8116 1 16.6173 38.7737 19.7825
8117 1 18.1999 40.3563 21.3651
8118 1 16.6173 38.7737 22.9477
8119 1 18.1999 40.3563 24.5303
8120 1 16.6173 38.7737 26.1129
8121 1 18.1999 40.3563 27.6955
8122 1 16.6173 38.7737 29.2781
8123 1 18.1999 40.3563 30.8607
8124 1 16.6173 38.7737 32.4433
8125 1 18.1999 40.3563 34.0259
8126 1 16.6173 38.7737 35.6085
8127 1 18.1999 40.3563 37.1911
8128 1 16.6173 38.7737 38.7737
8129 1 18.1999 40.3563 40.3563
8130 1 16.6173 38.7737 41.9389
8131 1 18.1999 40.3563 43.5215
8132 1 16.6173 38.7737 45.1041
8133 1 18.1999 40.3563 46.6867
8134 1 16.6173 38.7737 48.2693
8135 1 18.1999 40.3563 49.8519
8136 1 16.6173 38.7737 51.4345
8137 1 18.1999 40.3563 53.0171
8138 1 16.6173 38.7737 54.5997
8139 1 18.1999 40.3563 56.1823
8140 1 16.6173 38.7737 57.7649
8141 1 18.1999 40.3563 59.3475
8142 1 16.6173 38.7737 60.9301
8143 1 18.1999 40.3563 62.5127
8144 1 16.6173 38.7737 64.0953
8145 1 18.1999 40.3563 65.6779
8146 1 16.6173 38.7737 67.2605
8147 1 18.1999 40.3563 68.8431
8148 1 16.6173 38.7737 70.4257
8149 1 18.1999 40.3563 72.0083
8150 1 16.6173 38.7737 73.5909
8151 1 18.1999 40.3563 75.1735
8152 1 16.6173 38.7737 76.7561
8153 1 18.1999 40.3563 78.3387
8154 1 16.6173 41.9389 0.7913
8155 1 18.1999 43.5215 2.3739
8156 1 16.6173 41.9389 3.9565
8157 1 18.1999 43.5215 5.5391
8158 1 16.6173 41.9389 7.1217
8159 1 18.1999 43.5215 8.7043
8160 1 16.6173 41.9389 10.2869
8161 1 18.1999 43.5215 11.8695
8162 1 16.6173 41.9389 13.4521
8163 1 18.1999 43.5215 15.0347
8164 1 16.6173 41.9389 16.6173
8165 1 18.1999 43.5215 18.1999
8166 1 16.6173 41.9389 19.7825
8167 1 18.1999 43.5215 21.3651
8168 1 16.6173 41.9389 22.9477
8169 1 18.1999 43.5215 24.5303
8170 1 16.6173 41.9389 26.1129
8171 1 18.1999 43.5215 27.6955
8172 1 16.6173 41.9389 29.2781
8173 1 18.1999 43.5215 30.8607
8174 1 16.6173 41.9389 32.4433
8175 1 18.1999 43.5215 34.0259
8176 1 16.6173 41.9389 35.6085
8177 1 18.1999 43.5215 37.1911
8178 1 16.6173 41.9389 38.7737
8179 1 18.1999 43.5215 40.3563
8180 1 16.6173 41.9389 41.9389
8181 1 18.1999 43.5215 43.5215
8182 1 16.6173 41.9389 45.1041
8183 1 18.1999 43.5215 46.6867
8184 1 16.6173 41.9389 48.2693
8185 1 18.1999 43.5215 49.8519
8186 1 16.6173 41.9389 51.4345
8187 1 18.1999 43.5215 53.0171
8188 1 16.6173 41.9389 54.5997
8189 1 18.1999 43.5215 56.1823
8190 1 16.6173 41.9389 57.7649
8191 1 18.1999 43.5215 59.3475
8192 1 16.6173 41.9389 60.9301
8193 1 18.1999 43.5215 62.5127
8194 1 16.6173 41.9389 64.0953
8195 1 18.1999 43.5215 65.6779
8196 1 16.6173 41.9389 67.2605
8197 1 18.1999 43.5215 68.8431
8198 1 16.6173 41.9389 70.4257
8199 1 18.1999 43.5215 72.0083
8200 1 16.6173 41.9389 73.5909
8201 1 18.1999 43.5215 75.1735
8202 1 16.6173 41.9389 76.7561
8203 1 18.1999 43.5215 78.3387
8204 1 16.6173 45.1041 0.7913
8205 1 18.1999 46.6867 2.3739
8206 1 16.6173 45.1041 3.9565
8207 1 18.1999 46.6867 5.5391
8208 1 16.6173 45.1041 7.1217
8209 1 18.1999 46.6867 8.7043
8210 1 16.6173 45.1041 10.2869
8211 1 18.1999 46.6867 11.8695
8212 1 16.6173 45.1041 13.4521
8213 1 18.1999 46.6867 15.0347
8214 1 16.6173 45.1041 16.6173
8215 1 18.1999 46.6867 18.1999
8216 1 16.6173 45.1041 19.7825
8217 1 18.1999 46.6867 21.3651
8218 1 16.6173 45.1041 22.9477
8219 1 18.1999 46.6867 24.5303
8220 1 16.6173 45.1041 26.1129
8221 1 18.1999 46.6867 27.6955
8222 1 16.6173 45.1041 29.2781
8223 1 18.1999 46.6867 30.8607
8224 1 16.6173 45.1041 32.4433
8225 1 18.1999 46.6867 34.0259
8226 1 16.6173 45.1041 35.6085
8227 1 18.1999 46.6867 37.1911
8228 1 16.6173 45.1041 38.7737
8229 1 18.1999 46.6867 40.3563
8230 1 16.6173 45.1041 41.9389
8231 1 18.1999 46.6867 43.5215
8232 1 16.6173 45.1041 45.1041
8233 1 18.1999 46.6867 46.6867
8234 1 16.6173 45.1041 48.2693
8235 1 18.1999 46.6867 49.8519
8236 1 16.6173 45.1041 51.4345
8237 1 18.1999 46.6867 53.0171
8238 1 16.6173 45.1041 54.5997
8239 1 18.1999 46.6867 56.1823
8240 1 16.6173 45.1041 57.7649
8241 1 18.1999 46.6867 59.3475
8242 1 16.6173 45.1041 60.9301
8243 1 18.1999 46.6867 62.5127
8244 1 16.6173 45.1041 64.0953
8245 1 18.1999 46.6867 65.6779
8246 1 16.6173 45.1041 67.2605
8247 1 18.1999 46.6867 68.8431
8248 1 16.6173 45.1041 70.4257
8249 1 18.1999 46.6867 72.0083
8250 1 16.6173 45.1041 73.5909
8251 1 18.1999 46.6867 75.1735
8252 1 16.6173 45.1041 76.7561
8253 1 18.1999 46.6867 78.3387
8254 1 16.6173 48.2693 0.7913
8255 1 18.1999 49.8519 2.3739
8256 1 16.6173 48.2693 3.9565
8257 1 18.1999 49.8519 5.5391
8258 1 16.6173 48.2693 7.1217
8259 1 18.1999 49.8519 8.7043
8260 1 16.6173 48.2693 10.2869
8261 1 18.1999 49.8519 11.8695
8262 1 16.6173 48.2693 13.4521
8263 1 18.1999 49.8519 15.0347
8264 1 16.6173 48.2693 16.6173
8265 1 18.1999 49.8519 18.1999
8266 1 16.6173 48.2693 19.7825
8267 1 18.1999 49.8519 21.3651
8268 1 16.6173 48.2693 22.9477
8269 1 18.1999 49.8519 24.5303
8270 1 16.6173 48.2693 26.1129
8271 1 18.1999 49.8519 27.6955
8272 1 16.6173 48.2693 29.2781
8273 1 18.1999 49.8519 30.8607
8274 1 16.6173 48.2693 32.4433
8275 1 18.1999 49.8519 34.0259
8276 1 16.6173 48.2693 35.6085
8277 1 18.1999 49.8519 37.1911
8278 1 16.6173 48.2693 38.7737
8279 1 18.1999 49.8519 40.3563
8280 1 16.6173 48.2693 41.9389
8281 1 18.1999 49.8519 43.5215
8282 1 16.6173 48.2693 45.1041
8283 1 18.1999 49.8519 46.6867
8284 1 16.6173 48.2693 48.2693
8285 1 18.1999 49.8519 49.8519
8286 1 16.6173 48.2693 51.4345
8287 1 18.1999 49.8519 53.0171
8288 1 16.6173 48.2693 54.5997
8289 1 18.1999 49.8519 56.1823
8290 1 16.6173 48.2693 57.7649
8291 1 18.1999 49.8519 59.3475
8292 1 16.6173 48.2693 60.9301
8293 1 18.1999 49.8519 62.5127
8294 1 16.6173 48.2693 64.0953
8295 1 18.1999 49.8519 65.6779
8296 1 16.6173 48.2693 67.2605
8297 1 18.1999 49.8519 68.8431
8298 1 16.6173 48.2693 70.4257
8299 1 18.1999 49.8519 72.0083
8300 1 16.6173 48.2693 73.5909
8301 1 18.1999 49.8519 75.1735
8302 1 16.6173 48.2693 76.7561
8303 1 18.1999 49.8519 78.3387
8304 1 16.6173 51.4345 0.7913
8305 1 18.1999 53.0171 2.3739
8306 1 16.6173 51.4345 3.9565
8307 1 18.1999 53.0171 5.5391
8308 1 16.6173 51.4345 7.1217
8309 1 18.1999 53.0171 8.7043
8310 1 16.6173 51.4345 10.2869
8311 1 18.1999 53.0171 11.8695
8312 1 16.6173 51.4345 13.4521
8313 1 18.1999 53.0171 15.0347
8314 1 16.6173 51.4345 16.6173
8315 1 18.1999 53.0171 18.1999
8316 1 16.6173 51.4345 19.7825
8317 1 18.1999 53.0171 21.3651
8318 1 16.6173 51.4345 22.9477
8319 1 18.1999 53.0171 24.5303
8320 1 16.6173 51.4345 26.1129
8321 1 18.1999 53.0171 27.6955
8322 1 16.6173 51.4345 29.2781
8323 1 18.1999 53.0171 30.8607
8324 1 16.6173 51.4345 32.4433
8325 1 18.1999 53.0171 34.0259
8326 1 16.6173 51.4345 35.6085
8327 1 18.1999 53.0171 37.1911
8328 1 16.6173 51.4345 38.7737
8329 1 18.1999 53.0171 40.3563
8330 1 16.6173 51.4345 41.9389
8331 1 18.1999 53.0171 43.5215
8332 1 16.6173 51.4345 45.1041
8333 1 18.1999 53.0171 46.6867
8334 1 16.6173 51.4345 48.2693
8335 1 18.1999 53.0171 49.8519
8336 1 16.6173 51.4345 51.4345
8337 1 18.1999 53.0171 53.0171
8338 1 16.6173 51.4345 54.5997
8339 1 18.1999 53.0171 56.1823
8340 1 16.6173 51.4345 57.7649
8341 1 18.1999 53.0171 59.3475
8342 1 16.6173 51.4345 60.9301
8343 1 18.1999 53.0171 62.5127
8344 1 16.6173 51.4345 64.0953
8345 1 18.1999 53.0171 65.6779
8346 1 16.6173 51.4345 67.2605
8347 1 18.1999 53.0171 68.8431
8348 1 16.6173 51.4345 70.4257
8349 1 18.1999 53.0171 72.0083
8350 1 16.6173 51.4345 73.5909
8351 1 18.1999 53.0171 75.1735
8352 1 16.6173 51.4345 76.7561
8353 1 18.1999 53.0171 78.3387
8354 1 16.6173 54.5997 0.7913
8355 1 18.1999 56.1823 2.3739
8356 1 16.6173 54.5997 3.9565
8357 1 18.1999 56.1823 5.5391
8358 1 16.6173 54.5997 7.1217
8359 1 18.1999 56.1823 8.7043
8360 1 16.6173 54.5997 10.2869
8361 1 18.1999 56.1823 11.8695
8362 1 16.6173 54.5997 13.4521
8363 1 18.1999 56.1823 15.0347
8364 1 16.6173 54.5997 16.6173
8365 1 18.1999 56.1823 18.1999
8366 1 16.6173 54.5997 19.7825
8367 1 18.1999 56.1823 21.3651
8368 1 16.6173 54.5997 22.9477
8369 1 18.1999 56.1823 24.5303
8370 1 16.6173 54.5997 26.1129
8371 1 18.1999 56.1823 27.6955
8372 1 16.6173 54.5997 29.2781
8373 1 18.1999 56.1823 30.8607
8374 1 16.6173 54.5997 32.4433
8375 1 18.1999 56.1823 34.0259
8376 1 16.6173 54.5997 35.6085
8377 1 18.1999 56.1823 37.1911
8378 1 16.6173 54.5997 38.7737
8379 1 18.1999 56.1823 40.3563
8380 1 16.6173 54.5997 41.9389
8381 1 18.1999 56.1823 43.5215
8382 1 16.6173 54.5997 45.1041
8383 1 18.1999 56.1823 46.6867
8384 1 16.6173 54.5997 48.2693
8385 1 18.1999 56.1823 49.8519
8386 1 16.6173 54.5997 51.4345
8387 1 18.1999 56.1823 53.0171
8388 1 16.6173 54.5997 54.5997
8389 1 18.1999 56.1823 56.1823
8390 1 16.6173 54.5997 57.7649
8391 1 18.1999 56.1823 59.3475
8392 1 16.6173 54.5997 60.9301
8393 1 18.1999 56.1823 62.5127
8394 1 16.6173 54.5997 64.0953
8395 1 18.1999 56.1823 65.6779
8396 1 16.6173 54.5997 67.2605
8397 1 18.1999 56.1823 68.8431
8398 1 16.6173 54.5997 70.4257
8399 1 18.1999 56.1823 72.0083
8400 1 16.6173 54.5997 73.5909
8401 1 18.1999 56.1823 75.1735
8402 1 16.6173 54.5997 76.7561
8403 1 18.1999 56.1823 78.3387
8404 1 16.6173 57.7649 0.7913
8405 1 18.1999 59.3475 2.3739
8406 1 16.6173 57.7649 3.9565
8407 1 18.1999 59.3475 5.5391
8408 1 16.6173 57.7649 7.1217
8409 1 18.1999 59.3475 8.7043
8410 1 16.6173 57.7649 10.2869
8411 1 18.1999 59.3475 11.8695
8412 1 16.6173 57.7649 13.4521
8413 1 18.1999 59.3475 15.0347
8414 1 16.6173 57.7649 16.6173
8415 1 18.1999 59.3475 18.1999
8416 1 16.6173 57.7649 19.7825
8417 1 18.1999 59.3475 21.3651
8418 1 16.6173 57.7649 22.9477
8419 1 18.1999 59.3475 24.5303
8420 1 16.6173 57.7649 26.1129
8421 1 18.1999 59.3475 27.6955
8422 1 16.6173 57.7649 29.2781
8423 1 18.1999 59.3475 30.8607
8424 1 16.6173 57.7649 32.4433
8425 1 18.1999 59.3475 34.0259
8426 1 16.6173 57.7649 35.6085
8427 1 18.1999 59.3475 37.1911
8428 1 16.6173 57.7649 38.7737
8429 1 18.1999 59.3475 40.3563
8430 1 16.6173 57.7649 41.9389
8431 1 18.1999 59.3475 43.5215
8432 1 16.6173 57.7649 45.1041
8433 1 18.1999 59.3475 46.6867
8434 1 16.6173 57.7649 48.2693
8435 1 18.1999 59.3475 49.8519
8436 1 16.6173 57.7649 51.4345
8437 1 18.1999 59.3475 53.0171
8438 1 16.6173 57.7649 54.5997
8439 1 18.1999 59.3475 56.1823
8440 1 16.6173 57.7649 57.7649
8441 1 18.1999 59.3475 59.3475
8442 1 16.6173 57.7649 60.9301
8443 1 18.1999 59.3475 62.5127
8444 1 16.6173 57.7649 64.0953
8445 1 18.1999 59.3475 65.6779
8446 1 16.6173 57.7649 67.2605
8447 1 18.1999 59.3475 68.8431
8448 1 16.6173 57.7649 70.4257
8449 1 18.1999 59.3475 72.0083
8450 1 16.6173 57.7649 73.5909
8451 1 18.1999 59.3475 75.1735
8452 1 16.6173 57.7649 76.7561
8453 1 18.1999 59.3475 78.3387
8454 1 16.6173 60.9301 0.7913
8455 1 18.1999 62.5127 2.3739
8456 1 16.6173 60.9301 3.9565
8457 1 18.1999 62.5127 5.5391
8458 1 16.6173 60.9301 7.1217
8459 1 18.1999 62.5127 8.7043
8460 1 16.6173 60.9301 10.2869
8461 1 18.1999 62.5127 11.8695
8462 1 16.6173 60.9301 13.4521
8463 1 18.1999 62.5127 15.0347
8464 1 16.6173 60.9301 16.6173
8465 1 18.1999 62.5127 18.1999
8466 1 16.6173 60.9301 19.7825
8467 1 18.1999 62.5127 21.3651
8468 1 16.6173 60.9301 22.9477
8469 1 18.1999 62.5127 24.5303
8470 1 16.6173 60.9301 26.1129
8471 1 18.1999 62.5127 27.6955
8472 1 16.6173 60.9301 29.2781
8473 1 18.1999 62.5127 30.8607
8474 1 16.6173 60.9301 32.4433
8475 1 18.1999 62.5127 34.0259
8476 1 16.6173 60.9301 35.6085
8477 1 18.1999 62.5127 37.1911
8478 1 16.6173 60.9301 38.7737
8479 1 18.1999 62.5127 40.3563
8480 1 16.6173 60.9301 41.9389
8481 1 18.1999 62.5127 43.5215
8482 1 16.6173 60.9301 45.1041
8483 1 18.1999 62.5127 46.6867
8484 1 16.6173 60.9301 48.2693
8485 1 18.1999 62.5127 49.8519
8486 1 16.6173 60.9301 51.4345
8487 1 18.1999 62.5127 53.0171
8488 1 16.6173 60.9301 54.5997
8489 1 18.1999 62.5127 56.1823
8490 1 16.6173 60.9301 57.7649
8491 1 18.1999 62.5127 59.3475
8492 1 16.6173 60.9301 60.9301
8493 1 18.1999 62.5127 62.5127
8494 1 16.6173 60.9301 64.0953
8495 1 18.1999 62.5127 65.6779
8496 1 16.6173 60.9301 67.2605
8497 1 18.1999 62.5127 68.8431
8498 1 16.6173 60.9301 70.4257
8499 1 18.1999 62.5127 72.0083
8500 1 16.6173 60.9301 73.5909
8501 1 18.1999 62.5127 75.1735
8502 1 16.6173 60.9301 76.7561
8503 1 18.1999 62.5127 78.3387
8504 1 16.6173 64.0953 0.7913
8505 1 18.1999 65.6779 2.3739
8506 1 16.6173 64.0953 3.9565
8507 1 18.1999 65.6779 5.5391
8508 1 16.6173 64.0953 7.1217
8509 1 18.1999 65.6779 8.7043
8510 1 16.6173 64.0953 10.2869
8511 1 18.1999 65.6779 11.8695
8512 1 16.6173 64.0953 13.4521
8513 1 18.1999 65.6779 15.0347
8514 1 16.6173 64.0953 16.6173
8515 1 18.1999 65.6779 18.1999
8516 1 16.6173 64.0953 19.7825
8517 1 18.1999 65.6779 21.3651
8518 1 16.6173 64.0953 22.9477
8519 1 18.1999 65.6779 24.5303
8520 1 16.6173 64.0953 26.1129
8521 1 18.1999 65.6779 27.6955
8522 1 16.6173 64.0953 29.2781
8523 1 18.1999 65.6779 30.8607
8524 1 16.6173 64.0953 32.4433
8525 1 18.1999 65.6779 34.0259
8526 1 16.6173 64.0953 35.6085
8527 1 18.1999 65.6779 37.1911
8528 1 16.6173 64.0953 38.7737
8529 1 18.1999 65.6779 40.3563
8530 1 16.6173 64.0953 41.9389
8531 1 18.1999 65.6779 43.5215
8532 1 16.6173 64.0953 45.1041
8533 1 18.1999 65.6779 46.6867
8534 1 16.6173 64.0953 48.2693
8535 1 18.1999 65.6779 49.8519
8536 1 16.6173 64.0953 51.4345
8537 1 18.1999 65.6779 53.0171
8538 1 16.6173 64.0953 54.5997
8539 1 18.1999 65.6779 56.1823
8540 1 16.6173 64.0953 57.7649
8541 1 18.1999 65.6779 59.3475
8542 1 16.6173 64.0953 60.9301
8543 1 18.1999 65.6779 62.5127
8544 1 16.6173 64.0953 64.0953
8545 1 18.1999 65.6779 65.6779
8546 1 16.6173 64.0953 67.2605
8547 1 18.1999 65.6779 68.8431
8548 1 16.6173 64.0953 70.4257
8549 1 18.1999 65.6779 72.0083
8550 1 16.6173 64.0953 73.5909
8551 1 18.1999 65.6779 75.1735
8552 1 16.6173 64.0953 76.7561
8553 1 18.1999 65.6779 78.3387
8554 1 16.6173 67.2605 0.7913
8555 1 18.1999 68.8431 2.3739
8556 1 16.6173 67.2605 3.9565
8557 1 18.1999 68.8431 5.5391
8558 1 16.6173 67.2605 7.1217
8559 1 18.1999 68.8431 8.7043
8560 1 16.6173 67.2605 10.2869
8561 1 18.1999 68.8431 11.8695
8562 1 16.6173 67.2605 13.4521
8563 1 18.1999 68.8431 15.0347
8564 1 16.6173 67.2605 16.6173
8565 1 18.1999 68.8431 18.1999
8566 1 16.6173 67.2605 19.7825
8567 1 18.1999 68.8431 21.3651
8568 1 16.6173 67.2605 22.9477
8569 1 18.1999 68.8431 24.5303
8570 1 16.6173 67.2605 26.1129
8571 1 18.1999 68.8431 27.6955
8572 1 16.6173 67.2605 29.2781
8573 1 18.1999 68.8431 30.8607
8574 1 16.6173 67.2605 32.4433
8575 1 18.1999 68.8431 34.0259
8576 1 16.6173 67.2605 35.6085
8577 1 18.1999 68.8431 37.1911
8578 1 16.6173 67.2605 38.7737
8579 1 18.1999 68.8431 40.3563
8580 1 16.6173 67.2605 41.9389
8581 1 18.1999 68.8431 43.5215
8582 1 16.6173 67.2605 45.1041
8583 1 18.1999 68.8431 46.6867
8584 1 16.6173 67.2605 48.2693
8585 1 18.1999 68.8431 49.8519
8586 1 16.6173 67.2605 51.4345
8587 1 18.1999 68.8431 53.0171
8588 1 16.6173 67.2605 54.5997
8589 1 18.1999 68.8431 56.1823
8590 1 16.6173 67.2605 57.7649
8591 1 18.1999 68.8431 59.3475
8592 1 16.6173 67.2605 60.9301
8593 1 18.1999 68.8431 62.5127
8594 1 16.6173 67.2605 64.0953
8595 1 18.1999 68.8431 65.6779
8596 1 16.6173 67.2605 67.2605
8597 1 18.1999 68.8431 68.8431
8598 1 16.6173 67.2605 70.4257
8599 1 18.1999 68.8431 72.0083
8600 1 16.6173 67.2605 73.5909
8601 1 18.1999 68.8431 75.1735
8602 1 16.6173 67.2605 76.7561
8603 1 18.1999 68.8431 78.3387
8604 1 16.6173 70.4257 0.7913
8605 1 18.1999 72.0083 2.3739
8606 1 16.6173 70.4257 3.9565
8607 1 18.1999 72.0083 5.5391
8608 1 16.6173 70.4257 7.1217
8609 1 18.1999 72.0083 8.7043
8610 1 16.6173 70.4257 10.2869
8611 1 18.1999 72.0083 11.8695
8612 1 16.6173 70.4257 13.4521
8613 1 18.1999 72.0083 15.0347
8614 1 16.6173 70.4257 16.6173
8615 1 18.1999 72.0083 18.1999
8616 1 16.6173 70.4257 19.7825
8617 1 18.1999 72.0083 21.3651
8618 1 16.6173 70.4257 22.9477
8619 1 18.1999 72.0083 24.5303
8620 1 16.6173 70.4257 26.1129
8621 1 18.1999 72.0083 27.6955
8622 1 16.6173 70.4257 29.2781
8623 1 18.1999 72.0083 30.8607
8624 1 16.6173 70.4257 32.4433
8625 1 18.1999 72.0083 34.0259
8626 1 16.6173 70.4257 35.6085
8627 1 18.1999 72.0083 37.1911
8628 1 16.6173 70.4257 38.7737
8629 1 18.1999 72.0083 40.3563
8630 1 16.6173 70.4257 41.9389
8631 1 18.1999 72.0083 43.5215
8632 1 16.6173 70.4257 45.1041
8633 1 18.1999 72.0083 46.6867
8634 1 16.6173 70.4257 48.2693
8635 1 18.1999 72.0083 49.8519
8636 1 16.6173 70.4257 51.4345
8637 1 18.1999 72.0083 53.0171
8638 1 16.6173 70.4257 54.5997
8639 1 18.1999 72.0083 56.1823
8640 1 16.6173 70.4257 57.7649
8641 1 18.1999 72.0083 59.3475
8642 1 16.6173 70.4257 60.9301
8643 1 18.1999 72.0083 62.5127
8644 1 16.6173 70.4257 64.0953
8645 1 18.1999 72.0083 65.6779
8646 1 16.6173 70.4257 67.2605
8647 1 18.1999 72.0083 68.8431
8648 1 16.6173 70.4257 70.4257
8649 1 18.1999 72.0083 72.0083
8650 1 16.6173 70.4257 73.5909
8651 1 18.1999 72.0083 75.1735
8652 1 16.6173 70.4257 76.7561
8653 1 18.1999 72.0083 78.3387
8654 1 16.6173 73.5909 0.7913
8655 1 18.1999 75.1735 2.3739
8656 1 16.6173 73.5909 3.9565
8657 1 18.1999 75.1735 5.5391
8658 1 16.6173 73.5909 7.1217
8659 1 18.1999 75.1735 8.7043
8660 1 16.6173 73.5909 10.2869
8661 1 18.1999 75.1735 11.8695
8662 1 16.6173 73.5909 13.4521
8663 1 18.1999 75.1735 15.0347
8664 1 16.6173 73.5909 16.6173
8665 1 18.1999 75.1735 18.1999
8666 1 16.6173 73.5909 19.7825
8667 1 18.1999 75.1735 21.3651
8668 1 16.6173 73.5909 22.9477
8669 1 18.1999 75.1735 24.5303
8670 1 16.6173 73.5909 26.1129
8671 1 18.1999 75.1735 27.6955
8672 1 16.6173 73.5909 29.2781
8673 1 18.1999 75.1735 30.8607
8674 1 16.6173 73.5909 32.4433
8675 1 18.1999 75.1735 34.0259
8676 1 16.6173 73.5909 35.6085
8677 1 18.1999 75.1735 37.1911
8678 1 16.6173 73.5909 38.7737
8679 1 18.1999 75.1735 40.3563
8680 1 16.6173 73.5909 41.9389
8681 1 18.1999 75.1735 43.5215
8682 1 16.6173 73.5909 45.1041
8683 1 18.1999 75.1735 46.6867
8684 1 16.6173 73.5909 48.2693
8685 1 18.1999 75.1735 49.8519
8686 1 16.6173 73.5909 51.4345
8687 1 18.1999 75.1735 53.0171
8688 1 16.6173 73.5909 54.5997
8689 1 18.1999 75.1735 56.1823
8690 1 16.6173 73.5909 57.7649
8691 1 18.1999 75.1735 59.3475
8692 1 16.6173 73.5909 60.9301
8693 1 18.1999 75.1735 62.5127
8694 1 16.6173 73.5909 64.0953
8695 1 18.1999 75.1735 65.6779
8696 1 16.6173 73.5909 67.2605
8697 1 18.1999 75.1735 68.8431
8698 1 16.6173 73.5909 70.4257
8699 1 18.1999 75.1735 72.0083
8700 1 16.6173 73.5909 73.5909
8701 1 18.1999 75.1735 75.1735
8702 1 16.6173 73.5909 76.7561
8703 1 18.1999 75.1735 78.3387
8704 1 16.6173 76.7561 0.7913
8705 1 18.1999 78.3387 2.3739
8706 1 16.6173 76.7561 3.9565
8707 1 18.1999 78.3387 5.5391
8708 1 16.6173 76.7561 7.1217
8709 1 18.1999 78.3387 8.7043
8710 1 16.6173 76.7561 10.2869
8711 1 18.1999 78.3387 11.8695
8712 1 16.6173 76.7561 13.4521
8713 1 18.1999 78.3387 15.0347
8714 1 16.6173 76.7561 16.6173
8715 1 18.1999 78.3387 18.1999
8716 1 16.6173 76.7561 19.7825
8717 1 18.1999 78.3387 21.3651
8718 1 16.6173 76.7561 22.9477
8719 1 18.1999 78.3387 24.5303
8720 1 16.6173 76.7561 26.1129
8721 1 18.1999 78.3387 27.6955
8722 1 16.6173 76.7561 29.2781
8723 1 18.1999 78.3387 30.8607
8724 1 16.6173 76.7561 32.4433
8725 1 18.1999 78.3387 34.0259
8726 1 16.6173 76.7561 35.6085
8727 1 18.1999 78.3387 37.1911
8728 1 16.6173 76.7561 38.7737
8729 1 18.1999 78.3387 40.3563
8730 1 16.6173 76.7561 41.9389
8731 1 18.1999 78.3387 43.5215
8732 1 16.6173 76.7561 45.1041
8733 1 18.1999 78.3387 46.6867
8734 1 16.6173 76.7561 48.2693
8735 1 18.1999 78.3387 49.8519
8736 1 16.6173 76.7561 51.4345
8737 1 18.1999 78.3387 53.0171
8738 1 16.6173 76.7561 54.5997
8739 1 18.1999 78.3387 56.1823
8740 1 16.6173 76.7561 57.7649
8741 1 18.1999 78.3387 59.3475
8742 1 16.6173 76.7561 60.9301
8743 1 18.1999 78.3387 62.5127
8744 1 16.6173 76.7561 64.0953
8745 1 18.1999 78.3387 65.6779
8746 1 16.6173 76.7561 67.2605
8747 1 18.1999 78.3387 68.8431
8748 1 16.6173 76.7561 70.4257
8749 1 18.1999 78.3387 72.0083
8750 1 16.6173 76.7561 73.5909
8751 1 18.1999 78.3387 75.1735
8752 1 16.6173 76.7561 76.7561
8753 1 18.1999 78.3387 78.3387
8754 1 19.7825 0.7913 0.7913
8755 1 21.3651 2.3739 2.3739
8756 1 19.7825 0.7913 3.9565
8757 1 21.3651 2.3739 5.5391
8758 1 19.7825 0.7913 7.1217
8759 1 21.3651 2.3739 8.7043
8760 1 19.7825 0.7913 10.2869
8761 1 21.3651 2.3739 11.8695
8762 1 19.7825 0.7913 13.4521
8763 1 21.3651 2.3739 15.0347
8764 1 19.7825 0.7913 16.6173
8765 1 21.3651 2.3739 18.1999
8766 1 19.7825 0.7913 19.7825
8767 1 21.3651 2.3739 21.3651
8768 1 19.7825 0.7913 22.9477
8769 1 21.3651 2.3739 24.5303
8770 1 19.7825 0.7913 26.1129
8771 1 21.3651 2.3739 27.6955
8772 1 19.7825 0.7913 29.2781
8773 1 21.3651 2.3739 30.8607
8774 1 19.7825 0.7913 32.4433
8775 1 21.3651 2.3739 34.0259
8776 1 19.7825 0.7913 35.6085
8777 1 21.3651 2.3739 37.1911
8778 1 19.7825 0.7913 38.7737
8779 1 21.3651 2.3739 40.3563
8780 1 19.7825 0.7913 41.9389
8781 1 21.3651 2.3739 43.5215
8782 1 19.7825 0.7913 45.1041
8783 1 21.3651 2.3739 46.6867
8784 1 19.7825 0.7913 48.2693
8785 1 21.3651 2.3739 49.8519
8786 1 19.7825 0.7913 51.4345
8787 1 21.3651 2.3739 53.0171
8788 1 19.7825 0.7913 54.5997
8789 1 21.3651 2.3739 56.1823
8790 1 19.7825 0.7913 57.7649
8791 1 21.3651 2.3739 59.3475
8792 1 19.7825 0.7913 60.9301
8793 1 21.3651 2.3739 62.5127
8794 1 19.7825 0.7913 64.0953
8795 1 21.3651 2.3739 65.6779
8796 1 19.7825 0.7913 67.2605
8797 1 21.3651 2.3739 68.8431
8798 1 19.7825 0.7913 70.4257
8799 1 21.3651 2.3739 72.0083
8800 1 19.7825 0.7913 73.5909
8801 1 21.3651 2.3739 75.1735
8802 1 19.7825 0.7913 76.7561
8803 1 21.3651 2.3739 78.3387
8804 1 19.7825 3.9565 0.7913
8805 1 21.3651 5.5391 2.3739
8806 1 19.7825 3.9565 3.9565
8807 1 21.3651 5.5391 5.5391
8808 1 19.7825 3.9565 7.1217
8809 1 21.3651 5.5391 8.7043
8810 1 19.7825 3.9565 10.2869
8811 1 21.3651 5.5391 11.8695
8812 1 19.7825 3.9565 13.4521
8813 1 21.3651 5.5391 15.0347
8814 1 19.7825 3.9565 16.6173
8815 1 21.3651 5.5391 18.1999
8816 1 19.7825 3.9565 19.7825
8817 1 21.3651 5.5391 21.3651
8818 1 19.7825 3.9565 22.9477
8819 1 21.3651 5.5391 24.5303
8820 1 19.7825 3.9565 26.1129
8821 1 21.3651 5.5391 27.6955
8822 1 19.7825 3.9565 29.2781
8823 1 21.3651 5.5391 30.8607
8824 1 19.7825 3.9565 32.4433
8825 1 21.3651 5.5391 34.0259
8826 1 19.7825 3.9565 35.6085
8827 1 21.3651 5.5391 37.1911
8828 1 19.7825 3.9565 38.7737
8829 1 21.3651 5.5391 40.3563
8830 1 19.7825 3.9565 41.9389
8831 1 21.3651 5.5391 43.5215
8832 1 19.7825 3.9565 45.1041
8833 1 21.3651 5.5391 46.6867
8834 1 19.7825 3.9565 48.2693
8835 1 21.3651 5.5391 49.8519
8836 1 19.7825 3.9565 51.4345
8837 1 21.3651 5.5391 53.0171
8838 1 19.7825 3.9565 54.5997
8839 1 21.3651 5.5391 56.1823
8840 1 19.7825 3.9565 57.7649
8841 1 21.3651 5.5391 59.3475
8842 1 19.7825 3.9565 60.9301
8843 1 21.3651 5.5391 62.5127
8844 1 19.7825 3.9565 64.0953
8845 1 21.3651 5.5391 65.6779
8846 1 19.7825 3.9565 67.2605
8847 1 21.3651 5.5391 68.8431
8848 1 19.7825 3.9565 70.4257
8849 1 21.3651 5.5391 72.0083
8850 1 19.7825 3.9565 73.5909
8851 1 21.3651 5.5391 75.1735
8852 1 19.7825 3.9565 76.7561
8853 1 21.3651 5.5391 78.3387
8854 1 19.7825 7.1217 0.7913
8855 1 21.3651 8.7043 2.3739
8856 1 19.7825 7.1217 3.9565
8857 1 21.3651 8.7043 5.5391
8858 1 19.7825 7.1217 7.1217
8859 1 21.3651 8.7043 8.7043
8860 1 19.7825 7.1217 10.2869
8861 1 21.3651 8.7043 11.8695
8862 1 19.7825 7.1217 13.4521
8863 1 21.3651 8.7043 15.0347
8864 1 19.7825 7.1217 16.6173
8865 1 21.3651 8.7043 18.1999
8866 1 19.7825 7.1217 19.7825
8867 1 21.3651 8.7043 21.3651
8868 1 19.7825 7.1217 22.9477
8869 1 21.3651 8.7043 24.5303
8870 1 19.7825 7.1217 26.1129
8871 1 21.3651 8.7043 27.6955
8872 1 19.7825 7.1217 29.2781
8873 1 21.3651 8.7043 30.8607
8874 1 19.7825 7.1217 32.4433
8875 1 21.3651 8.7043 34.0259
8876 1 19.7825 7.1217 35.6085
8877 1 21.3651 8.7043 37.1911
8878 1 19.7825 7.1217 38.7737
8879 1 21.3651 8.7043 40.3563
8880 1 19.7825 7.1217 41.9389
8881 1 21.3651 8.7043 43.5215
8882 1 19.7825 7.1217 45.1041
8883 1 21.3651 8.7043 46.6867
8884 1 19.7825 7.1217 48.2693
8885 1 21.3651 8.7043 49.8519
8886 1 19.7825 7.1217 51.4345
8887 1 21.3651 8.7043 53.0171
8888 1 19.7825 7.1217 54.5997
8889 1 21.3651 8.7043 56.1823
8890 1 19.7825 7.1217 57.7649
8891 1 21.3651 8.7043 59.3475
8892 1 19.7825 7.1217 60.9301
8893 1 21.3651 8.7043 62.5127
8894 1 19.7825 7.1217 64.0953
8895 1 21.3651 8.7043 65.6779
8896 1 19.7825 7.1217 67.2605
8897 1 21.3651 8.7043 68.8431
8898 1 19.7825 7.1217 70.4257
8899 1 21.3651 8.7043 72.0083
8900 1 19.7825 7.1217 73.5909
8901 1 21.3651 8.7043 75.1735
8902 1 19.7825 7.1217 76.7561
8903 1 21.3651 8.7043 78.3387
8904 1 19.7825 10.2869 0.7913
8905 1 21.3651 11.8695 2.3739
8906 1 19.7825 10.2869 3.9565
8907 1 21.3651 11.8695 5.5391
8908 1 19.7825 10.2869 7.1217
8909 1 21.3651 11.8695 8.7043
8910 1 19.7825 10.2869 10.2869
8911 1 21.3651 11.8695 11.8695
8912 1 19.7825 10.2869 13.4521
8913 1 21.3651 11.8695 15.0347
8914 1 19.7825 10.2869 16.6173
8915 1 21.3651 11.8695 18.1999
8916 1 19.7825 10.2869 19.7825
8917 1 21.3651 11.8695 21.3651
8918 1 19.7825 10.2869 22.9477
8919 1 21.3651 11.8695 24.5303
8920 1 19.7825 10.2869 26.1129
8921 1 21.3651 11.8695 27.6955
8922 1 19.7825 10.2869 29.2781
8923 1 21.3651 11.8695 30.8607
8924 1 19.7825 10.2869 32.4433
8925 1 21.3651 11.8695 34.0259
8926 1 19.7825 10.2869 35.6085
8927 1 21.3651 11.8695 37.1911
8928 1 19.7825 10.2869 38.7737
8929 1 21.3651 11.8695 40.3563
8930 1 19.7825 10.2869 41.9389
8931 1 21.3651 11.8695 43.5215
8932 1 19.7825 10.2869 45.1041
8933 1 21.3651 11.8695 46.6867
8934 1 19.7825 10.2869 48.2693
8935 1 21.3651 11.8695 49.8519
8936 1 19.7825 10.2869 51.4345
8937 1 21.3651 11.8695 53.0171
8938 1 19.7825 10.2869 54.5997
8939 1 21.3651 11.8695 56.1823
8940 1 19.7825 10.2869 57.7649
8941 1 21.3651 11.8695 59.3475
8942 1 19.7825 10.2869 60.9301
8943 1 21.3651 11.8695 62.5127
8944 1 19.7825 10.2869 64.0953
8945 1 21.3651 11.8695 65.6779
8946 1 19.7825 10.2869 67.2605
8947 1 21.3651 11.8695 68.8431
8948 1 19.7825 10.2869 70.4257
8949 1 21.3651 11.8695 72.0083
8950 1 19.7825 10.2869 73.5909
8951 1 21.3651 11.8695 75.1735
8952 1 19.7825 10.2869 76.7561
8953 1 21.3651 11.8695 78.3387
8954 1 19.7825 13.4521 0.7913
8955 1 21.3651 15.0347 2.3739
8956 1 19.7825 13.4521 3.9565
8957 1 21.3651 15.0347 5.5391
8958 1 19.7825 13.4521 7.1217
8959 1 21.3651 15.0347 8.7043
8960 1 19.7825 13.4521 10.2869
8961 1 21.3651 15.0347 11.8695
8962 1 19.7825 13.4521 13.4521
8963 1 21.3651 15.0347 15.0347
8964 1 19.7825 13.4521 16.6173
8965 1 21.3651 15.0347 18.1999
8966 1 19.7825 13.4521 19.7825
8967 1 21.3651 15.0347 21.3651
8968 1 19.7825 13.4521 22.9477
8969 1 21.3651 15.0347 24.5303
8970 1 19.7825 13.4521 26.1129
8971 1 21.3651 15.0347 27.6955
8972 1 19.7825 13.4521 29.2781
8973 1 21.3651 15.0347 30.8607
8974 1 19.7825 13.4521 32.4433
8975 1 21.3651 15.0347 34.0259
8976 1 19.7825 13.4521 35.6085
8977 1 21.3651 15.0347 37.1911
8978 1 19.7825 13.4521 38.7737
8979 1 21.3651 15.0347 40.3563
8980 1 19.7825 13.4521 41.9389
8981 1 21.3651 15.0347 43.5215
8982 1 19.7825 13.4521 45.1041
8983 1 21.3651 15.0347 46.6867
8984 1 19.7825 13.4521 48.2693
8985 1 21.3651 15.0347 49.8519
8986 1 19.7825 13.4521 51.4345
8987 1 21.3651 15.0347 53.0171
8988 1 19.7825 13.4521 54.5997
8989 1 21.3651 15.0347 56.1823
8990 1 19.7825 13.4521 57.7649
8991 1 21.3651 15.0347 59.3475
8992 1 19.7825 13.4521 60.9301
8993 1 21.3651 15.0347 62.5127
8994 1 19.7825 13.4521 64.0953
8995 1 21.3651 15.0347 65.6779
8996 1 19.7825 13.4521 67.2605
8997 1 21.3651 15.0347 68.8431
8998 1 19.7825 13.4521 70.4257
8999 1 21.3651 15.0347 72.0083
9000 1 19.7825 13.4521 73.5909
9001 1 21.3651 15.0347 75.1735
9002 1 19.7825 13.4521 76.7561
9003 1 21.3651 15.0347 78.3387
9004 1 19.7825 16.6173 0.7913
9005 1 21.3651 18.1999 2.3739
9006 1 19.7825 16.6173 3.9565
9007 1 21.3651 18.1999 5.5391
9008 1 19.7825 16.6173 7.1217
9009 1 21.3651 18.1999 8.7043
9010 1 19.7825 16.6173 10.2869
9011 1 21.3651 18.1999 11.8695
9012 1 19.7825 16.6173 13.4521
9013 1 21.3651 18.1999 15.0347
9014 1 19.7825 16.6173 16.6173
9015 1 21.3651 18.1999 18.1999
9016 1 19.7825 16.6173 19.7825
9017 1 21.3651 18.1999 21.3651
9018 1 19.7825 16.6173 22.9477
9019 1 21.3651 18.1999 24.5303
9020 1 19.7825 16.6173 26.1129
9021 1 21.3651 18.1999 27.6955
9022 1 19.7825 16.6173 29.2781
9023 1 21.3651 18.1999 30.8607
9024 1 19.7825 16.6173 32.4433
9025 1 21.3651 18.1999 34.0259
9026 1 19.7825 16.6173 35.6085
9027 1 21.3651 18.1999 37.1911
9028 1 19.7825 16.6173 38.7737
9029 1 21.3651 18.1999 40.3563
9030 1 19.7825 16.6173 41.9389
9031 1 21.3651 18.1999 43.5215
9032 1 19.7825 16.6173 45.1041
9033 1 21.3651 18.1999 46.6867
9034 1 19.7825 16.6173 48.2693
9035 1 21.3651 18.1999 49.8519
9036 1 19.7825 16.6173 51.4345
9037 1 21.3651 18.1999 53.0171
9038 1 19.7825 16.6173 54.5997
9039 1 21.3651 18.1999 56.1823
9040 1 19.7825 16.6173 57.7649
9041 1 21.3651 18.1999 59.3475
9042 1 19.7825 16.6173 60.9301
9043 1 21.3651 18.1999 62.5127
9044 1 19.7825 16.6173 64.0953
9045 1 21.3651 18.1999 65.6779
9046 1 19.7825 16.6173 67.2605
9047 1 21.3651 18.1999 68.8431
9048 1 19.7825 16.6173 70.4257
9049 1 21.3651 18.1999 72.0083
9050 1 19.7825 16.6173 73.5909
9051 1 21.3651 18.1999 75.1735
9052 1 19.7825 16.6173 76.7561
9053 1 21.3651 18.1999 78.3387
9054 1 19.7825 19.7825 0.7913
9055 1 21.3651 21.3651 2.3739
9056 1 19.7825 19.7825 3.9565
9057 1 21.3651 21.3651 5.5391
9058 1 19.7825 19.7825 7.1217
9059 1 21.3651 21.3651 8.7043
9060 1 19.7825 19.7825 10.2869
9061 1 21.3651 21.3651 11.8695
9062 1 19.7825 19.7825 13.4521
9063 1 21.3651 21.3651 15.0347
9064 1 19.7825 19.7825 16.6173
9065 1 21.3651 21.3651 18.1999
9066 1 19.7825 19.7825 19.7825
9067 1 21.3651 21.3651 21.3651
9068 1 19.7825 19.7825 22.9477
9069 1 21.3651 21.3651 24.5303
9070 1 19.7825 19.7825 26.1129
9071 1 21.3651 21.3651 27.6955
9072 1 19.7825 19.7825 29.2781
9073 1 21.3651 21.3651 30.8607
9074 1 19.7825 19.7825 32.4433
9075 1 21.3651 21.3651 34.0259
9076 1 19.7825 19.7825 35.6085
9077 1 21.3651 21.3651 37.1911
9078 1 19.7825 19.7825 38.7737
9079 1 21.3651 21.3651 40.3563
9080 1 19.7825 19.7825 41.9389
9081 1 21.3651 21.3651 43.5215
9082 1 19.7825 19.7825 45.1041
9083 1 21.3651 21.3651 46.6867
9084 1 19.7825 19.7825 48.2693
9085 1 21.3651 21.3651 49.8519
9086 1 19.7825 19.7825 51.4345
9087 1 21.3651 21.3651 53.0171
9088 1 19.7825 19.7825 54.5997
9089 1 21.3651 21.3651 56.1823
9090 1 19.7825 19.7825 57.7649
9091 1 21.3651 21.3651 59.3475
9092 1 19.7825 19.7825 60.9301
9093 1 21.3651 21.3651 62.5127
9094 1 19.7825 19.7825 64.0953
9095 1 21.3651 21.3651 65.6779
9096 1 19.7825 19.7825 67.2605
9097 1 21.3651 21.3651 68.8431
9098 1 19.7825 19.7825 70.4257
9099 1 21.3651 21.3651 72.0083
9100 1 19.7825 19.7825 73.5909
9101 1 21.3651 21.3651 75.1735
9102 1 19.7825 19.7825 76.7561
9103 1 21.3651 21.3651 78.3387
9104 1 19.7825 22.9477 0.7913
9105 1 21.3651 24.5303 2.3739
9106 1 19.7825 22.9477 3.9565
9107 1 21.3651 24.5303 5.5391
9108 1 19.7825 22.9477 7.1217
9109 1 21.3651 24.5303 8.7043
9110 1 19.7825 22.9477 10.2869
9111 1 21.3651 24.5303 11.8695
9112 1 19.7825 22.9477 13.4521
9113 1 21.3651 24.5303 15.0347
9114 1 19.7825 22.9477 16.6173
9115 1 21.3651 24.5303 18.1999
9116 1 19.7825 22.9477 19.7825
9117 1 21.3651 24.5303 21.3651
9118 1 19.7825 22.9477 22.9477
9119 1 21.3651 24.5303 24.5303
9120 1 19.7825 22.9477 26.1129
9121 1 21.3651 24.5303 27.6955
9122 1 19.7825 22.9477 29.2781
9123 1 21.3651 24.5303 30.8607
9124 1 19.7825 22.9477 32.4433
9125 1 21.3651 24.5303 34.0259
9126 1 19.7825 22.9477 35.6085
9127 1 21.3651 24.5303 37.1911
9128 1 19.7825 22.9477 38.7737
9129 1 21.3651 24.5303 40.3563
9130 1 19.7825 22.9477 41.9389
9131 1 21.3651 24.5303 43.5215
9132 1 19.7825 22.9477 45.1041
9133 1 21.3651 24.5303 46.6867
9134 1 19.7825 22.9477 48.2693
9135 1 21.3651 24.5303 49.8519
9136 1 19.7825 22.9477 51.4345
9137 1 21.3651 24.5303 53.0171
9138 1 19.7825 22.9477 54.5997
9139 1 21.3651 24.5303 56.1823
9140 1 19.7825 22.9477 57.7649
9141 1 21.3651 24.5303 59.3475
9142 1 19.7825 22.9477 60.9301
9143 1 21.3651 24.5303 62.5127
9144 1 19.7825 22.9477 64.0953
9145 1 21.3651 24.5303 65.6779
9146 1 19.7825 22.9477 67.2605
9147 1 21.3651 24.5303 68.8431
9148 1 19.7825 22.9477 70.4257
9149 1 21.3651 24.5303 72.0083
9150 1 19.7825 22.9477 73.5909
9151 1 21.3651 24.5303 75.1735
9152 1 19.7825 22.9477 76.7561
9153 1 21.3651 24.5303 78.3387
9154 1 19.7825 26.1129 0.7913
9155 1 21.3651 27.6955 2.3739
9156 1 19.7825 26.1129 3.9565
9157 1 21.3651 27.6955 5.5391
9158 1 19.7825 26.1129 7.1217
9159 1 21.3651 27.6955 8.7043
9160 1 19.7825 26.1129 10.2869
9161 1 21.3651 27.6955 11.8695
9162 1 19.7825 26.1129 13.4521
9163 1 21.3651 27.6955 15.0347
9164 1 19.7825 26.1129 16.6173
9165 1 21.3651 27.6955 18.1999
9166 1 19.7825 26.1129 19.7825
9167 1 21.3651 27.6955 21.3651
9168 1 19.7825 26.1129 22.9477
9169 1 21.3651 27.6955 24.5303
9170 1 19.7825 26.1129 26.1129
9171 1 21.3651 27.6955 27.6955
9172 1 19.7825 26.1129 29.2781
9173 1 21.3651 27.6955 30.8607
9174 1 19.7825 26.1129 32.4433
9175 1 21.3651 27.6955 34.0259
9176 1 19.7825 26.1129 35.6085
9177 1 21.3651 27.6955 37.1911
9178 1 19.7825 26.1129 38.7737
9179 1 21.3651 27.6955 40.3563
9180 1 19.7825 26.1129 41.9389
9181 1 21.3651 27.6955 43.5215
9182 1 19.7825 26.1129 45.1041
9183 1 21.3651 27.6955 46.6867
9184 1 19.7825 26.1129 48.2693
9185 1 21.3651 27.6955 49.8519
9186 1 19.7825 26.1129 51.4345
9187 1 21.3651 27.6955 53.0171
9188 1 19.7825 26.1129 54.5997
9189 1 21.3651 27.6955 56.1823
9190 1 19.7825 26.1129 57.7649
9191 1 21.3651 27.6955 59.3475
9192 1 19.7825 26.1129 60.9301
9193 1 21.3651 27.6955 62.5127
9194 1 19.7825 26.1129 64.0953
9195 1 21.3651 27.6955 65.6779
9196 1 19.7825 26.1129 67.2605
9197 1 21.3651 27.6955 68.8431
9198 1 19.7825 26.1129 70.4257
9199 1 21.3651 27.6955 72.0083
9200 1 19.7825 26.1129 73.5909
9201 1 21.3651 27.6955 75.1735
9202 1 19.7825 26.1129 76.7561
9203 1 21.3651 27.6955 78.3387
9204 1 19.7825 29.2781 0.7913
9205 1 21.3651 30.8607 2.3739
9206 1 19.7825 29.2781 3.9565
9207 1 21.3651 30.8607 5.5391
9208 1 19.7825 29.2781 7.1217
9209 1 21.3651 30.8607 8.7043
9210 1 19.7825 29.2781 10.2869
9211 1 21.3651 30.8607 11.8695
9212 1 19.7825 29.2781 13.4521
9213 1 21.3651 30.8607 15.0347
9214 1 19.7825 29.2781 16.6173
9215 1 21.3651 30.8607 18.1999
9216 1 19.7825 29.2781 19.7825
9217 1 21.3651 30.8607 21.3651
9218 1 19.7825 29.2781 22.9477
9219 1 21.3651 30.8607 24.5303
9220 1 19.7825 29.2781 26.1129
9221 1 21.3651 30.8607 27.6955
9222 1 19.7825 29.2781 29.2781
9223 1 21.3651 30.8607 30.8607
9224 1 19.7825 29.2781 32.4433
9225 1 21.3651 30.8607 34.0259
9226 1 19.7825 29.2781 35.6085
9227 1 21.3651 30.8607 37.1911
9228 1 19.7825 29.2781 38.7737
9229 1 21.3651 30.8607 40.3563
9230 1 19.7825 29.2781 41.9389
9231 1 21.3651 30.8607 43.5215
9232 1 19.7825 29.2781 45.1041
9233 1 21.3651 30.8607 46.6867
9234 1 19.7825 29.2781 48.2693
9235 1 21.3651 30.8607 49.8519
9236 1 19.7825 29.2781 51.4345
9237 1 21.3651 30.8607 53.0171
9238 1 19.7825 29.2781 54.5997
9239 1 21.3651 30.8607 56.1823
9240 1 19.7825 29.2781 57.7649
9241 1 21.3651 30.8607 59.3475
9242 1 19.7825 29.2781 60.9301
9243 1 21.3651 30.8607 62.5127
9244 1 19.7825 29.2781 64.0953
9245 1 21.3651 30.8607 65.6779
9246 1 19.7825 29.2781 67.2605
9247 1 21.3651 30.8607 68.8431
9248 1 19.7825 29.2781 70.4257
9249 1 21.3651 30.8607 72.0083
9250 1 19.7825 29.2781 73.5909
9251 1 21.3651 30.8607 75.1735
9252 1 19.7825 29.2781 76.7561
9253 1 21.3651 30.8607 78.3387
9254 1 19.7825 32.4433 0.7913
9255 1 21.3651 34.0259 2.3739
9256 1 19.7825 32.4433 3.9565
9257 1 21.3651 34.0259 5.5391
9258 1 19.7825 32.4433 7.1217
9259 1 21.3651 34.0259 8.7043
9260 1 19.7825 32.4433 10.2869
9261 1 21.3651 34.0259 11.8695
9262 1 19.7825 32.4433 13.4521
9263 1 21.3651 34.0259 15.0347
9264 1 19.7825 32.4433 16.6173
9265 1 21.3651 34.0259 18.1999
9266 1 19.7825 32.4433 19.7825
9267 1 21.3651 34.0259 21.3651
9268 1 19.7825 32.4433 22.9477
9269 1 21.3651 34.0259 24.5303
9270 1 19.7825 32.4433 26.1129
9271 1 21.3651 34.0259 27.6955
9272 1 19.7825 32.4433 29.2781
9273 1 21.3651 34.0259 30.8607
9274 1 19.7825 32.4433 32.4433
9275 1 21.3651 34.0259 34.0259
9276 1 19.7825 32.4433 35.6085
9277 1 21.3651 34.0259 37.1911
9278 1 19.7825 32.4433 38.7737
9279 1 21.3651 34.0259 40.3563
9280 1 19.7825 32.4433 41.9389
9281 1 21.3651 34.0259 43.5215
9282 1 19.7825 32.4433 45.1041
9283 1 21.3651 34.0259 46.6867
9284 1 19.7825 32.4433 48.2693
9285 1 21.3651 34.0259 49.8519
9286 1 19.7825 32.4433 51.4345
9287 1 21.3651 34.0259 53.0171
9288 1 19.7825 32.4433 54.5997
9289 1 21.3651 34.0259 56.1823
9290 1 19.7825 32.4433 57.7649
9291 1 21.3651 34.0259 59.3475
9292 1 19.7825 32.4433 60.9301
9293 1 21.3651 34.0259 62.5127
9294 1 19.7825 32.4433 64.0953
9295 1 21.3651 34.0259 65.6779
9296 1 19.7825 32.4433 67.2605
9297 1 21.3651 34.0259 68.8431
9298 1 19.7825 32.4433 70.4257
9299 1 21.3651 34.0259 72.0083
9300 1 19.7825 32.4433 73.5909
9301 1 21.3651 34.0259 75.1735
9302 1 19.7825 32.4433 76.7561
9303 1 21.3651 34.0259 78.3387
9304 1 19.7825 35.6085 0.7913
9305 1 21.3651 37.1911 2.3739
9306 1 19.7825 35.6085 3.9565
9307 1 21.3651 37.1911 5.5391
9308 1 19.7825 35.6085 7.1217
9309 1 21.3651 37.1911 8.7043
9310 1 19.7825 35.6085 10.2869
9311 1 21.3651 37.1911 11.8695
9312 1 19.7825 35.6085 13.4521
9313 1 21.3651 37.1911 15.0347
9314 1 19.7825 35.6085 16.6173
9315 1 21.3651 37.1911 18.1999
9316 1 19.7825 35.6085 19.7825
9317 1 21.3651 37.1911 21.3651
9318 1 19.7825 35.6085 22.9477
9319 1 21.3651 37.1911 24.5303
9320 1 19.7825 35.6085 26.1129
9321 1 21.3651 37.1911 27.6955
9322 1 19.7825 35.6085 29.2781
9323 1 21.3651 37.1911 30.8607
9324 1 19.7825 35.6085 32.4433
9325 1 21.3651 37.1911 34.0259
9326 1 19.7825 35.6085 35.6085
9327 1 21.3651 37.1911 37.1911
9328 1 19.7825 35.6085 38.7737
9329 1 21.3651 37.1911 40.3563
9330 1 19.7825 35.6085 41.9389
9331 1 21.3651 37.1911 43.5215
9332 1 19.7825 35.6085 45.1041
9333 1 21.3651 37.1911 46.6867
9334 1 19.7825 35.6085 48.2693
9335 1 21.3651 37.1911 49.8519
9336 1 19.7825 35.6085 51.4345
9337 1 21.3651 37.1911 53.0171
9338 1 19.7825 35.6085 54.5997
9339 1 21.3651 37.1911 56.1823
9340 1 19.7825 35.6085 57.7649
9341 1 21.3651 37.1911 59.3475
9342 1 19.7825 35.6085 60.9301
9343 1 21.3651 37.1911 62.5127
9344 1 19.7825 35.6085 64.0953
9345 1 21.3651 37.1911 65.6779
9346 1 19.7825 35.6085 67.2605
9347 1 21.3651 37.1911 68.8431
9348 1 19.7825 35.6085 70.4257
9349 1 21.3651 37.1911 72.0083
9350 1 19.7825 35.6085 73.5909
9351 1 21.3651 37.1911 75.1735
9352 1 19.7825 35.6085 76.7561
9353 1 21.3651 37.1911 78.3387
9354 1 19.7825 38.7737 0.7913
9355 1 21.3651 40.3563 2.3739
9356 1 19.7825 38.7737 3.9565
9357 1 21.3651 40.3563 5.5391
9358 1 19.7825 38.7737 7.1217
9359 1 21.3651 40.3563 8.7043
9360 1 19.7825 38.7737 10.2869
9361 1 21.3651 40.3563 11.8695
9362 1 19.7825 38.7737 13.4521
9363 1 21.3651 40.3563 15.0347
9364 1 19.7825 38.7737 16.6173
9365 1 21.3651 40.3563 18.1999
9366 1 19.7825 38.7737 19.7825
9367 1 21.3651 40.3563 21.3651
9368 1 19.7825 38.7737 22.9477
9369 1 21.3651 40.3563 24.5303
9370 1 19.7825 38.7737 26.1129
9371 1 21.3651 40.3563 27.6955
9372 1 19.7825 38.7737 29.2781
9373 1 21.3651 40.3563 30.8607
9374 1 19.7825 38.7737 32.4433
9375 1 21.3651 40.3563 34.0259
9376 1 19.7825 38.7737 35.6085
9377 1 21.3651 40.3563 37.1911
9378 1 19.7825 38.7737 38.7737
9379 1 21.3651 40.3563 40.3563
9380 1 19.7825 38.7737 41.9389
9381 1 21.3651 40.3563 43.5215
9382 1 19.7825 38.7737 45.1041
9383 1 21.3651 40.3563 46.6867
9384 1 19.7825 38.7737 48.2693
9385 1 21.3651 40.3563 49.8519
9386 1 19.7825 38.7737 51.4345
9387 1 21.3651 40.3563 53.0171
9388 1 19.7825 38.7737 54.5997
9389 1 21.3651 40.3563 56.1823
9390 1 19.7825 38.7737 57.7649
9391 1 21.3651 40.3563 59.3475
9392 1 19.7825 38.7737 60.9301
9393 1 21.3651 40.3563 62.5127
9394 1 19.7825 38.7737 64.0953
9395 1 21.3651 40.3563 65.6779
9396 1 19.7825 38.7737 67.2605
9397 1 21.3651 40.3563 68.8431
9398 1 19.7825 38.7737 70.4257
9399 1 21.3651 40.3563 72.0083
9400 1 19.7825 38.7737 73.5909
9401 1 21.3651 40.3563 75.1735
9402 1 19.7825 38.7737 76.7561
9403 1 21.3651 40.3563 78.3387
9404 1 19.7825 41.9389 0.7913
9405 1 21.3651 43.5215 2.3739
9406 1 19.7825 41.9389 3.9565
9407 1 21.3651 43.5215 5.5391
9408 1 19.7825 41.9389 7.1217
9409 1 21.3651 43.5215 8.7043
9410 1 19.7825 41.9389 10.2869
9411 1 21.3651 43.5215 11.8695
9412 1 19.7825 41.9389 13.4521
9413 1 21.3651 43.5215 15.0347
9414 1 19.7825 41.9389 16.6173
9415 1 21.3651 43.5215 18.1999
9416 1 19.7825 41.9389 19.7825
9417 1 21.3651 43.5215 21.3651
9418 1 19.7825 41.9389 22.9477
9419 1 21.3651 43.5215 24.5303
9420 1 19.7825 41.9389 26.1129
9421 1 21.3651 43.5215 27.6955
9422 1 19.7825 41.9389 29.2781
9423 1 21.3651 43.5215 30.8607
9424 1 19.7825 41.9389 32.4433
9425 1 21.3651 43.5215 34.0259
9426 1 19.7825 41.9389 35.6085
9427 1 21.3651 43.5215 37.1911
9428 1 19.7825 41.9389 38.7737
9429 1 21.3651 43.5215 40.3563
9430 1 19.7825 41.9389 41.9389
9431 1 21.3651 43.5215 43.5215
9432 1 19.7825 41.9389 45.1041
9433 1 21.3651 43.5215 46.6867
9434 1 19.7825 41.9389 48.2693
9435 1 21.3651 43.5215 49.8519
9436 1 19.7825 41.9389 51.4345
9437 1 21.3651 43.5215 53.0171
9438 1 19.7825 41.9389 54.5997
9439 1 21.3651 43.5215 56.1823
9440 1 19.7825 41.9389 57.7649
9441 1 21.3651 43.5215 59.3475
9442 1 19.7825 41.9389 60.9301
9443 1 21.3651 43.5215 62.5127
9444 1 19.7825 41.9389 64.0953
9445 1 21.3651 43.5215 65.6779
9446 1 19.7825 41.9389 67.2605
9447 1 21.3651 43.5215 68.8431
9448 1 19.7825 41.9389 70.4257
9449 1 21.3651 43.5215 72.0083
9450 1 19.7825 41.9389 73.5909
9451 1 21.3651 43.5215 75.1735
9452 1 19.7825 41.9389 76.7561
9453 1 21.3651 43.5215 78.3387
9454 1 19.7825 45.1041 0.7913
9455 1 21.3651 46.6867 2.3739
9456 1 19.7825 45.1041 3.9565
9457 1 21.3651 46.6867 5.5391
9458 1 19.7825 45.1041 7.1217
9459 1 21.3651 46.6867 8.7043
9460 1 19.7825 45.1041 10.2869
9461 1 21.3651 46.6867 11.8695
9462 1 19.7825 45.1041 13.4521
9463 1 21.3651 46.6867 15.0347
9464 1 19.7825 45.1041 16.6173
9465 1 21.3651 46.6867 18.1999
9466 1 19.7825 45.1041 19.7825
9467 1 21.3651 46.6867 21.3651
9468 1 19.7825 45.1041 22.9477
9469 1 21.3651 46.6867 24.5303
9470 1 19.7825 45.1041 26.1129
9471 1 21.3651 46.6867 27.6955
9472 1 19.7825 45.1041 29.2781
9473 1 21.3651 46.6867 30.8607
9474 1 19.7825 45.1041 32.4433
9475 1 21.3651 46.6867 34.0259
9476 1 19.7825 45.1041 35.6085
9477 1 21.3651 46.6867 37.1911
9478 1 19.7825 45.1041 38.7737
9479 1 21.3651 46.6867 40.3563
9480 1 19.7825 45.1041 41.9389
9481 1 21.3651 46.6867 43.5215
9482 1 19.7825 45.1041 45.1041
9483 1 21.3651 46.6867 46.6867
9484 1 19.7825 45.1041 48.2693
9485 1 21.3651 46.6867 49.8519
9486 1 19.7825 45.1041 51.4345
9487 1 21.3651 46.6867 53.0171
9488 1 19.7825 45.1041 54.5997
9489 1 21.3651 46.6867 56.1823
9490 1 19.7825 45.1041 57.7649
9491 1 21.3651 46.6867 59.3475
9492 1 19.7825 45.1041 60.9301
9493 1 21.3651 46.6867 62.5127
9494 1 19.7825 45.1041 64.0953
9495 1 21.3651 46.6867 65.6779
9496 1 19.7825 45.1041 67.2605
9497 1 21.3651 46.6867 68.8431
9498 1 19.7825 45.1041 70.4257
9499 1 21.3651 46.6867 72.0083
9500 1 19.7825 45.1041 73.5909
9501 1 21.3651 46.6867 75.1735
9502 1 19.7825 45.1041 76.7561
9503 1 21.3651 46.6867 78.3387
9504 1 19.7825 48.2693 0.7913
9505 1 21.3651 49.8519 2.3739
9506 1 19.7825 48.2693 3.9565
9507 1 21.3651 49.8519 5.5391
9508 1 19.7825 48.2693 7.1217
9509 1 21.3651 49.8519 8.7043
9510 1 19.7825 48.2693 10.2869
9511 1 21.3651 49.8519 11.8695
9512 1 19.7825 48.2693 13.4521
9513 1 21.3651 49.8519 15.0347
9514 1 19.7825 48.2693 16.6173
9515 1 21.3651 49.8519 18.1999
9516 1 19.7825 48.2693 19.7825
9517 1 21.3651 49.8519 21.3651
9518 1 19.7825 48.2693 22.9477
9519 1 21.3651 49.8519 24.5303
9520 1 19.7825 48.2693 26.1129
9521 1 21.3651 49.8519 27.6955
9522 1 19.7825 48.2693 29.2781
9523 1 21.3651 49.8519 30.8607
9524 1 19.7825 48.2693 32.4433
9525 1 21.3651 49.8519 34.0259
9526 1 19.7825 48.2693 35.6085
9527 1 21.3651 49.8519 37.1911
9528 1 19.7825 48.2693 38.7737
9529 1 21.3651 49.8519 40.3563
9530 1 19.7825 48.2693 41.9389
9531 1 21.3651 49.8519 43.5215
9532 1 19.7825 48.2693 45.1041
9533 1 21.3651 49.8519 46.6867
9534 1 19.7825 48.2693 48.2693
9535 1 21.3651 49.8519 49.8519
9536 1 19.7825 48.2693 51.4345
9537 1 21.3651 49.8519 53.0171
9538 1 19.7825 48.2693 54.5997
9539 1 21.3651 49.8519 56.1823
9540 1 19.7825 48.2693 57.7649
9541 1 21.3651 49.8519 59.3475
9542 1 19.7825 48.2693 60.9301
9543 1 21.3651 49.8519 62.5127
9544 1 19.7825 48.2693 64.0953
9545 1 21.3651 49.8519 65.6779
9546 1 19.7825 48.2693 67.2605
9547 1 21.3651 49.8519 68.8431
9548 1 19.7825 48.2693 70.4257
9549 1 21.3651 49.8519 72.0083
9550 1 19.7825 48.2693 73.5909
9551 1 21.3651 49.8519 75.1735
9552 1 19.7825 48.2693 76.7561
9553 1 21.3651 49.8519 78.3387
9554 1 19.7825 51.4345 0.7913
9555 1 21.3651 53.0171 2.3739
9556 1 19.7825 51.4345 3.9565
9557 1 21.3651 53.0171 5.5391
9558 1 19.7825 51.4345 7.1217
9559 1 21.3651 53.0171 8.7043
9560 1 19.7825 51.4345 10.2869
9561 1 21.3651 53.0171 11.8695
9562 1 19.7825 51.4345 13.4521
9563 1 21.3651 53.0171 15.0347
9564 1 19.7825 51.4345 16.6173
9565 1 21.3651 53.0171 18.1999
9566 1 19.7825 51.4345 19.7825
9567 1 21.3651 53.0171 21.3651
9568 1 19.7825 51.4345 22.9477
9569 1 21.3651 53.0171 24.5303
9570 1 19.7825 51.4345 26.1129
9571 1 21.3651 53.0171 27.6955
9572 1 19.7825 51.4345 29.2781
9573 1 21.3651 53.0171 30.8607
9574 1 19.7825 51.4345 32.4433
9575 1 21.3651 53.0171 34.0259
9576 1 19.7825 51.4345 35.6085
9577 1 21.3651 53.0171 37.1911
9578 1 19.7825 51.4345 38.7737
9579 1 21.3651 53.0171 40.3563
9580 1 19.7825 51.4345 41.9389
9581 1 21.3651 53.0171 43.5215
9582 1 19.7825 51.4345 45.1041
9583 1 21.3651 53.0171 46.6867
9584 1 19.7825 51.4345 48.2693
9585 1 21.3651 53.0171 49.8519
9586 1 19.7825 51.4345 51.4345
9587 1 21.3651 53.0171 53.0171
9588 1 19.7825 51.4345 54.5997
9589 1 21.3651 53.0171 56.1823
9590 1 19.7825 51.4345 57.7649
9591 1 21.3651 53.0171 59.3475
9592 1 19.7825 51.4345 60.9301
9593 1 21.3651 53.0171 62.5127
9594 1 19.7825 51.4345 64.0953
9595 1 21.3651 53.0171 65.6779
9596 1 19.7825 51.4345 67.2605
9597 1 21.3651 53.0171 68.8431
9598 1 19.7825 51.4345 70.4257
9599 1 21.3651 53.0171 72.0083
9600 1 19.7825 51.4345 73.5909
9601 1 21.3651 53.0171 75.1735
9602 1 19.7825 51.4345 76.7561
9603 1 21.3651 53.0171 78.3387
9604 1 19.7825 54.5997 0.7913
9605 1 21.3651 56.1823 2.3739
9606 1 19.7825 54.5997 3.9565
9607 1 21.3651 56.1823 5.5391
9608 1 19.7825 54.5997 7.1217
9609 1 21.3651 56.1823 8.7043
9610 1 19.7825 54.5997 10.2869
9611 1 21.3651 56.1823 11.8695
9612 1 19.7825 54.5997 13.4521
9613 1 21.3651 56.1823 15.0347
9614 1 19.7825 54.5997 16.6173
9615 1 21.3651 56.1823 18.1999
9616 1 19.7825 54.5997 19.7825
9617 1 21.3651 56.1823 21.3651
9618 1 19.7825 54.5997 22.9477
9619 1 21.3651 56.1823 24.5303
9620 1 19.7825 54.5997 26.1129
9621 1 21.3651 56.1823 27.6955
9622 1 19.7825 54.5997 29.2781
9623 1 21.3651 56.1823 30.8607
9624 1 19.7825 54.5997 32.4433
9625 1 21.3651 56.1823 34.0259
9626 1 19.7825 54.5997 35.6085
9627 1 21.3651 56.1823 37.1911
9628 1 19.7825 54.5997 38.7737
9629 1 21.3651 56.1823 40.3563
9630 1 19.7825 54.5997 41.9389
9631 1 21.3651 56.1823 43.5215
9632 1 19.7825 54.5997 45.1041
9633 1 21.3651 56.1823 46.6867
9634 1 19.7825 54.5997 48.2693
9635 1 21.3651 56.1823 49.8519
9636 1 19.7825 54.5997 51.4345
9637 1 21.3651 56.1823 53.0171
9638 1 19.7825 54.5997 54.5997
9639 1 21.3651 56.1823 56.1823
9640 1 19.7825 54.5997 57.7649
9641 1 21.3651 56.1823 59.3475
9642 1 19.7825 54.5997 60.9301
9643 1 21.3651 56.1823 62.5127
9644 1 19.7825 54.5997 64.0953
9645 1 21.3651 56.1823 65.6779
9646 1 19.7825 54.5997 67.2605
9647 1 21.3651 56.1823 68.8431
9648 1 19.7825 54.5997 70.4257
9649 1 21.3651 56.1823 72.0083
9650 1 19.7825 54.5997 73.5909
9651 1 21.3651 56.1823 75.1735
9652 1 19.7825 54.5997 76.7561
9653 1 21.3651 56.1823 78.3387
9654 1 19.7825 57.7649 0.7913
9655 1 21.3651 59.3475 2.3739
9656 1 19.7825 57.7649 3.9565
9657 1 21.3651 59.3475 5.5391
9658 1 19.7825 57.7649 7.1217
9659 1 21.3651 59.3475 8.7043
9660 1 19.7825 57.7649 10.2869
9661 1 21.3651 59.3475 11.8695
9662 1 19.7825 57.7649 13.4521
9663 1 21.3651 59.3475 15.0347
9664 1 19.7825 57.7649 16.6173
9665 1 21.3651 59.3475 18.1999
9666 1 19.7825 57.7649 19.7825
9667 1 21.3651 59.3475 21.3651
9668 1 19.7825 57.7649 22.9477
9669 1 21.3651 59.3475 24.5303
9670 1 19.7825 57.7649 26.1129
9671 1 21.3651 59.3475 27.6955
9672 1 19.7825 57.7649 29.2781
9673 1 21.3651 59.3475 30.8607
9674 1 19.7825 57.7649 32.4433
9675 1 21.3651 59.3475 34.0259
9676 1 19.7825 57.7649 35.6085
9677 1 21.3651 59.3475 37.1911
9678 1 19.7825 57.7649 38.7737
9679 1 21.3651 59.3475 40.3563
9680 1 19.7825 57.7649 41.9389
9681 1 21.3651 59.3475 43.5215
9682 1 19.7825 57.7649 45.1041
9683 1 21.3651 59.3475 46.6867
9684 1 19.7825 57.7649 48.2693
9685 1 21.3651 59.3475 49.8519
9686 1 19.7825 57.7649 51.4345
9687 1 21.3651 59.3475 53.0171
9688 1 19.7825 57.7649 54.5997
9689 1 21.3651 59.3475 56.1823
9690 1 19.7825 57.7649 57.7649
9691 1 21.3651 59.3475 59.3475
9692 1 19.7825 57.7649 60.9301
9693 1 21.3651 59.3475 62.5127
9694 1 19.7825 57.7649 64.0953
9695 1 21.3651 59.3475 65.6779
9696 1 19.7825 57.7649 67.2605
9697 1 21.3651 59.3475 68.8431
9698 1 19.7825 57.7649 70.4257
9699 1 21.3651 59.3475 72.0083
9700 1 19.7825 57.7649 73.5909
9701 1 21.3651 59.3475 75.1735
9702 1 19.7825 57.7649 76.7561
9703 1 21.3651 59.3475 78.3387
9704 1 19.7825 60.9301 0.7913
9705 1 21.3651 62.5127 2.3739
9706 1 19.7825 60.9301 3.9565
9707 1 21.3651 62.5127 5.5391
9708 1 19.7825 60.9301 7.1217
9709 1 21.3651 62.5127 8.7043
9710 1 19.7825 60.9301 10.2869
9711 1 21.3651 62.5127 11.8695
9712 1 19.7825 60.9301 13.4521
9713 1 21.3651 62.5127 15.0347
9714 1 19.7825 60.9301 16.6173
9715 1 21.3651 62.5127 18.1999
9716 1 19.7825 60.9301 19.7825
9717 1 21.3651 62.5127 21.3651
9718 1 19.7825 60.9301 22.9477
9719 1 21.3651 62.5127 24.5303
9720 1 19.7825 60.9301 26.1129
9721 1 21.3651 62.5127 27.6955
9722 1 19.7825 60.9301 29.2781
9723 1 21.3651 62.5127 30.8607
9724 1 19.7825 60.9301 32.4433
9725 1 21.3651 62.5127 34.0259
9726 1 19.7825 60.9301 35.6085
9727 1 21.3651 62.5127 37.1911
9728 1 19.7825 60.9301 38.7737
9729 1 21.3651 62.5127 40.3563
9730 1 19.7825 60.9301 41.9389
9731 1 21.3651 62.5127 43.5215
9732 1 19.7825 60.9301 45.1041
9733 1 21.3651 62.5127 46.6867
9734 1 19.7825 60.9301 48.2693
9735 1 21.3651 62.5127 49.8519
9736 1 19.7825 60.9301 51.4345
9737 1 21.3651 62.5127 53.0171
9738 1 19.7825 60.9301 54.5997
9739 1 21.3651 62.5127 56.1823
9740 1 19.7825 60.9301 57.7649
9741 1 21.3651 62.5127 59.3475
9742 1 19.7825 60.9301 60.9301
9743 1 21.3651 62.5127 62.5127
9744 1 19.7825 60.9301 64.0953
9745 1 21.3651 62.5127 65.6779
9746 1 19.7825 60.9301 67.2605
9747 1 21.3651 62.5127 68.8431
9748 1 19.7825 60.9301 70.4257
9749 1 21.3651 62.5127 72.0083
9750 1 19.7825 60.9301 73.5909
9751 1 21.3651 62.5127 75.1735
9752 1 19.7825 60.9301 76.7561
9753 1 21.3651 62.5127 78.3387
9754 1 19.7825 64.0953 0.7913
9755 1 21.3651 65.6779 2.3739
9756 1 19.7825 64.0953 3.9565
9757 1 21.3651 65.6779 5.5391
9758 1 19.7825 64.0953 7.1217
9759 1 21.3651 65.6779 8.7043
9760 1 19.7825 64.0953 10.2869
9761 1 21.3651 65.6779 11.8695
9762 1 19.7825 64.0953 13.4521
9763 1 21.3651 65.6779 15.0347
9764 1 19.7825 64.0953 16.6173
9765 1 21.3651 65.6779 18.1999
9766 1 19.7825 64.0953 19.7825
9767 1 21.3651 65.6779 21.3651
9768 1 19.7825 64.0953 22.9477
9769 1 21.3651 65.6779 24.5303
9770 1 19.7825 64.0953 26.1129
9771 1 21.3651 65.6779 27.6955
9772 1 19.7825 64.0953 29.2781
9773 1 21.3651 65.6779 30.8607
9774 1 19.7825 64.0953 32.4433
9775 1 21.3651 65.6779 34.0259
9776 1 19.7825 64.0953 35.6085
9777 1 21.3651 65.6779 37.1911
9778 1 19.7825 64.0953 38.7737
9779 1 21.3651 65.6779 40.3563
9780 1 19.7825 64.0953 41.9389
9781 1 21.3651 65.6779 43.5215
9782 1 19.7825 64.0953 45.1041
9783 1 21.3651 65.6779 46.6867
9784 1 19.7825 64.0953 48.2693
9785 1 21.3651 65.6779 49.8519
9786 1 19.7825 64.0953 51.4345
9787 1 21.3651 65.6779 53.0171
9788 1 19.7825 64.0953 54.5997
9789 1 21.3651 65.6779 56.1823
9790 1 19.7825 64.0953 57.7649
9791 1 21.3651 65.6779 59.3475
9792 1 19.7825 64.0953 60.9301
9793 1 21.3651 65.6779 62.5127
9794 1 19.7825 64.0953 64.0953
9795 1 21.3651 65.6779 65.6779
9796 1 19.7825 64.0953 67.2605
9797 1 21.3651 65.6779 68.8431
9798 1 19.7825 64.0953 70.4257
9799 1 21.3651 65.6779 72.0083
9800 1 19.7825 64.0953 73.5909
9801 1 21.3651 65.6779 75.1735
9802 1 19.7825 64.0953 76.7561
9803 1 21.3651 65.6779 78.3387
9804 1 19.7825 67.2605 0.7913
9805 1 21.3651 68.8431 2.3739
9806 1 19.7825 67.2605 3.9565
9807 1 21.3651 68.8431 5.5391
9808 1 19.7825 67.2605 7.1217
9809 1 21.3651 68.8431 8.7043
9810 1 19.7825 67.2605 10.2869
9811 1 21.3651 68.8431 11.8695
9812 1 19.7825 67.2605 13.4521
9813 1 21.3651 68.8431 15.0347
9814 1 19.7825 67.2605 16.6173
9815 1 21.3651 68.8431 18.1999
9816 1 19.7825 67.2605 19.7825
9817 1 21.3651 68.8431 21.3651
9818 1 19.7825 67.2605 22.9477
9819 1 21.3651 68.8431 24.5303
9820 1 19.7825 67.2605 26.1129
9821 1 21.3651 68.8431 27.6955
9822 1 19.7825 67.2605 29.2781
9823 1 21.3651 68.8431 30.8607
9824 1 19.7825 67.2605 32.4433
9825 1 21.3651 68.8431 34.0259
9826 1 19.7825 67.2605 35.6085
9827 1 21.3651 68.8431 37.1911
9828 1 19.7825 67.2605 38.7737
9829 1 21.3651 68.8431 40.3563
9830 1 19.7825 67.2605 41.9389
9831 1 21.3651 68.8431 43.5215
9832 1 19.7825 67.2605 45.1041
9833 1 21.3651 68.8431 46.6867
9834 1 19.7825 67.2605 48.2693
9835 1 21.3651 68.8431 49.8519
9836 1 19.7825 67.2605 51.4345
9837 1 21.3651 68.8431 53.0171
9838 1 19.7825 67.2605 54.5997
9839 1 21.3651 68.8431 56.1823
9840 1 19.7825 67.2605 57.7649
9841 1 21.3651 68.8431 59.3475
9842 1 19.7825 67.2605 60.9301
9843 1 21.3651 68.8431 62.5127
9844 1 19.7825 67.2605 64.0953
9845 1 21.3651 68.8431 65.6779
9846 1 19.7825 67.2605 67.2605
9847 1 21.3651 68.8431 68.8431
9848 1 19.7825 67.2605 70.4257
9849 1 21.3651 68.8431 72.0083
9850 1 19.7825 67.2605 73.5909
9851 1 21.3651 68.8431 75.1735
9852 1 19.7825 67.2605 76.7561
9853 1 21.3651 68.8431 78.3387
9854 1 19.7825 70.4257 0.7913
9855 1 21.3651 72.0083 2.3739
9856 1 19.7825 70.4257 3.9565
9857 1 21.3651 72.0083 5.5391
9858 1 19.7825 70.4257 7.1217
9859 1 21.3651 72.0083 8.7043
9860 1 19.7825 70.4257 10.2869
9861 1 21.3651 72.0083 11.8695
9862 1 19.7825 70.4257 13.4521
9863 1 21.3651 72.0083 15.0347
9864 1 19.7825 70.4257 16.6173
9865 1 21.3651 72.0083 18.1999
9866 1 19.7825 70.4257 19.7825
9867 1 21.3651 72.0083 21.3651
9868 1 19.7825 70.4257 22.9477
9869 1 21.3651 72.0083 24.5303
9870 1 19.7825 70.4257 26.1129
9871 1 21.3651 72.0083 27.6955
9872 1 19.7825 70.4257 29.2781
9873 1 21.3651 72.0083 30.8607
9874 1 19.7825 70.4257 32.4433
9875 1 21.3651 72.0083 34.0259
9876 1 19.7825 70.4257 35.6085
9877 1 21.3651 72.0083 37.1911
9878 1 19.7825 70.4257 38.7737
9879 1 21.3651 72.0083 40.3563
9880 1 19.7825 70.4257 41.9389
9881 1 21.3651 72.0083 43.5215
9882 1 19.7825 70.4257 45.1041
9883 1 21.3651 72.0083 46.6867
9884 1 19.7825 70.4257 48.2693
9885 1 21.3651 72.0083 49.8519
9886 1 19.7825 70.4257 51.4345
9887 1 21.3651 72.0083 53.0171
9888 1 19.7825 70.4257 54.5997
9889 1 21.3651 72.0083 56.1823
9890 1 19.7825 70.4257 57.7649
9891 1 21.3651 72.0083 59.3475
9892 1 19.7825 70.4257 60.9301
9893 1 21.3651 72.0083 62.5127
9894 1 19.7825 70.4257 64.0953
9895 1 21.3651 72.0083 65.6779
9896 1 19.7825 70.4257 67.2605
9897 1 21.3651 72.0083 68.8431
9898 1 19.7825 70.4257 70.4257
9899 1 21.3651 72.0083 72.0083
9900 1 19.7825 70.4257 73.5909
9901 1 21.3651 72.0083 75.1735
9902 1 19.7825 70.4257 76.7561
9903 1 21.3651 72.0083 78.3387
9904 1 19.7825 73.5909 0.7913
9905 1 21.3651 75.1735 2.3739
9906 1 19.7825 73.5909 3.9565
9907 1 21.3651 75.1735 5.5391
9908 1 19.7825 73.5909 7.1217
9909 1 21.3651 75.1735 8.7043
9910 1 19.7825 73.5909 10.2869
9911 1 21.3651 75.1735 11.8695
9912 1 19.7825 73.5909 13.4521
9913 1 21.3651 75.1735 15.0347
9914 1 19.7825 73.5909 16.6173
9915 1 21.3651 75.1735 18.1999
9916 1 19.7825 73.5909 19.7825
9917 1 21.3651 75.1735 21.3651
9918 1 19.7825 73.5909 22.9477
9919 1 21.3651 75.1735 24.5303
9920 1 19.7825 73.5909 26.1129
9921 1 21.3651 75.1735 27.6955
9922 1 19.7825 73.5909 29.2781
9923 1 21.3651 75.1735 30.8607
9924 1 19.7825 73.5909 32.4433
9925 1 21.3651 75.1735 34.0259
9926 1 19.7825 73.5909 35.6085
9927 1 21.3651 75.1735 37.1911
9928 1 19.7825 73.5909 38.7737
9929 1 21.3651 75.1735 40.3563
9930 1 19.7825 73.5909 41.9389
9931 1 21.3651 75.1735 43.5215
9932 1 19.7825 73.5909 45.1041
9933 1 21.3651 75.1735 46.6867
9934 1 19.7825 73.5909 48.2693
9935 1 21.3651 75.1735 49.8519
9936 1 19.7825 73.5909 51.4345
9937 1 21.3651 75.1735 53.0171
9938 1 19.7825 73.5909 54.5997
9939 1 21.3651 75.1735 56.1823
9940 1 19.7825 73.5909 57.7649
9941 1 21.3651 75.1735 59.3475
9942 1 19.7825 73.5909 60.9301
9943 1 21.3651 75.1735 62.5127
9944 1 19.7825 73.5909 64.0953
9945 1 21.3651 75.1735 65.6779
9946 1 19.7825 73.5909 67.2605
9947 1 21.3651 75.1735 68.8431
9948 1 19.7825 73.5909 70.4257
9949 1 21.3651 75.1735 72.0083
9950 1 19.7825 73.5909 73.5909
9951 1 21.3651 75.1735 75.1735
9952 1 19.7825 73.5909 76.7561
9953 1 21.3651 75.1735 78.3387
9954 1 19.7825 76.7561 0.7913
9955 1 21.3651 78.3387 2.3739
9956 1 19.7825 76.7561 3.9565
9957 1 21.3651 78.3387 5.5391
9958 1 19.7825 76.7561 7.1217
9959 1 21.3651 78.3387 8.7043
9960 1 19.7825 76.7561 10.2869
9961 1 21.3651 78.3387 11.8695
9962 1 19.7825 76.7561 13.4521
9963 1 21.3651 78.3387 15.0347
9964 1 19.7825 76.7561 16.6173
9965 1 21.3651 78.3387 18.1999
9966 1 19.7825 76.7561 19.7825
9967 1 21.3651 78.3387 21.3651
9968 1 19.7825 76.7561 22.9477
9969 1 21.3651 78.3387 24.5303
9970 1 19.7825 76.7561 26.1129
9971 1 21.3651 78.3387 27.6955
9972 1 19.7825 76.7561 29.2781
9973 1 21.3651 78.3387 30.8607
9974 1 19.7825 76.7561 32.4433
9975 1 21.3651 78.3387 34.0259
9976 1 19.7825 76.7561 35.6085
9977 1 21.3651 78.3387 37.1911
9978 1 19.7825 76.7561 38.7737
9979 1 21.3651 78.3387 40.3563
9980 1 19.7825 76.7561 41.9389
9981 1 21.3651 78.3387 43.5215
9982 1 19.7825 76.7561 45.1041
9983 1 21.3651 78.3387 46.6867
9984 1 19.7825 76.7561 48.2693
9985 1 21.3651 78.3387 49.8519
9986 1 19.7825 76.7561 51.4345
9987 1 21.3651 78.3387 53.0171
9988 1 19.7825 76.7561 54.5997
9989 1 21.3651 78.3387 56.1823
9990 1 19.7825 76.7561 57.7649
9991 1 21.3651 78.3387 59.3475
9992 1 19.7825 76.7561 60.9301
9993 1 21.3651 78.3387 62.5127
9994 1 19.7825 76.7561 64.0953
9995 1 21.3651 78.3387 65.6779
9996 1 19.7825 76.7561 67.2605
9997 1 21.3651 78.3387 68.8431
9998 1 19.7825 76.7561 70.4257
9999 1 21.3651 78.3387 72.0083
10000 1 19.7825 76.7561 73.5909
10001 1 21.3651 78.3387 75.1735
10002 1 19.7825 76.7561 76.7561
10003 1 21.3651 78.3387 78.3387
10004 1 22.9477 0.7913 0.7913
10005 1 24.5303 2.3739 2.3739
10006 1 22.9477 0.7913 3.9565
10007 1 24.5303 2.3739 5.5391
10008 1 22.9477 0.7913 7.1217
10009 1 24.5303 2.3739 8.7043
10010 1 22.9477 0.7913 10.2869
10011 1 24.5303 2.3739 11.8695
10012 1 22.9477 0.7913 13.4521
10013 1 24.5303 2.3739 15.0347
10014 1 22.9477 0.7913 16.6173
10015 1 24.5303 2.3739 18.1999
10016 1 22.9477 0.7913 19.7825
10017 1 24.5303 2.3739 21.3651
10018 1 22.9477 0.7913 22.9477
10019 1 24.5303 2.3739 24.5303
10020 1 22.9477 0.7913 26.1129
10021 1 24.5303 2.3739 27.6955
10022 1 22.9477 0.7913 29.2781
10023 1 24.5303 2.3739 30.8607
10024 1 22.9477 0.7913 32.4433
10025 1 24.5303 2.3739 34.0259
10026 1 22.9477 0.7913 35.6085
10027 1 24.5303 2.3739 37.1911
10028 1 22.9477 0.7913 38.7737
10029 1 24.5303 2.3739 40.3563
10030 1 22.9477 0.7913 41.9389
10031 1 24.5303 2.3739 43.5215
10032 1 22.9477 0.7913 45.1041
10033 1 24.5303 2.3739 46.6867
10034 1 22.9477 0.7913 48.2693
10035 1 24.5303 2.3739 49.8519
10036 1 22.9477 0.7913 51.4345
10037 1 24.5303 2.3739 53.0171
10038 1 22.9477 0.7913 54.5997
10039 1 24.5303 2.3739 56.1823
10040 1 22.9477 0.7913 57.7649
10041 1 24.5303 2.3739 59.3475
10042 1 22.9477 0.7913 60.9301
10043 1 24.5303 2.3739 62.5127
10044 1 22.9477 0.7913 64.0953
10045 1 24.5303 2.3739 65.6779
10046 1 22.9477 0.7913 67.2605
10047 1 24.5303 2.3739 68.8431
10048 1 22.9477 0.7913 70.4257
10049 1 24.5303 2.3739 72.0083
10050 1 22.9477 0.7913 73.5909
10051 1 24.5303 2.3739 75.1735
10052 1 22.9477 0.7913 76.7561
10053 1 24.5303 2.3739 78.3387
10054 1 22.9477 3.9565 0.7913
10055 1 24.5303 5.5391 2.3739
10056 1 22.9477 3.9565 3.9565
10057 1 24.5303 5.5391 5.5391
10058 1 22.9477 3.9565 7.1217
10059 1 24.5303 5.5391 8.7043
10060 1 22.9477 3.9565 10.2869
10061 1 24.5303 5.5391 11.8695
10062 1 22.9477 3.9565 13.4521
10063 1 24.5303 5.5391 15.0347
10064 1 22.9477 3.9565 16.6173
10065 1 24.5303 5.5391 18.1999
10066 1 22.9477 3.9565 19.7825
10067 1 24.5303 5.5391 21.3651
10068 1 22.9477 3.9565 22.9477
10069 1 24.5303 5.5391 24.5303
10070 1 22.9477 3.9565 26.1129
10071 1 24.5303 5.5391 27.6955
10072 1 22.9477 3.9565 29.2781
10073 1 24.5303 5.5391 30.8607
10074 1 22.9477 3.9565 32.4433
10075 1 24.5303 5.5391 34.0259
10076 1 22.9477 3.9565 35.6085
10077 1 24.5303 5.5391 37.1911
10078 1 22.9477 3.9565 38.7737
10079 1 24.5303 5.5391 40.3563
10080 1 22.9477 3.9565 41.9389
10081 1 24.5303 5.5391 43.5215
10082 1 22.9477 3.9565 45.1041
10083 1 24.5303 5.5391 46.6867
10084 1 22.9477 3.9565 48.2693
10085 1 24.5303 5.5391 49.8519
10086 1 22.9477 3.9565 51.4345
10087 1 24.5303 5.5391 53.0171
10088 1 22.9477 3.9565 54.5997
10089 1 24.5303 5.5391 56.1823
10090 1 22.9477 3.9565 57.7649
10091 1 24.5303 5.5391 59.3475
10092 1 22.9477 3.9565 60.9301
10093 1 24.5303 5.5391 62.5127
10094 1 22.9477 3.9565 64.0953
10095 1 24.5303 5.5391 65.6779
10096 1 22.9477 3.9565 67.2605
10097 1 24.5303 5.5391 68.8431
10098 1 22.9477 3.9565 70.4257
10099 1 24.5303 5.5391 72.0083
10100 1 22.9477 3.9565 73.5909
10101 1 24.5303 5.5391 75.1735
10102 1 22.9477 3.9565 76.7561
10103 1 24.5303 5.5391 78.3387
10104 1 22.9477 7.1217 0.7913
10105 1 24.5303 8.7043 2.3739
10106 1 22.9477 7.1217 3.9565
10107 1 24.5303 8.7043 5.5391
10108 1 22.9477 7.1217 7.1217
10109 1 24.5303 8.7043 8.7043
10110 1 22.9477 7.1217 10.2869
10111 1 24.5303 8.7043 11.8695
10112 1 22.9477 7.1217 13.4521
10113 1 24.5303 8.7043 15.0347
10114 1 22.9477 7.1217 16.6173
10115 1 24.5303 8.7043 18.1999
10116 1 22.9477 7.1217 19.7825
10117 1 24.5303 8.7043 21.3651
10118 1 22.9477 7.1217 22.9477
10119 1 24.5303 8.7043 24.5303
10120 1 22.9477 7.1217 26.1129
10121 1 24.5303 8.7043 27.6955
10122 1 22.9477 7.1217 29.2781
10123 1 24.5303 8.7043 30.8607
10124 1 22.9477 7.1217 32.4433
10125 1 24.5303 8.7043 34.0259
10126 1 22.9477 7.1217 35.6085
10127 1 24.5303 8.7043 37.1911
10128 1 22.9477 7.1217 38.7737
10129 1 24.5303 8.7043 40.3563
10130 1 22.9477 7.1217 41.9389
10131 1 24.5303 8.7043 43.5215
10132 1 22.9477 7.1217 45.1041
10133 1 24.5303 8.7043 46.6867
10134 1 22.9477 7.1217 48.2693
10135 1 24.5303 8.7043 49.8519
10136 1 22.9477 7.1217 51.4345
10137 1 24.5303 8.7043 53.0171
10138 1 22.9477 7.1217 54.5997
10139 1 24.5303 8.7043 56.1823
10140 1 22.9477 7.1217 57.7649
10141 1 24.5303 8.7043 59.3475
10142 1 22.9477 7.1217 60.9301
10143 1 24.5303 8.7043 62.5127
10144 1 22.9477 7.1217 64.0953
10145 1 24.5303 8.7043 65.6779
10146 1 22.9477 7.1217 67.2605
10147 1 24.5303 8.7043 68.8431
10148 1 22.9477 7.1217 70.4257
10149 1 24.5303 8.7043 72.0083
10150 1 22.9477 7.1217 73.5909
10151 1 24.5303 8.7043 75.1735
10152 1 22.9477 7.1217 76.7561
10153 1 24.5303 8.7043 78.3387
10154 1 22.9477 10.2869 0.7913
10155 1 24.5303 11.8695 2.3739
10156 1 22.9477 10.2869 3.9565
10157 1 24.5303 11.8695 5.5391
10158 1 22.9477 10.2869 7.1217
10159 1 24.5303 11.8695 8.7043
10160 1 22.9477 10.2869 10.2869
10161 1 24.5303 11.8695 11.8695
10162 1 22.9477 10.2869 13.4521
10163 1 24.5303 11.8695 15.0347
10164 1 22.9477 10.2869 16.6173
10165 1 24.5303 11.8695 18.1999
10166 1 22.9477 10.2869 19.7825
10167 1 24.5303 11.8695 21.3651
10168 1 22.9477 10.2869 22.9477
10169 1 24.5303 11.8695 24.5303
10170 1 22.9477 10.2869 26.1129
10171 1 24.5303 11.8695 27.6955
10172 1 22.9477 10.2869 29.2781
10173 1 24.5303 11.8695 30.8607
10174 1 22.9477 10.2869 32.4433
10175 1 24.5303 11.8695 34.0259
10176 1 22.9477 10.2869 35.6085
10177 1 24.5303 11.8695 37.1911
10178 1 22.9477 10.2869 38.7737
10179 1 24.5303 11.8695 40.3563
10180 1 22.9477 10.2869 41.9389
10181 1 24.5303 11.8695 43.5215
10182 1 22.9477 10.2869 45.1041
10183 1 24.5303 11.8695 46.6867
10184 1 22.9477 10.2869 48.2693
10185 1 24.5303 11.8695 49.8519
10186 1 22.9477 10.2869 51.4345
10187 1 24.5303 11.8695 53.0171
10188 1 22.9477 10.2869 54.5997
10189 1 24.5303 11.8695 56.1823
10190 1 22.9477 10.2869 57.7649
10191 1 24.5303 11.8695 59.3475
10192 1 22.9477 10.2869 60.9301
10193 1 24.5303 11.8695 62.5127
10194 1 22.9477 10.2869 64.0953
10195 1 24.5303 11.8695 65.6779
10196 1 22.9477 10.2869 67.2605
10197 1 24.5303 11.8695 68.8431
10198 1 22.9477 10.2869 70.4257
10199 1 24.5303 11.8695 72.0083
10200 1 22.9477 10.2869 73.5909
10201 1 24.5303 11.8695 75.1735
10202 1 22.9477 10.2869 76.7561
10203 1 24.5303 11.8695 78.3387
10204 1 22.9477 13.4521 0.7913
10205 1 24.5303 15.0347 2.3739
10206 1 22.9477 13.4521 3.9565
10207 1 24.5303 15.0347 5.5391
10208 1 22.9477 13.4521 7.1217
10209 1 24.5303 15.0347 8.7043
10210 1 22.9477 13.4521 10.2869
10211 1 24.5303 15.0347 11.8695
10212 1 22.9477 13.4521 13.4521
10213 1 24.5303 15.0347 15.0347
10214 1 22.9477 13.4521 16.6173
10215 1 24.5303 15.0347 18.1999
10216 1 22.9477 13.4521 19.7825
10217 1 24.5303 15.0347 21.3651
10218 1 22.9477 13.4521 22.9477
10219 1 24.5303 15.0347 24.5303
10220 1 22.9477 13.4521 26.1129
10221 1 24.5303 15.0347 27.6955
10222 1 22.9477 13.4521 29.2781
10223 1 24.5303 15.0347 30.8607
10224 1 22.9477 13.4521 32.4433
10225 1 24.5303 15.0347 34.0259
10226 1 22.9477 13.4521 35.6085
10227 1 24.5303 15.0347 37.1911
10228 1 22.9477 13.4521 38.7737
10229 1 24.5303 15.0347 40.3563
10230 1 22.9477 13.4521 41.9389
10231 1 24.5303 15.0347 43.5215
10232 1 22.9477 13.4521 45.1041
10233 1 24.5303 15.0347 46.6867
10234 1 22.9477 13.4521 48.2693
10235 1 24.5303 15.0347 49.8519
10236 1 22.9477 13.4521 51.4345
10237 1 24.5303 15.0347 53.0171
10238 1 22.9477 13.4521 54.5997
10239 1 24.5303 15.0347 56.1823
10240 1 22.9477 13.4521 57.7649
10241 1 24.5303 15.0347 59.3475
10242 1 22.9477 13.4521 60.9301
10243 1 24.5303 15.0347 62.5127
10244 1 22.9477 13.4521 64.0953
10245 1 24.5303 15.0347 65.6779
10246 1 22.9477 13.4521 67.2605
10247 1 24.5303 15.0347 68.8431
10248 1 22.9477 13.4521 70.4257
10249 1 24.5303 15.0347 72.0083
10250 1 22.9477 13.4521 73.5909
10251 1 24.5303 15.0347 75.1735
10252 1 22.9477 13.4521 76.7561
10253 1 24.5303 15.0347 78.3387
10254 1 22.9477 16.6173 0.7913
10255 1 24.5303 18.1999 2.3739
10256 1 22.9477 16.6173 3.9565
10257 1 24.5303 18.1999 5.5391
10258 1 22.9477 16.6173 7.1217
10259 1 24.5303 18.1999 8.7043
10260 1 22.9477 16.6173 10.2869
10261 1 24.5303 18.1999 11.8695
10262 1 22.9477 16.6173 13.4521
10263 1 24.5303 18.1999 15.0347
10264 1 22.9477 16.6173 16.6173
10265 1 24.5303 18.1999 18.1999
10266 1 22.9477 16.6173 19.7825
10267 1 24.5303 18.1999 21.3651
10268 1 22.9477 16.6173 22.9477
10269 1 24.5303 18.1999 24.5303
10270 1 22.9477 16.6173 26.1129
10271 1 24.5303 18.1999 27.6955
10272 1 22.9477 16.6173 29.2781
10273 1 24.5303 18.1999 30.8607
10274 1 22.9477 16.6173 32.4433
10275 1 24.5303 18.1999 34.0259
10276 1 22.9477 16.6173 35.6085
10277 1 24.5303 18.1999 37.1911
10278 1 22.9477 16.6173 38.7737
10279 1 24.5303 18.1999 40.3563
10280 1 22.9477 16.6173 41.9389
10281 1 24.5303 18.1999 43.5215
10282 1 22.9477 16.6173 45.1041
10283 1 24.5303 18.1999 46.6867
10284 1 22.9477 16.6173 48.2693
10285 1 24.5303 18.1999 49.8519
10286 1 22.9477 16.6173 51.4345
10287 1 24.5303 18.1999 53.0171
10288 1 22.9477 16.6173 54.5997
10289 1 24.5303 18.1999 56.1823
10290 1 22.9477 16.6173 57.7649
10291 1 24.5303 18.1999 59.3475
10292 1 22.9477 16.6173 60.9301
10293 1 24.5303 18.1999 62.5127
10294 1 22.9477 16.6173 64.0953
10295 1 24.5303 18.1999 65.6779
10296 1 22.9477 16.6173 67.2605
10297 1 24.5303 18.1999 68.8431
10298 1 22.9477 16.6173 70.4257
10299 1 24.5303 18.1999 72.0083
10300 1 22.9477 16.6173 73.5909
10301 1 24.5303 18.1999 75.1735
10302 1 22.9477 16.6173 76.7561
10303 1 24.5303 18.1999 78.3387
10304 1 22.9477 19.7825 0.7913
10305 1 24.5303 21.3651 2.3739
10306 1 22.9477 19.7825 3.9565
10307 1 24.5303 21.3651 5.5391
10308 1 22.9477 19.7825 7.1217
10309 1 24.5303 21.3651 8.7043
10310 1 22.9477 19.7825 10.2869
10311 1 24.5303 21.3651 11.8695
10312 1 22.9477 19.7825 13.4521
10313 1 24.5303 21.3651 15.0347
10314 1 22.9477 19.7825 16.6173
10315 1 24.5303 21.3651 18.1999
10316 1 22.9477 19.7825 19.7825
10317 1 24.5303 21.3651 21.3651
10318 1 22.9477 19.7825 22.9477
10319 1 24.5303 21.3651 24.5303
10320 1 22.9477 19.7825 26.1129
10321 1 24.5303 21.3651 27.6955
10322 1 22.9477 19.7825 29.2781
10323 1 24.5303 21.3651 30.8607
10324 1 22.9477 19.7825 32.4433
10325 1 24.5303 21.3651 34.0259
10326 1 22.9477 19.7825 35.6085
10327 1 24.5303 21.3651 37.1911
10328 1 22.9477 19.7825 38.7737
10329 1 24.5303 21.3651 40.3563
10330 1 22.9477 19.7825 41.9389
10331 1 24.5303 21.3651 43.5215
10332 1 22.9477 19.7825 45.1041
10333 1 24.5303 21.3651 46.6867
10334 1 22.9477 19.7825 48.2693
10335 1 24.5303 21.3651 49.8519
10336 1 22.9477 19.7825 51.4345
10337 1 24.5303 21.3651 53.0171
10338 1 22.9477 19.7825 54.5997
10339 1 24.5303 21.3651 56.1823
10340 1 22.9477 19.7825 57.7649
10341 1 24.5303 21.3651 59.3475
10342 1 22.9477 19.7825 60.9301
10343 1 24.5303 21.3651 62.5127
10344 1 22.9477 19.7825 64.0953
10345 1 24.5303 21.3651 65.6779
10346 1 22.9477 19.7825 67.2605
10347 1 24.5303 21.3651 68.8431
10348 1 22.9477 19.7825 70.4257
10349 1 24.5303 21.3651 72.0083
10350 1 22.9477 19.7825 73.5909
10351 1 24.5303 21.3651 75.1735
10352 1 22.9477 19.7825 76.7561
10353 1 24.5303 21.3651 78.3387
10354 1 22.9477 22.9477 0.7913
10355 1 24.5303 24.5303 2.3739
10356 1 22.9477 22.9477 3.9565
10357 1 24.5303 24.5303 5.5391
10358 1 22.9477 22.9477 7.1217
10359 1 24.5303 24.5303 8.7043
10360 1 22.9477 22.9477 10.2869
10361 1 24.5303 24.5303 11.8695
10362 1 22.9477 22.9477 13.4521
10363 1 24.5303 24.5303 15.0347
10364 1 22.9477 22.9477 16.6173
10365 1 24.5303 24.5303 18.1999
10366 1 22.9477 22.9477 19.7825
10367 1 24.5303 24.5303 21.3651
10368 1 22.9477 22.9477 22.9477
10369 1 24.5303 24.5303 24.5303
10370 1 22.9477 22.9477 26.1129
10371 1 24.5303 24.5303 27.6955
10372 1 22.9477 22.9477 29.2781
10373 1 24.5303 24.5303 30.8607
10374 1 22.9477 22.9477 32.4433
10375 1 24.5303 24.5303 34.0259
10376 1 22.9477 22.9477 35.6085
10377 1 24.5303 24.5303 37.1911
10378 1 22.9477 22.9477 38.7737
10379 1 24.5303 24.5303 40.3563
10380 1 22.9477 22.9477 41.9389
10381 1 24.5303 24.5303 43.5215
10382 1 22.9477 22.9477 45.1041
10383 1 24.5303 24.5303 46.6867
10384 1 22.9477 22.9477 48.2693
10385 1 24.5303 24.5303 49.8519
10386 1 22.9477 22.9477 51.4345
10387 1 24.5303 24.5303 53.0171
10388 1 22.9477 22.9477 54.5997
10389 1 24.5303 24.5303 56.1823
10390 1 22.9477 22.9477 57.7649
10391 1 24.5303 24.5303 59.3475
10392 1 22.9477 22.9477 60.9301
10393 1 24.5303 24.5303 62.5127
10394 1 22.9477 22.9477 64.0953
10395 1 24.5303 24.5303 65.6779
10396 1 22.9477 22.9477 67.2605
10397 1 24.5303 24.5303 68.8431
10398 1 22.9477 22.9477 70.4257
10399 1 24.5303 24.5303 72.0083
10400 1 22.9477 22.9477 73.5909
10401 1 24.5303 24.5303 75.1735
10402 1 22.9477 22.9477 76.7561
10403 1 24.5303 24.5303 78.3387
10404 1 22.9477 26.1129 0.7913
10405 1 24.5303 27.6955 2.3739
10406 1 22.9477 26.1129 3.9565
10407 1 24.5303 27.6955 5.5391
10408 1 22.9477 26.1129 7.1217
10409 1 24.5303 27.6955 8.7043
10410 1 22.9477 26.1129 10.2869
10411 1 24.5303 27.6955 11.8695
10412 1 22.9477 26.1129 13.4521
10413 1 24.5303 27.6955 15.0347
10414 1 22.9477 26.1129 16.6173
10415 1 24.5303 27.6955 18.1999
10416 1 22.9477 26.1129 19.7825
10417 1 24.5303 27.6955 21.3651
10418 1 22.9477 26.1129 22.9477
10419 1 24.5303 27.6955 24.5303
10420 1 22.9477 26.1129 26.1129
10421 1 24.5303 27.6955 27.6955
10422 1 22.9477 26.1129 29.2781
10423 1 24.5303 27.6955 30.8607
10424 1 22.9477 26.1129 32.4433
10425 1 24.5303 27.6955 34.0259
10426 1 22.9477 26.1129 35.6085
10427 1 24.5303 27.6955 37.1911
10428 1 22.9477 26.1129 38.7737
10429 1 24.5303 27.6955 40.3563
10430 1 22.9477 26.1129 41.9389
10431 1 24.5303 27.6955 43.5215
10432 1 22.9477 26.1129 45.1041
10433 1 24.5303 27.6955 46.6867
10434 1 22.9477 26.1129 48.2693
10435 1 24.5303 27.6955 49.8519
10436 1 22.9477 26.1129 51.4345
10437 1 24.5303 27.6955 53.0171
10438 1 22.9477 26.1129 54.5997
10439 1 24.5303 27.6955 56.1823
10440 1 22.9477 26.1129 57.7649
10441 1 24.5303 27.6955 59.3475
10442 1 22.9477 26.1129 60.9301
10443 1 24.5303 27.6955 62.5127
10444 1 22.9477 26.1129 64.0953
10445 1 24.5303 27.6955 65.6779
10446 1 22.9477 26.1129 67.2605
10447 1 24.5303 27.6955 68.8431
10448 1 22.9477 26.1129 70.4257
10449 1 24.5303 27.6955 72.0083
10450 1 22.9477 26.1129 73.5909
10451 1 24.5303 27.6955 75.1735
10452 1 22.9477 26.1129 76.7561
10453 1 24.5303 27.6955 78.3387
10454 1 22.9477 29.2781 0.7913
10455 1 24.5303 30.8607 2.3739
10456 1 22.9477 29.2781 3.9565
10457 1 24.5303 30.8607 5.5391
10458 1 22.9477 29.2781 7.1217
10459 1 24.5303 30.8607 8.7043
10460 1 22.9477 29.2781 10.2869
10461 1 24.5303 30.8607 11.8695
10462 1 22.9477 29.2781 13.4521
10463 1 24.5303 30.8607 15.0347
10464 1 22.9477 29.2781 16.6173
10465 1 24.5303 30.8607 18.1999
10466 1 22.9477 29.2781 19.7825
10467 1 24.5303 30.8607 21.3651
10468 1 22.9477 29.2781 22.9477
10469 1 24.5303 30.8607 24.5303
10470 1 22.9477 29.2781 26.1129
10471 1 24.5303 30.8607 27.6955
10472 1 22.9477 29.2781 29.2781
10473 1 24.5303 30.8607 30.8607
10474 1 22.9477 29.2781 32.4433
10475 1 24.5303 30.8607 34.0259
10476 1 22.9477 29.2781 35.6085
10477 1 24.5303 30.8607 37.1911
10478 1 22.9477 29.2781 38.7737
10479 1 24.5303 30.8607 40.3563
10480 1 22.9477 29.2781 41.9389
10481 1 24.5303 30.8607 43.5215
10482 1 22.9477 29.2781 45.1041
10483 1 24.5303 30.8607 46.6867
10484 1 22.9477 29.2781 48.2693
10485 1 24.5303 30.8607 49.8519
10486 1 22.9477 29.2781 51.4345
10487 1 24.5303 30.8607 53.0171
10488 1 22.9477 29.2781 54.5997
10489 1 24.5303 30.8607 56.1823
10490 1 22.9477 29.2781 57.7649
10491 1 24.5303 30.8607 59.3475
10492 1 22.9477 29.2781 60.9301
10493 1 24.5303 30.8607 62.5127
10494 1 22.9477 29.2781 64.0953
10495 1 24.5303 30.8607 65.6779
10496 1 22.9477 29.2781 67.2605
10497 1 24.5303 30.8607 68.8431
10498 1 22.9477 29.2781 70.4257
10499 1 24.5303 30.8607 72.0083
10500 1 22.9477 29.2781 73.5909
10501 1 24.5303 30.8607 75.1735
10502 1 22.9477 29.2781 76.7561
10503 1 24.5303 30.8607 78.3387
10504 1 22.9477 32.4433 0.7913
10505 1 24.5303 34.0259 2.3739
10506 1 22.9477 32.4433 3.9565
10507 1 24.5303 34.0259 5.5391
10508 1 22.9477 32.4433 7.1217
10509 1 24.5303 34.0259 8.7043
10510 1 22.9477 32.4433 10.2869
10511 1 24.5303 34.0259 11.8695
10512 1 22.9477 32.4433 13.4521
10513 1 24.5303 34.0259 15.0347
10514 1 22.9477 32.4433 16.6173
10515 1 24.5303 34.0259 18.1999
10516 1 22.9477 32.4433 19.7825
10517 1 24.5303 34.0259 21.3651
10518 1 22.9477 32.4433 22.9477
10519 1 24.5303 34.0259 24.5303
10520 1 22.9477 32.4433 26.1129
10521 1 24.5303 34.0259 27.6955
10522 1 22.9477 32.4433 29.2781
10523 1 24.5303 34.0259 30.8607
10524 1 22.9477 32.4433 32.4433
10525 1 24.5303 34.0259 34.0259
10526 1 22.9477 32.4433 35.6085
10527 1 24.5303 34.0259 37.1911
10528 1 22.9477 32.4433 38.7737
10529 1 24.5303 34.0259 40.3563
10530 1 22.9477 32.4433 41.9389
10531 1 24.5303 34.0259 43.5215
10532 1 22.9477 32.4433 45.1041
10533 1 24.5303 34.0259 46.6867
10534 1 22.9477 32.4433 48.2693
10535 1 24.5303 34.0259 49.8519
10536 1 22.9477 32.4433 51.4345
10537 1 24.5303 34.0259 53.0171
10538 1 22.9477 32.4433 54.5997
10539 1 24.5303 34.0259 56.1823
10540 1 22.9477 32.4433 57.7649
10541 1 24.5303 34.0259 59.3475
10542 1 22.9477 32.4433 60.9301
10543 1 24.5303 34.0259 62.5127
10544 1 22.9477 32.4433 64.0953
10545 1 24.5303 34.0259 65.6779
10546 1 22.9477 32.4433 67.2605
10547 1 24.5303 34.0259 68.8431
10548 1 22.9477 32.4433 70.4257
10549 1 24.5303 34.0259 72.0083
10550 1 22.9477 32.4433 73.5909
10551 1 24.5303 34.0259 75.1735
10552 1 22.9477 32.4433 76.7561
10553 1 24.5303 34.0259 78.3387
10554 1 22.9477 35.6085 0.7913
10555 1 24.5303 37.1911 2.3739
10556 1 22.9477 35.6085 3.9565
10557 1 24.5303 37.1911 5.5391
10558 1 22.9477 35.6085 7.1217
10559 1 24.5303 37.1911 8.7043
10560 1 22.9477 35.6085 10.2869
10561 1 24.5303 37.1911 11.8695
10562 1 22.9477 35.6085 13.4521
10563 1 24.5303 37.1911 15.0347
10564 1 22.9477 35.6085 16.6173
10565 1 24.5303 37.1911 18.1999
10566 1 22.9477 35.6085 19.7825
10567 1 24.5303 37.1911 21.3651
10568 1 22.9477 35.6085 22.9477
10569 1 24.5303 37.1911 24.5303
10570 1 22.9477 35.6085 26.1129
10571 1 24.5303 37.1911 27.6955
10572 1 22.9477 35.6085 29.2781
10573 1 24.5303 37.1911 30.8607
10574 1 22.9477 35.6085 32.4433
10575 1 24.5303 37.1911 34.0259
10576 1 22.9477 35.6085 35.6085
10577 1 24.5303 37.1911 37.1911
10578 1 22.9477 35.6085 38.7737
10579 1 24.5303 37.1911 40.3563
10580 1 22.9477 35.6085 41.9389
10581 1 24.5303 37.1911 43.5215
10582 1 22.9477 35.6085 45.1041
10583 1 24.5303 37.1911 46.6867
10584 1 22.9477 35.6085 48.2693
10585 1 24.5303 37.1911 49.8519
10586 1 22.9477 35.6085 51.4345
10587 1 24.5303 37.1911 53.0171
10588 1 22.9477 35.6085 54.5997
10589 1 24.5303 37.1911 56.1823
10590 1 22.9477 35.6085 57.7649
10591 1 24.5303 37.1911 59.3475
10592 1 22.9477 35.6085 60.9301
10593 1 24.5303 37.1911 62.5127
10594 1 22.9477 35.6085 64.0953
10595 1 24.5303 37.1911 65.6779
10596 1 22.9477 35.6085 67.2605
10597 1 24.5303 37.1911 68.8431
10598 1 22.9477 35.6085 70.4257
10599 1 24.5303 37.1911 72.0083
10600 1 22.9477 35.6085 73.5909
10601 1 24.5303 37.1911 75.1735
10602 1 22.9477 35.6085 76.7561
10603 1 24.5303 37.1911 78.3387
10604 1 22.9477 38.7737 0.7913
10605 1 24.5303 40.3563 2.3739
10606 1 22.9477 38.7737 3.9565
10607 1 24.5303 40.3563 5.5391
10608 1 22.9477 38.7737 7.1217
10609 1 24.5303 40.3563 8.7043
10610 1 22.9477 38.7737 10.2869
10611 1 24.5303 40.3563 11.8695
10612 1 22.9477 38.7737 13.4521
10613 1 24.5303 40.3563 15.0347
10614 1 22.9477 38.7737 16.6173
10615 1 24.5303 40.3563 18.1999
10616 1 22.9477 38.7737 19.7825
10617 1 24.5303 40.3563 21.3651
10618 1 22.9477 38.7737 22.9477
10619 1 24.5303 40.3563 24.5303
10620 1 22.9477 38.7737 26.1129
10621 1 24.5303 40.3563 27.6955
10622 1 22.9477 38.7737 29.2781
10623 1 24.5303 40.3563 30.8607
10624 1 22.9477 38.7737 32.4433
10625 1 24.5303 40.3563 34.0259
10626 1 22.9477 38.7737 35.6085
10627 1 24.5303 40.3563 37.1911
10628 1 22.9477 38.7737 38.7737
10629 1 24.5303 40.3563 40.3563
10630 1 22.9477 38.7737 41.9389
10631 1 24.5303 40.3563 43.5215
10632 1 22.9477 38.7737 45.1041
10633 1 24.5303 40.3563 46.6867
10634 1 22.9477 38.7737 48.2693
10635 1 24.5303 40.3563 49.8519
10636 1 22.9477 38.7737 51.4345
10637 1 24.5303 40.3563 53.0171
10638 1 22.9477 38.7737 54.5997
10639 1 24.5303 40.3563 56.1823
10640 1 22.9477 38.7737 57.7649
10641 1 24.5303 40.3563 59.3475
10642 1 22.9477 38.7737 60.9301
10643 1 24.5303 40.3563 62.5127
10644 1 22.9477 38.7737 64.0953
10645 1 24.5303 40.3563 65.6779
10646 1 22.9477 38.7737 67.2605
10647 1 24.5303 40.3563 68.8431
10648 1 22.9477 38.7737 70.4257
10649 1 24.5303 40.3563 72.0083
10650 1 22.9477 38.7737 73.5909
10651 1 24.5303 40.3563 75.1735
10652 1 22.9477 38.7737 76.7561
10653 1 24.5303 40.3563 78.3387
10654 1 22.9477 41.9389 0.7913
10655 1 24.5303 43.5215 2.3739
10656 1 22.9477 41.9389 3.9565
10657 1 24.5303 43.5215 5.5391
10658 1 22.9477 41.9389 7.1217
10659 1 24.5303 43.5215 8.7043
10660 1 22.9477 41.9389 10.2869
10661 1 24.5303 43.5215 11.8695
10662 1 22.9477 41.9389 13.4521
10663 1 24.5303 43.5215 15.0347
10664 1 22.9477 41.9389 16.6173
10665 1 24.5303 43.5215 18.1999
10666 1 22.9477 41.9389 19.7825
10667 1 24.5303 43.5215 21.3651
10668 1 22.9477 41.9389 22.9477
10669 1 24.5303 43.5215 24.5303
10670 1 22.9477 41.9389 26.1129
10671 1 24.5303 43.5215 27.6955
10672 1 22.9477 41.9389 29.2781
10673 1 24.5303 43.5215 30.8607
10674 1 22.9477 41.9389 32.4433
10675 1 24.5303 43.5215 34.0259
10676 1 22.9477 41.9389 35.6085
10677 1 24.5303 43.5215 37.1911
10678 1 22.9477 41.9389 38.7737
10679 1 24.5303 43.5215 40.3563
10680 1 22.9477 41.9389 41.9389
10681 1 24.5303 43.5215 43.5215
10682 1 22.9477 41.9389 45.1041
10683 1 24.5303 43.5215 46.6867
10684 1 22.9477 41.9389 48.2693
10685 1 24.5303 43.5215 49.8519
10686 1 22.9477 41.9389 51.4345
10687 1 24.5303 43.5215 53.0171
10688 1 22.9477 41.9389 54.5997
10689 1 24.5303 43.5215 56.1823
10690 1 22.9477 41.9389 57.7649
10691 1 24.5303 43.5215 59.3475
10692 1 22.9477 41.9389 60.9301
10693 1 24.5303 43.5215 62.5127
10694 1 22.9477 41.9389 64.0953
10695 1 24.5303 43.5215 65.6779
10696 1 22.9477 41.9389 67.2605
10697 1 24.5303 43.5215 68.8431
10698 1 22.9477 41.9389 70.4257
10699 1 24.5303 43.5215 72.0083
10700 1 22.9477 41.9389 73.5909
10701 1 24.5303 43.5215 75.1735
10702 1 22.9477 41.9389 76.7561
10703 1 24.5303 43.5215 78.3387
10704 1 22.9477 45.1041 0.7913
10705 1 24.5303 46.6867 2.3739
10706 1 22.9477 45.1041 3.9565
10707 1 24.5303 46.6867 5.5391
10708 1 22.9477 45.1041 7.1217
10709 1 24.5303 46.6867 8.7043
10710 1 22.9477 45.1041 10.2869
10711 1 24.5303 46.6867 11.8695
10712 1 22.9477 45.1041 13.4521
10713 1 24.5303 46.6867 15.0347
10714 1 22.9477 45.1041 16.6173
10715 1 24.5303 46.6867 18.1999
10716 1 22.9477 45.1041 19.7825
10717 1 24.5303 46.6867 21.3651
10718 1 22.9477 45.1041 22.9477
10719 1 24.5303 46.6867 24.5303
10720 1 22.9477 45.1041 26.1129
10721 1 24.5303 46.6867 27.6955
10722 1 22.9477 45.1041 29.2781
10723 1 24.5303 46.6867 30.8607
10724 1 22.9477 45.1041 32.4433
10725 1 24.5303 46.6867 34.0259
10726 1 22.9477 45.1041 35.6085
10727 1 24.5303 46.6867 37.1911
10728 1 22.9477 45.1041 38.7737
10729 1 24.5303 46.6867 40.3563
10730 1 22.9477 45.1041 41.9389
10731 1 24.5303 46.6867 43.5215
10732 1 22.9477 45.1041 45.1041
10733 1 24.5303 46.6867 46.6867
10734 1 22.9477 45.1041 48.2693
10735 1 24.5303 46.6867 49.8519
10736 1 22.9477 45.1041 51.4345
10737 1 24.5303 46.6867 53.0171
10738 1 22.9477 45.1041 54.5997
10739 1 24.5303 46.6867 56.1823
10740 1 22.9477 45.1041 57.7649
10741 1 24.5303 46.6867 59.3475
10742 1 22.9477 45.1041 60.9301
10743 1 24.5303 46.6867 62.5127
10744 1 22.9477 45.1041 64.0953
10745 1 24.5303 46.6867 65.6779
10746 1 22.9477 45.1041 67.2605
10747 1 24.5303 46.6867 68.8431
10748 1 22.9477 45.1041 70.4257
10749 1 24.5303 46.6867 72.0083
10750 1 22.9477 45.1041 73.5909
10751 1 24.5303 46.6867 75.1735
10752 1 22.9477 45.1041 76.7561
10753 1 24.5303 46.6867 78.3387
10754 1 22.9477 48.2693 0.7913
10755 1 24.5303 49.8519 2.3739
10756 1 22.9477 48.2693 3.9565
10757 1 24.5303 49.8519 5.5391
10758 1 22.9477 48.2693 7.1217
10759 1 24.5303 49.8519 8.7043
10760 1 22.9477 48.2693 10.2869
10761 1 24.5303 49.8519 11.8695
10762 1 22.9477 48.2693 13.4521
10763 1 24.5303 49.8519 15.0347
10764 1 22.9477 48.2693 16.6173
10765 1 24.5303 49.8519 18.1999
10766 1 22.9477 48.2693 19.7825
10767 1 24.5303 49.8519 21.3651
10768 1 22.9477 48.2693 22.9477
10769 1 24.5303 49.8519 24.5303
10770 1 22.9477 48.2693 26.1129
10771 1 24.5303 49.8519 27.6955
10772 1 22.9477 48.2693 29.2781
10773 1 24.5303 49.8519 30.8607
10774 1 22.9477 48.2693 32.4433
10775 1 24.5303 49.8519 34.0259
10776 1 22.9477 48.2693 35.6085
10777 1 24.5303 49.8519 37.1911
10778 1 22.9477 48.2693 38.7737
10779 1 24.5303 49.8519 40.3563
10780 1 22.9477 48.2693 41.9389
10781 1 24.5303 49.8519 43.5215
10782 1 22.9477 48.2693 45.1041
10783 1 24.5303 49.8519 46.6867
10784 1 22.9477 48.2693 48.2693
10785 1 24.5303 49.8519 49.8519
10786 1 22.9477 48.2693 51.4345
10787 1 24.5303 49.8519 53.0171
10788 1 22.9477 48.2693 54.5997
10789 1 24.5303 49.8519 56.1823
10790 1 22.9477 48.2693 57.7649
10791 1 24.5303 49.8519 59.3475
10792 1 22.9477 48.2693 60.9301
10793 1 24.5303 49.8519 62.5127
10794 1 22.9477 48.2693 64.0953
10795 1 24.5303 49.8519 65.6779
10796 1 22.9477 48.2693 67.2605
10797 1 24.5303 49.8519 68.8431
10798 1 22.9477 48.2693 70.4257
10799 1 24.5303 49.8519 72.0083
10800 1 22.9477 48.2693 73.5909
10801 1 24.5303 49.8519 75.1735
10802 1 22.9477 48.2693 76.7561
10803 1 24.5303 49.8519 78.3387
10804 1 22.9477 51.4345 0.7913
10805 1 24.5303 53.0171 2.3739
10806 1 22.9477 51.4345 3.9565
10807 1 24.5303 53.0171 5.5391
10808 1 22.9477 51.4345 7.1217
10809 1 24.5303 53.0171 8.7043
10810 1 22.9477 51.4345 10.2869
10811 1 24.5303 53.0171 11.8695
10812 1 22.9477 51.4345 13.4521
10813 1 24.5303 53.0171 15.0347
10814 1 22.9477 51.4345 16.6173
10815 1 24.5303 53.0171 18.1999
10816 1 22.9477 51.4345 19.7825
10817 1 24.5303 53.0171 21.3651
10818 1 22.9477 51.4345 22.9477
10819 1 24.5303 53.0171 24.5303
10820 1 22.9477 51.4345 26.1129
10821 1 24.5303 53.0171 27.6955
10822 1 22.9477 51.4345 29.2781
10823 1 24.5303 53.0171 30.8607
10824 1 22.9477 51.4345 32.4433
10825 1 24.5303 53.0171 34.0259
10826 1 22.9477 51.4345 35.6085
10827 1 24.5303 53.0171 37.1911
10828 1 22.9477 51.4345 38.7737
10829 1 24.5303 53.0171 40.3563
10830 1 22.9477 51.4345 41.9389
10831 1 24.5303 53.0171 43.5215
10832 1 22.9477 51.4345 45.1041
10833 1 24.5303 53.0171 46.6867
10834 1 22.9477 51.4345 48.2693
10835 1 24.5303 53.0171 49.8519
10836 1 22.9477 51.4345 51.4345
10837 1 24.5303 53.0171 53.0171
10838 1 22.9477 51.4345 54.5997
10839 1 24.5303 53.0171 56.1823
10840 1 22.9477 51.4345 57.7649
10841 1 24.5303 53.0171 59.3475
10842 1 22.9477 51.4345 60.9301
10843 1 24.5303 53.0171 62.5127
10844 1 22.9477 51.4345 64.0953
10845 1 24.5303 53.0171 65.6779
10846 1 22.9477 51.4345 67.2605
10847 1 24.5303 53.0171 68.8431
10848 1 22.9477 51.4345 70.4257
10849 1 24.5303 53.0171 72.0083
10850 1 22.9477 51.4345 73.5909
10851 1 24.5303 53.0171 75.1735
10852 1 22.9477 51.4345 76.7561
10853 1 24.5303 53.0171 78.3387
10854 1 22.9477 54.5997 0.7913
10855 1 24.5303 56.1823 2.3739
10856 1 22.9477 54.5997 3.9565
10857 1 24.5303 56.1823 5.5391
10858 1 22.9477 54.5997 7.1217
10859 1 24.5303 56.1823 8.7043
10860 1 22.9477 54.5997 10.2869
10861 1 24.5303 56.1823 11.8695
10862 1 22.9477 54.5997 13.4521
10863 1 24.5303 56.1823 15.0347
10864 1 22.9477 54.5997 16.6173
10865 1 24.5303 56.1823 18.1999
10866 1 22.9477 54.5997 19.7825
10867 1 24.5303 56.1823 21.3651
10868 1 22.9477 54.5997 22.9477
10869 1 24.5303 56.1823 24.5303
10870 1 22.9477 54.5997 26.1129
10871 1 24.5303 56.1823 27.6955
10872 1 22.9477 54.5997 29.2781
10873 1 24.5303 56.1823 30.8607
10874 1 22.9477 54.5997 32.4433
10875 1 24.5303 56.1823 34.0259
10876 1 22.9477 54.5997 35.6085
10877 1 24.5303 56.1823 37.1911
10878 1 22.9477 54.5997 38.7737
10879 1 24.5303 56.1823 40.3563
10880 1 22.9477 54.5997 41.9389
10881 1 24.5303 56.1823 43.5215
10882 1 22.9477 54.5997 45.1041
10883 1 24.5303 56.1823 46.6867
10884 1 22.9477 54.5997 48.2693
10885 1 24.5303 56.1823 49.8519
10886 1 22.9477 54.5997 51.4345
10887 1 24.5303 56.1823 53.0171
10888 1 22.9477 54.5997 54.5997
10889 1 24.5303 56.1823 56.1823
10890 1 22.9477 54.5997 57.7649
10891 1 24.5303 56.1823 59.3475
10892 1 22.9477 54.5997 60.9301
10893 1 24.5303 56.1823 62.5127
10894 1 22.9477 54.5997 64.0953
10895 1 24.5303 56.1823 65.6779
10896 1 22.9477 54.5997 67.2605
10897 1 24.5303 56.1823 68.8431
10898 1 22.9477 54.5997 70.4257
10899 1 24.5303 56.1823 72.0083
10900 1 22.9477 54.5997 73.5909
10901 1 24.5303 56.1823 75.1735
10902 1 22.9477 54.5997 76.7561
10903 1 24.5303 56.1823 78.3387
10904 1 22.9477 57.7649 0.7913
10905 1 24.5303 59.3475 2.3739
10906 1 22.9477 57.7649 3.9565
10907 1 24.5303 59.3475 5.5391
10908 1 22.9477 57.7649 7.1217
10909 1 24.5303 59.3475 8.7043
10910 1 22.9477 57.7649 10.2869
10911 1 24.5303 59.3475 11.8695
10912 1 22.9477 57.7649 13.4521
10913 1 24.5303 59.3475 15.0347
10914 1 22.9477 57.7649 16.6173
10915 1 24.5303 59.3475 18.1999
10916 1 22.9477 57.7649 19.7825
10917 1 24.5303 59.3475 21.3651
10918 1 22.9477 57.7649 22.9477
10919 1 24.5303 59.3475 24.5303
10920 1 22.9477 57.7649 26.1129
10921 1 24.5303 59.3475 27.6955
10922 1 22.9477 57.7649 29.2781
10923 1 24.5303 59.3475 30.8607
10924 1 22.9477 57.7649 32.4433
10925 1 24.5303 59.3475 34.0259
10926 1 22.9477 57.7649 35.6085
10927 1 24.5303 59.3475 37.1911
10928 1 22.9477 57.7649 38.7737
10929 1 24.5303 59.3475 40.3563
10930 1 22.9477 57.7649 41.9389
10931 1 24.5303 59.3475 43.5215
10932 1 22.9477 57.7649 45.1041
10933 1 24.5303 59.3475 46.6867
10934 1 22.9477 57.7649 48.2693
10935 1 24.5303 59.3475 49.8519
10936 1 22.9477 57.7649 51.4345
10937 1 24.5303 59.3475 53.0171
10938 1 22.9477 57.7649 54.5997
10939 1 24.5303 59.3475 56.1823
10940 1 22.9477 57.7649 57.7649
10941 1 24.5303 59.3475 59.3475
10942 1 22.9477 57.7649 60.9301
10943 1 24.5303 59.3475 62.5127
10944 1 22.9477 57.7649 64.0953
10945 1 24.5303 59.3475 65.6779
10946 1 22.9477 57.7649 67.2605
10947 1 24.5303 59.3475 68.8431
10948 1 22.9477 57.7649 70.4257
10949 1 24.5303 59.3475 72.0083
10950 1 22.9477 57.7649 73.5909
10951 1 24.5303 59.3475 75.1735
10952 1 22.9477 57.7649 76.7561
10953 1 24.5303 59.3475 78.3387
10954 1 22.9477 60.9301 0.7913
10955 1 24.5303 62.5127 2.3739
10956 1 22.9477 60.9301 3.9565
10957 1 24.5303 62.5127 5.5391
10958 1 22.9477 60.9301 7.1217
10959 1 24.5303 62.5127 8.7043
10960 1 22.9477 60.9301 10.2869
10961 1 24.5303 62.5127 11.8695
10962 1 22.9477 60.9301 13.4521
10963 1 24.5303 62.5127 15.0347
10964 1 22.9477 60.9301 16.6173
10965 1 24.5303 62.5127 18.1999
10966 1 22.9477 60.9301 19.7825
10967 1 24.5303 62.5127 21.3651
10968 1 22.9477 60.9301 22.9477
10969 1 24.5303 62.5127 24.5303
10970 1 22.9477 60.9301 26.1129
10971 1 24.5303 62.5127 27.6955
10972 1 22.9477 60.9301 29.2781
10973 1 24.5303 62.5127 30.8607
10974 1 22.9477 60.9301 32.4433
10975 1 24.5303 62.5127 34.0259
10976 1 22.9477 60.9301 35.6085
10977 1 24.5303 62.5127 37.1911
10978 1 22.9477 60.9301 38.7737
10979 1 24.5303 62.5127 40.3563
10980 1 22.9477 60.9301 41.9389
10981 1 24.5303 62.5127 43.5215
10982 1 22.9477 60.9301 45.1041
10983 1 24.5303 62.5127 46.6867
10984 1 22.9477 60.9301 48.2693
10985 1 24.5303 62.5127 49.8519
10986 1 22.9477 60.9301 51.4345
10987 1 24.5303 62.5127 53.0171
10988 1 22.9477 60.9301 54.5997
10989 1 24.5303 62.5127 56.1823
10990 1 22.9477 60.9301 57.7649
10991 1 24.5303 62.5127 59.3475
10992 1 22.9477 60.9301 60.9301
10993 1 24.5303 62.5127 62.5127
10994 1 22.9477 60.9301 64.0953
10995 1 24.5303 62.5127 65.6779
10996 1 22.9477 60.9301 67.2605
10997 1 24.5303 62.5127 68.8431
10998 1 22.9477 60.9301 70.4257
10999 1 24.5303 62.5127 72.0083
11000 1 22.9477 60.9301 73.5909
11001 1 24.5303 62.5127 75.1735
11002 1 22.9477 60.9301 76.7561
11003 1 24.5303 62.5127 78.3387
11004 1 22.9477 64.0953 0.7913
11005 1 24.5303 65.6779 2.3739
11006 1 22.9477 64.0953 3.9565
11007 1 24.5303 65.6779 5.5391
11008 1 22.9477 64.0953 7.1217
11009 1 24.5303 65.6779 8.7043
11010 1 22.9477 64.0953 10.2869
11011 1 24.5303 65.6779 11.8695
11012 1 22.9477 64.0953 13.4521
11013 1 24.5303 65.6779 15.0347
11014 1 22.9477 64.0953 16.6173
11015 1 24.5303 65.6779 18.1999
11016 1 22.9477 64.0953 19.7825
11017 1 24.5303 65.6779 21.3651
11018 1 22.9477 64.0953 22.9477
11019 1 24.5303 65.6779 24.5303
11020 1 22.9477 64.0953 26.1129
11021 1 24.5303 65.6779 27.6955
11022 1 22.9477 64.0953 29.2781
11023 1 24.5303 65.6779 30.8607
11024 1 22.9477 64.0953 32.4433
11025 1 24.5303 65.6779 34.0259
11026 1 22.9477 64.0953 35.6085
11027 1 24.5303 65.6779 37.1911
11028 1 22.9477 64.0953 38.7737
11029 1 24.5303 65.6779 40.3563
11030 1 22.9477 64.0953 41.9389
11031 1 24.5303 65.6779 43.5215
11032 1 22.9477 64.0953 45.1041
11033 1 24.5303 65.6779 46.6867
11034 1 22.9477 64.0953 48.2693
11035 1 24.5303 65.6779 49.8519
11036 1 22.9477 64.0953 51.4345
11037 1 24.5303 65.6779 53.0171
11038 1 22.9477 64.0953 54.5997
11039 1 24.5303 65.6779 56.1823
11040 1 22.9477 64.0953 57.7649
11041 1 24.5303 65.6779 59.3475
11042 1 22.9477 64.0953 60.9301
11043 1 24.5303 65.6779 62.5127
11044 1 22.9477 64.0953 64.0953
11045 1 24.5303 65.6779 65.6779
11046 1 22.9477 64.0953 67.2605
11047 1 24.5303 65.6779 68.8431
11048 1 22.9477 64.0953 70.4257
11049 1 24.5303 65.6779 72.0083
11050 1 22.9477 64.0953 73.5909
11051 1 24.5303 65.6779 75.1735
11052 1 22.9477 64.0953 76.7561
11053 1 24.5303 65.6779 78.3387
11054 1 22.9477 67.2605 0.7913
11055 1 24.5303 68.8431 2.3739
11056 1 22.9477 67.2605 3.9565
11057 1 24.5303 68.8431 5.5391
11058 1 22.9477 67.2605 7.1217
11059 1 24.5303 68.8431 8.7043
11060 1 22.9477 67.2605 10.2869
11061 1 24.5303 68.8431 11.8695
11062 1 22.9477 67.2605 13.4521
11063 1 24.5303 68.8431 15.0347
11064 1 22.9477 67.2605 16.6173
11065 1 24.5303 68.8431 18.1999
11066 1 22.9477 67.2605 19.7825
11067 1 24.5303 68.8431 21.3651
11068 1 22.9477 67.2605 22.9477
11069 1 24.5303 68.8431 24.5303
11070 1 22.9477 67.2605 26.1129
11071 1 24.5303 68.8431 27.6955
11072 1 22.9477 67.2605 29.2781
11073 1 24.5303 68.8431 30.8607
11074 1 22.9477 67.2605 32.4433
11075 1 24.5303 68.8431 34.0259
11076 1 22.9477 67.2605 35.6085
11077 1 24.5303 68.8431 37.1911
11078 1 22.9477 67.2605 38.7737
11079 1 24.5303 68.8431 40.3563
11080 1 22.9477 67.2605 41.9389
11081 1 24.5303 68.8431 43.5215
11082 1 22.9477 67.2605 45.1041
11083 1 24.5303 68.8431 46.6867
11084 1 22.9477 67.2605 48.2693
11085 1 24.5303 68.8431 49.8519
11086 1 22.9477 67.2605 51.4345
11087 1 24.5303 68.8431 53.0171
11088 1 22.9477 67.2605 54.5997
11089 1 24.5303 68.8431 56.1823
11090 1 22.9477 67.2605 57.7649
11091 1 24.5303 68.8431 59.3475
11092 1 22.9477 67.2605 60.9301
11093 1 24.5303 68.8431 62.5127
11094 1 22.9477 67.2605 64.0953
11095 1 24.5303 68.8431 65.6779
11096 1 22.9477 67.2605 67.2605
11097 1 24.5303 68.8431 68.8431
11098 1 22.9477 67.2605 70.4257
11099 1 24.5303 68.8431 72.0083
11100 1 22.9477 67.2605 73.5909
11101 1 24.5303 68.8431 75.1735
11102 1 22.9477 67.2605 76.7561
11103 1 24.5303 68.8431 78.3387
11104 1 22.9477 70.4257 0.7913
11105 1 24.5303 72.0083 2.3739
11106 1 22.9477 70.4257 3.9565
11107 1 24.5303 72.0083 5.5391
11108 1 22.9477 70.4257 7.1217
11109 1 24.5303 72.0083 8.7043
11110 1 22.9477 70.4257 10.2869
11111 1 24.5303 72.0083 11.8695
11112 1 22.9477 70.4257 13.4521
11113 1 24.5303 72.0083 15.0347
11114 1 22.9477 70.4257 16.6173
11115 1 24.5303 72.0083 18.1999
11116 1 22.9477 70.4257 19.7825
11117 1 24.5303 72.0083 21.3651
11118 1 22.9477 70.4257 22.9477
11119 1 24.5303 72.0083 24.5303
11120 1 22.9477 70.4257 26.1129
11121 1 24.5303 72.0083 27.6955
11122 1 22.9477 70.4257 29.2781
11123 1 24.5303 72.0083 30.8607
11124 1 22.9477 70.4257 32.4433
11125 1 24.5303 72.0083 34.0259
11126 1 22.9477 70.4257 35.6085
11127 1 24.5303 72.0083 37.1911
11128 1 22.9477 70.4257 38.7737
11129 1 24.5303 72.0083 40.3563
11130 1 22.9477 70.4257 41.9389
11131 1 24.5303 72.0083 43.5215
11132 1 22.9477 70.4257 45.1041
11133 1 24.5303 72.0083 46.6867
11134 1 22.9477 70.4257 48.2693
11135 1 24.5303 72.0083 49.8519
11136 1 22.9477 70.4257 51.4345
11137 1 24.5303 72.0083 53.0171
11138 1 22.9477 70.4257 54.5997
11139 1 24.5303 72.0083 56.1823
11140 1 22.9477 70.4257 57.7649
11141 1 24.5303 72.0083 59.3475
11142 1 22.9477 70.4257 60.9301
11143 1 24.5303 72.0083 62.5127
11144 1 22.9477 70.4257 64.0953
11145 1 24.5303 72.0083 65.6779
11146 1 22.9477 70.4257 67.2605
11147 1 24.5303 72.0083 68.8431
11148 1 22.9477 70.4257 70.4257
11149 1 24.5303 72.0083 72.0083
11150 1 22.9477 70.4257 73.5909
11151 1 24.5303 72.0083 75.1735
11152 1 22.9477 70.4257 76.7561
11153 1 24.5303 72.0083 78.3387
11154 1 22.9477 73.5909 0.7913
11155 1 24.5303 75.1735 2.3739
11156 1 22.9477 73.5909 3.9565
11157 1 24.5303 75.1735 5.5391
11158 1 22.9477 73.5909 7.1217
11159 1 24.5303 75.1735 8.7043
11160 1 22.9477 73.5909 10.2869
11161 1 24.5303 75.1735 11.8695
11162 1 22.9477 73.5909 13.4521
11163 1 24.5303 75.1735 15.0347
11164 1 22.9477 73.5909 16.6173
11165 1 24.5303 75.1735 18.1999
11166 1 22.9477 73.5909 19.7825
11167 1 24.5303 75.1735 21.3651
11168 1 22.9477 73.5909 22.9477
11169 1 24.5303 75.1735 24.5303
11170 1 22.9477 73.5909 26.1129
11171 1 24.5303 75.1735 27.6955
11172 1 22.9477 73.5909 29.2781
11173 1 24.5303 75.1735 30.8607
11174 1 22.9477 73.5909 32.4433
11175 1 24.5303 75.1735 34.0259
11176 1 22.9477 73.5909 35.6085
11177 1 24.5303 75.1735 37.1911
11178 1 22.9477 73.5909 38.7737
11179 1 24.5303 75.1735 40.3563
11180 1 22.9477 73.5909 41.9389
11181 1 24.5303 75.1735 43.5215
11182 1 22.9477 73.5909 45.1041
11183 1 24.5303 75.1735 46.6867
11184 1 22.9477 73.5909 48.2693
11185 1 24.5303 75.1735 49.8519
11186 1 22.9477 73.5909 51.4345
11187 1 24.5303 75.1735 53.0171
11188 1 22.9477 73.5909 54.5997
11189 1 24.5303 75.1735 56.1823
11190 1 22.9477 73.5909 57.7649
11191 1 24.5303 75.1735 59.3475
11192 1 22.9477 73.5909 60.9301
11193 1 24.5303 75.1735 62.5127
11194 1 22.9477 73.5909 64.0953
11195 1 24.5303 75.1735 65.6779
11196 1 22.9477 73.5909 67.2605
11197 1 24.5303 75.1735 68.8431
11198 1 22.9477 73.5909 70.4257
11199 1 24.5303 75.1735 72.0083
11200 1 22.9477 73.5909 73.5909
11201 1 24.5303 75.1735 75.1735
11202 1 22.9477 73.5909 76.7561
11203 1 24.5303 75.1735 78.3387
11204 1 22.9477 76.7561 0.7913
11205 1 24.5303 78.3387 2.3739
11206 1 22.9477 76.7561 3.9565
11207 1 24.5303 78.3387 5.5391
11208 1 22.9477 76.7561 7.1217
11209 1 24.5303 78.3387 8.7043
11210 1 22.9477 76.7561 10.2869
11211 1 24.5303 78.3387 11.8695
11212 1 22.9477 76.7561 13.4521
11213 1 24.5303 78.3387 15.0347
11214 1 22.9477 76.7561 16.6173
11215 1 24.5303 78.3387 18.1999
11216 1 22.9477 76.7561 19.7825
11217 1 24.5303 78.3387 21.3651
11218 1 22.9477 76.7561 22.9477
11219 1 24.5303 78.3387 24.5303
11220 1 22.9477 76.7561 26.1129
11221 1 24.5303 78.3387 27.6955
11222 1 22.9477 76.7561 29.2781
11223 1 24.5303 78.3387 30.8607
11224 1 22.9477 76.7561 32.4433
11225 1 24.5303 78.3387 34.0259
11226 1 22.9477 76.7561 35.6085
11227 1 24.5303 78.3387 37.1911
11228 1 22.9477 76.7561 38.7737
11229 1 24.5303 78.3387 40.3563
11230 1 22.9477 76.7561 41.9389
11231 1 24.5303 78.3387 43.5215
11232 1 22.9477 76.7561 45.1041
11233 1 24.5303 78.3387 46.6867
11234 1 22.9477 76.7561 48.2693
11235 1 24.5303 78.3387 49.8519
11236 1 22.9477 76.7561 51.4345
11237 1 24.5303 78.3387 53.0171
11238 1 22.9477 76.7561 54.5997
11239 1 24.5303 78.3387 56.1823
11240 1 22.9477 76.7561 57.7649
11241 1 24.5303 78.3387 59.3475
11242 1 22.9477 76.7561 60.9301
11243 1 24.5303 78.3387 62.5127
11244 1 22.9477 76.7561 64.0953
11245 1 24.5303 78.3387 65.6779
11246 1 22.9477 76.7561 67.2605
11247 1 24.5303 78.3387 68.8431
11248 1 22.9477 76.7561 70.4257
11249 1 24.5303 78.3387 72.0083
11250 1 22.9477 76.7561 73.5909
11251 1 24.5303 78.3387 75.1735
11252 1 22.9477 76.7561 76.7561
11253 1 24.5303 78.3387 78.3387
11254 1 51.4345 0.7913 0.7913
11255 1 53.0171 2.3739 2.3739
11256 1 51.4345 0.7913 3.9565
11257 1 53.0171 2.3739 5.5391
11258 1 51.4345 0.7913 7.1217
11259 1 53.0171 2.3739 8.7043
11260 1 51.4345 0.7913 10.2869
11261 1 53.0171 2.3739 11.8695
11262 1 51.4345 0.7913 13.4521
11263 1 53.0171 2.3739 15.0347
11264 1 51.4345 0.7913 16.6173
11265 1 53.0171 2.3739 18.1999
11266 1 51.4345 0.7913 19.7825
11267 1 53.0171 2.3739 21.3651
11268 1 51.4345 0.7913 22.9477
11269 1 53.0171 2.3739 24.5303
11270 1 51.4345 0.7913 26.1129
11271 1 53.0171 2.3739 27.6955
11272 1 51.4345 0.7913 29.2781
11273 1 53.0171 2.3739 30.8607
11274 1 51.4345 0.7913 32.4433
11275 1 53.0171 2.3739 34.0259
11276 1 51.4345 0.7913 35.6085
11277 1 53.0171 2.3739 37.1911
11278 1 51.4345 0.7913 38.7737
11279 1 53.0171 2.3739 40.3563
11280 1 51.4345 0.7913 41.9389
11281 1 53.0171 2.3739 43.5215
11282 1 51.4345 0.7913 45.1041
11283 1 53.0171 2.3739 46.6867
11284 1 51.4345 0.7913 48.2693
11285 1 53.0171 2.3739 49.8519
11286 1 51.4345 0.7913 51.4345
11287 1 53.0171 2.3739 53.0171
11288 1 51.4345 0.7913 54.5997
11289 1 53.0171 2.3739 56.1823
11290 1 51.4345 0.7913 57.7649
11291 1 53.0171 2.3739 59.3475
11292 1 51.4345 0.7913 60.9301
11293 1 53.0171 2.3739 62.5127
11294 1 51.4345 0.7913 64.0953
11295 1 53.0171 2.3739 65.6779
11296 1 51.4345 0.7913 67.2605
11297 1 53.0171 2.3739 68.8431
11298 1 51.4345 0.7913 70.4257
11299 1 53.0171 2.3739 72.0083
11300 1 51.4345 0.7913 73.5909
11301 1 53.0171 2.3739 75.1735
11302 1 51.4345 0.7913 76.7561
11303 1 53.0171 2.3739 78.3387
11304 1 51.4345 3.9565 0.7913
11305 1 53.0171 5.5391 2.3739
11306 1 51.4345 3.9565 3.9565
11307 1 53.0171 5.5391 5.5391
11308 1 51.4345 3.9565 7.1217
11309 1 53.0171 5.5391 8.7043
11310 1 51.4345 3.9565 10.2869
11311 1 53.0171 5.5391 11.8695
11312 1 51.4345 3.9565 13.4521
11313 1 53.0171 5.5391 15.0347
11314 1 51.4345 3.9565 16.6173
11315 1 53.0171 5.5391 18.1999
11316 1 51.4345 3.9565 19.7825
11317 1 53.0171 5.5391 21.3651
11318 1 51.4345 3.9565 22.9477
11319 1 53.0171 5.5391 24.5303
11320 1 51.4345 3.9565 26.1129
11321 1 53.0171 5.5391 27.6955
11322 1 51.4345 3.9565 29.2781
11323 1 53.0171 5.5391 30.8607
11324 1 51.4345 3.9565 32.4433
11325 1 53.0171 5.5391 34.0259
11326 1 51.4345 3.9565 35.6085
11327 1 53.0171 5.5391 37.1911
11328 1 51.4345 3.9565 38.7737
11329 1 53.0171 5.5391 40.3563
11330 1 51.4345 3.9565 41.9389
11331 1 53.0171 5.5391 43.5215
11332 1 51.4345 3.9565 45.1041
11333 1 53.0171 5.5391 46.6867
11334 1 51.4345 3.9565 48.2693
11335 1 53.0171 5.5391 49.8519
11336 1 51.4345 3.9565 51.4345
11337 1 53.0171 5.5391 53.0171
11338 1 51.4345 3.9565 54.5997
11339 1 53.0171 5.5391 56.1823
11340 1 51.4345 3.9565 57.7649
11341 1 53.0171 5.5391 59.3475
11342 1 51.4345 3.9565 60.9301
11343 1 53.0171 5.5391 62.5127
11344 1 51.4345 3.9565 64.0953
11345 1 53.0171 5.5391 65.6779
11346 1 51.4345 3.9565 67.2605
11347 1 53.0171 5.5391 68.8431
11348 1 51.4345 3.9565 70.4257
11349 1 53.0171 5.5391 72.0083
11350 1 51.4345 3.9565 73.5909
11351 1 53.0171 5.5391 75.1735
11352 1 51.4345 3.9565 76.7561
11353 1 53.0171 5.5391 78.3387
11354 1 51.4345 7.1217 0.7913
11355 1 53.0171 8.7043 2.3739
11356 1 51.4345 7.1217 3.9565
11357 1 53.0171 8.7043 5.5391
11358 1 51.4345 7.1217 7.1217
11359 1 53.0171 8.7043 8.7043
11360 1 51.4345 7.1217 10.2869
11361 1 53.0171 8.7043 11.8695
11362 1 51.4345 7.1217 13.4521
11363 1 53.0171 8.7043 15.0347
11364 1 51.4345 7.1217 16.6173
11365 1 53.0171 8.7043 18.1999
11366 1 51.4345 7.1217 19.7825
11367 1 53.0171 8.7043 21.3651
11368 1 51.4345 7.1217 22.9477
11369 1 53.0171 8.7043 24.5303
11370 1 51.4345 7.1217 26.1129
11371 1 53.0171 8.7043 27.6955
11372 1 51.4345 7.1217 29.2781
11373 1 53.0171 8.7043 30.8607
11374 1 51.4345 7.1217 32.4433
11375 1 53.0171 8.7043 34.0259
11376 1 51.4345 7.1217 35.6085
11377 1 53.0171 8.7043 37.1911
11378 1 51.4345 7.1217 38.7737
11379 1 53.0171 8.7043 40.3563
11380 1 51.4345 7.1217 41.9389
11381 1 53.0171 8.7043 43.5215
11382 1 51.4345 7.1217 45.1041
11383 1 53.0171 8.7043 46.6867
11384 1 51.4345 7.1217 48.2693
11385 1 53.0171 8.7043 49.8519
11386 1 51.4345 7.1217 51.4345
11387 1 53.0171 8.7043 53.0171
11388 1 51.4345 7.1217 54.5997
11389 1 53.0171 8.7043 56.1823
11390 1 51.4345 7.1217 57.7649
11391 1 53.0171 8.7043 59.3475
11392 1 51.4345 7.1217 60.9301
11393 1 53.0171 8.7043 62.5127
11394 1 51.4345 7.1217 64.0953
11395 1 53.0171 8.7043 65.6779
11396 1 51.4345 7.1217 67.2605
11397 1 53.0171 8.7043 68.8431
11398 1 51.4345 7.1217 70.4257
11399 1 53.0171 8.7043 72.0083
11400 1 51.4345 7.1217 73.5909
11401 1 53.0171 8.7043 75.1735
11402 1 51.4345 7.1217 76.7561
11403 1 53.0171 8.7043 78.3387
11404 1 51.4345 10.2869 0.7913
11405 1 53.0171 11.8695 2.3739
11406 1 51.4345 10.2869 3.9565
11407 1 53.0171 11.8695 5.5391
11408 1 51.4345 10.2869 7.1217
11409 1 53.0171 11.8695 8.7043
11410 1 51.4345 10.2869 10.2869
11411 1 53.0171 11.8695 11.8695
11412 1 51.4345 10.2869 13.4521
11413 1 53.0171 11.8695 15.0347
11414 1 51.4345 10.2869 16.6173
11415 1 53.0171 11.8695 18.1999
11416 1 51.4345 10.2869 19.7825
11417 1 53.0171 11.8695 21.3651
11418 1 51.4345 10.2869 22.9477
11419 1 53.0171 11.8695 24.5303
11420 1 51.4345 10.2869 26.1129
11421 1 53.0171 11.8695 27.6955
11422 1 51.4345 10.2869 29.2781
11423 1 53.0171 11.8695 30.8607
11424 1 51.4345 10.2869 32.4433
11425 1 53.0171 11.8695 34.0259
11426 1 51.4345 10.2869 35.6085
11427 1 53.0171 11.8695 37.1911
11428 1 51.4345 10.2869 38.7737
11429 1 53.0171 11.8695 40.3563
11430 1 51.4345 10.2869 41.9389
11431 1 53.0171 11.8695 43.5215
11432 1 51.4345 10.2869 45.1041
11433 1 53.0171 11.8695 46.6867
11434 1 51.4345 10.2869 48.2693
11435 1 53.0171 11.8695 49.8519
11436 1 51.4345 10.2869 51.4345
11437 1 53.0171 11.8695 53.0171
11438 1 51.4345 10.2869 54.5997
11439 1 53.0171 11.8695 56.1823
11440 1 51.4345 10.2869 57.7649
11441 1 53.0171 11.8695 59.3475
11442 1 51.4345 10.2869 60.9301
11443 1 53.0171 11.8695 62.5127
11444 1 51.4345 10.2869 64.0953
11445 1 53.0171 11.8695 65.6779
11446 1 51.4345 10.2869 67.2605
11447 1 53.0171 11.8695 68.8431
11448 1 51.4345 10.2869 70.4257
11449 1 53.0171 11.8695 72.0083
11450 1 51.4345 10.2869 73.5909
11451 1 53.0171 11.8695 75.1735
11452 1 51.4345 10.2869 76.7561
11453 1 53.0171 11.8695 78.3387
11454 1 51.4345 13.4521 0.7913
11455 1 53.0171 15.0347 2.3739
11456 1 51.4345 13.4521 3.9565
11457 1 53.0171 15.0347 5.5391
11458 1 51.4345 13.4521 7.1217
11459 1 53.0171 15.0347 8.7043
11460 1 51.4345 13.4521 10.2869
11461 1 53.0171 15.0347 11.8695
11462 1 51.4345 13.4521 13.4521
11463 1 53.0171 15.0347 15.0347
11464 1 51.4345 13.4521 16.6173
11465 1 53.0171 15.0347 18.1999
11466 1 51.4345 13.4521 19.7825
11467 1 53.0171 15.0347 21.3651
11468 1 51.4345 13.4521 22.9477
11469 1 53.0171 15.0347 24.5303
11470 1 51.4345 13.4521 26.1129
11471 1 53.0171 15.0347 27.6955
11472 1 51.4345 13.4521 29.2781
11473 1 53.0171 15.0347 30.8607
11474 1 51.4345 13.4521 32.4433
11475 1 53.0171 15.0347 34.0259
11476 1 51.4345 13.4521 35.6085
11477 1 53.0171 15.0347 37.1911
11478 1 51.4345 13.4521 38.7737
11479 1 53.0171 15.0347 40.3563
11480 1 51.4345 13.4521 41.9389
11481 1 53.0171 15.0347 43.5215
11482 1 51.4345 13.4521 45.1041
11483 1 53.0171 15.0347 46.6867
11484 1 51.4345 13.4521 48.2693
11485 1 53.0171 15.0347 49.8519
11486 1 51.4345 13.4521 51.4345
11487 1 53.0171 15.0347 53.0171
11488 1 51.4345 13.4521 54.5997
11489 1 53.0171 15.0347 56.1823
11490 1 51.4345 13.4521 57.7649
11491 1 53.0171 15.0347 59.3475
11492 1 51.4345 13.4521 60.9301
11493 1 53.0171 15.0347 62.5127
11494 1 51.4345 13.4521 64.0953
11495 1 53.0171 15.0347 65.6779
11496 1 51.4345 13.4521 67.2605
11497 1 53.0171 15.0347 68.8431
11498 1 51.4345 13.4521 70.4257
11499 1 53.0171 15.0347 72.0083
11500 1 51.4345 13.4521 73.5909
11501 1 53.0171 15.0347 75.1735
11502 1 51.4345 13.4521 76.7561
11503 1 53.0171 15.0347 78.3387
11504 1 51.4345 16.6173 0.7913
11505 1 53.0171 18.1999 2.3739
11506 1 51.4345 16.6173 3.9565
11507 1 53.0171 18.1999 5.5391
11508 1 51.4345 16.6173 7.1217
11509 1 53.0171 18.1999 8.7043
11510 1 51.4345 16.6173 10.2869
11511 1 53.0171 18.1999 11.8695
11512 1 51.4345 16.6173 13.4521
11513 1 53.0171 18.1999 15.0347
11514 1 51.4345 16.6173 16.6173
11515 1 53.0171 18.1999 18.1999
11516 1 51.4345 16.6173 19.7825
11517 1 53.0171 18.1999 21.3651
11518 1 51.4345 16.6173 22.9477
11519 1 53.0171 18.1999 24.5303
11520 1 51.4345 16.6173 26.1129
11521 1 53.0171 18.1999 27.6955
11522 1 51.4345 16.6173 29.2781
11523 1 53.0171 18.1999 30.8607
11524 1 51.4345 16.6173 32.4433
11525 1 53.0171 18.1999 34.0259
11526 1 51.4345 16.6173 35.6085
11527 1 53.0171 18.1999 37.1911
11528 1 51.4345 16.6173 38.7737
11529 1 53.0171 18.1999 40.3563
11530 1 51.4345 16.6173 41.9389
11531 1 53.0171 18.1999 43.5215
11532 1 51.4345 16.6173 45.1041
11533 1 53.0171 18.1999 46.6867
11534 1 51.4345 16.6173 48.2693
11535 1 53.0171 18.1999 49.8519
11536 1 51.4345 16.6173 51.4345
11537 1 53.0171 18.1999 53.0171
11538 1 51.4345 16.6173 54.5997
11539 1 53.0171 18.1999 56.1823
11540 1 51.4345 16.6173 57.7649
11541 1 53.0171 18.1999 59.3475
11542 1 51.4345 16.6173 60.9301
11543 1 53.0171 18.1999 62.5127
11544 1 51.4345 16.6173 64.0953
11545 1 53.0171 18.1999 65.6779
11546 1 51.4345 16.6173 67.2605
11547 1 53.0171 18.1999 68.8431
11548 1 51.4345 16.6173 70.4257
11549 1 53.0171 18.1999 72.0083
11550 1 51.4345 16.6173 73.5909
11551 1 53.0171 18.1999 75.1735
11552 1 51.4345 16.6173 76.7561
11553 1 53.0171 18.1999 78.3387
11554 1 51.4345 19.7825 0.7913
11555 1 53.0171 21.3651 2.3739
11556 1 51.4345 19.7825 3.9565
11557 1 53.0171 21.3651 5.5391
11558 1 51.4345 19.7825 7.1217
11559 1 53.0171 21.3651 8.7043
11560 1 51.4345 19.7825 10.2869
11561 1 53.0171 21.3651 11.8695
11562 1 51.4345 19.7825 13.4521
11563 1 53.0171 21.3651 15.0347
11564 1 51.4345 19.7825 16.6173
11565 1 53.0171 21.3651 18.1999
11566 1 51.4345 19.7825 19.7825
11567 1 53.0171 21.3651 21.3651
11568 1 51.4345 19.7825 22.9477
11569 1 53.0171 21.3651 24.5303
11570 1 51.4345 19.7825 26.1129
11571 1 53.0171 21.3651 27.6955
11572 1 51.4345 19.7825 29.2781
11573 1 53.0171 21.3651 30.8607
11574 1 51.4345 19.7825 32.4433
11575 1 53.0171 21.3651 34.0259
11576 1 51.4345 19.7825 35.6085
11577 1 53.0171 21.3651 37.1911
11578 1 51.4345 19.7825 38.7737
11579 1 53.0171 21.3651 40.3563
11580 1 51.4345 19.7825 41.9389
11581 1 53.0171 21.3651 43.5215
11582 1 51.4345 19.7825 45.1041
11583 1 53.0171 21.3651 46.6867
11584 1 51.4345 19.7825 48.2693
11585 1 53.0171 21.3651 49.8519
11586 1 51.4345 19.7825 51.4345
11587 1 53.0171 21.3651 53.0171
11588 1 51.4345 19.7825 54.5997
11589 1 53.0171 21.3651 56.1823
11590 1 51.4345 19.7825 57.7649
11591 1 53.0171 21.3651 59.3475
11592 1 51.4345 19.7825 60.9301
11593 1 53.0171 21.3651 62.5127
11594 1 51.4345 19.7825 64.0953
11595 1 53.0171 21.3651 65.6779
11596 1 51.4345 19.7825 67.2605
11597 1 53.0171 21.3651 68.8431
11598 1 51.4345 19.7825 70.4257
11599 1 53.0171 21.3651 72.0083
11600 1 51.4345 19.7825 73.5909
11601 1 53.0171 21.3651 75.1735
11602 1 51.4345 19.7825 76.7561
11603 1 53.0171 21.3651 78.3387
11604 1 51.4345 22.9477 0.7913
11605 1 53.0171 24.5303 2.3739
11606 1 51.4345 22.9477 3.9565
11607 1 53.0171 24.5303 5.5391
11608 1 51.4345 22.9477 7.1217
11609 1 53.0171 24.5303 8.7043
11610 1 51.4345 22.9477 10.2869
11611 1 53.0171 24.5303 11.8695
11612 1 51.4345 22.9477 13.4521
11613 1 53.0171 24.5303 15.0347
11614 1 51.4345 22.9477 16.6173
11615 1 53.0171 24.5303 18.1999
11616 1 51.4345 22.9477 19.7825
11617 1 53.0171 24.5303 21.3651
11618 1 51.4345 22.9477 22.9477
11619 1 53.0171 24.5303 24.5303
11620 1 51.4345 22.9477 26.1129
11621 1 53.0171 24.5303 27.6955
11622 1 51.4345 22.9477 29.2781
11623 1 53.0171 24.5303 30.8607
11624 1 51.4345 22.9477 32.4433
11625 1 53.0171 24.5303 34.0259
11626 1 51.4345 22.9477 35.6085
11627 1 53.0171 24.5303 37.1911
11628 1 51.4345 22.9477 38.7737
11629 1 53.0171 24.5303 40.3563
11630 1 51.4345 22.9477 41.9389
11631 1 53.0171 24.5303 43.5215
11632 1 51.4345 22.9477 45.1041
11633 1 53.0171 24.5303 46.6867
11634 1 51.4345 22.9477 48.2693
11635 1 53.0171 24.5303 49.8519
11636 1 51.4345 22.9477 51.4345
11637 1 53.0171 24.5303 53.0171
11638 1 51.4345 22.9477 54.5997
11639 1 53.0171 24.5303 56.1823
11640 1 51.4345 22.9477 57.7649
11641 1 53.0171 24.5303 59.3475
11642 1 51.4345 22.9477 60.9301
11643 1 53.0171 24.5303 62.5127
11644 1 51.4345 22.9477 64.0953
11645 1 53.0171 24.5303 65.6779
11646 1 51.4345 22.9477 67.2605
11647 1 53.0171 24.5303 68.8431
11648 1 51.4345 22.9477 70.4257
11649 1 53.0171 24.5303 72.0083
11650 1 51.4345 22.9477 73.5909
11651 1 53.0171 24.5303 75.1735
11652 1 51.4345 22.9477 76.7561
11653 1 53.0171 24.5303 78.3387
11654 1 51.4345 26.1129 0.7913
11655 1 53.0171 27.6955 2.3739
11656 1 51.4345 26.1129 3.9565
11657 1 53.0171 27.6955 5.5391
11658 1 51.4345 26.1129 7.1217
11659 1 53.0171 27.6955 8.7043
11660 1 51.4345 26.1129 10.2869
11661 1 53.0171 27.6955 11.8695
11662 1 51.4345 26.1129 13.4521
11663 1 53.0171 27.6955 15.0347
11664 1 51.4345 26.1129 16.6173
11665 1 53.0171 27.6955 18.1999
11666 1 51.4345 26.1129 19.7825
11667 1 53.0171 27.6955 21.3651
11668 1 51.4345 26.1129 22.9477
11669 1 53.0171 27.6955 24.5303
11670 1 51.4345 26.1129 26.1129
11671 1 53.0171 27.6955 27.6955
11672 1 51.4345 26.1129 29.2781
11673 1 53.0171 27.6955 30.8607
11674 1 51.4345 26.1129 32.4433
11675 1 53.0171 27.6955 34.0259
11676 1 51.4345 26.1129 35.6085
11677 1 53.0171 27.6955 37.1911
11678 1 51.4345 26.1129 38.7737
11679 1 53.0171 27.6955 40.3563
11680 1 51.4345 26.1129 41.9389
11681 1 53.0171 27.6955 43.5215
11682 1 51.4345 26.1129 45.1041
11683 1 53.0171 27.6955 46.6867
11684 1 51.4345 26.1129 48.2693
11685 1 53.0171 27.6955 49.8519
11686 1 51.4345 26.1129 51.4345
11687 1 53.0171 27.6955 53.0171
11688 1 51.4345 26.1129 54.5997
11689 1 53.0171 27.6955 56.1823
11690 1 51.4345 26.1129 57.7649
11691 1 53.0171 27.6955 59.3475
11692 1 51.4345 26.1129 60.9301
11693 1 53.0171 27.6955 62.5127
11694 1 51.4345 26.1129 64.0953
11695 1 53.0171 27.6955 65.6779
11696 1 51.4345 26.1129 67.2605
11697 1 53.0171 27.6955 68.8431
11698 1 51.4345 26.1129 70.4257
11699 1 53.0171 27.6955 72.0083
11700 1 51.4345 26.1129 73.5909
11701 1 53.0171 27.6955 75.1735
11702 1 51.4345 26.1129 76.7561
11703 1 53.0171 27.6955 78.3387
11704 1 51.4345 29.2781 0.7913
11705 1 53.0171 30.8607 2.3739
11706 1 51.4345 29.2781 3.9565
11707 1 53.0171 30.8607 5.5391
11708 1 51.4345 29.2781 7.1217
11709 1 53.0171 30.8607 8.7043
11710 1 51.4345 29.2781 10.2869
11711 1 53.0171 30.8607 11.8695
11712 1 51.4345 29.2781 13.4521
11713 1 53.0171 30.8607 15.0347
11714 1 51.4345 29.2781 16.6173
11715 1 53.0171 30.8607 18.1999
11716 1 51.4345 29.2781 19.7825
11717 1 53.0171 30.8607 21.3651
11718 1 51.4345 29.2781 22.9477
11719 1 53.0171 30.8607 24.5303
11720 1 51.4345 29.2781 26.1129
11721 1 53.0171 30.8607 27.6955
11722 1 51.4345 29.2781 29.2781
11723 1 53.0171 30.8607 30.8607
11724 1 51.4345 29.2781 32.4433
11725 1 53.0171 30.8607 34.0259
11726 1 51.4345 29.2781 35.6085
11727 1 53.0171 30.8607 37.1911
11728 1 51.4345 29.2781 38.7737
11729 1 53.0171 30.8607 40.3563
11730 1 51.4345 29.2781 41.9389
11731 1 53.0171 30.8607 43.5215
11732 1 51.4345 29.2781 45.1041
11733 1 53.0171 30.8607 46.6867
11734 1 51.4345 29.2781 48.2693
11735 1 53.0171 30.8607 49.8519
11736 1 51.4345 29.2781 51.4345
11737 1 53.0171 30.8607 53.0171
11738 1 51.4345 29.2781 54.5997
11739 1 53.0171 30.8607 56.1823
11740 1 51.4345 29.2781 57.7649
11741 1 53.0171 30.8607 59.3475
11742 1 51.4345 29.2781 60.9301
11743 1 53.0171 30.8607 62.5127
11744 1 51.4345 29.2781 64.0953
11745 1 53.0171 30.8607 65.6779
11746 1 51.4345 29.2781 67.2605
11747 1 53.0171 30.8607 68.8431
11748 1 51.4345 29.2781 70.4257
11749 1 53.0171 30.8607 72.0083
11750 1 51.4345 29.2781 73.5909
11751 1 53.0171 30.8607 75.1735
11752 1 51.4345 29.2781 76.7561
11753 1 53.0171 30.8607 78.3387
11754 1 51.4345 32.4433 0.7913
11755 1 53.0171 34.0259 2.3739
11756 1 51.4345 32.4433 3.9565
11757 1 53.0171 34.0259 5.5391
11758 1 51.4345 32.4433 7.1217
11759 1 53.0171 34.0259 8.7043
11760 1 51.4345 32.4433 10.2869
11761 1 53.0171 34.0259 11.8695
11762 1 51.4345 32.4433 13.4521
11763 1 53.0171 34.0259 15.0347
11764 1 51.4345 32.4433 16.6173
11765 1 53.0171 34.0259 18.1999
11766 1 51.4345 32.4433 19.7825
11767 1 53.0171 34.0259 21.3651
11768 1 51.4345 32.4433 22.9477
11769 1 53.0171 34.0259 24.5303
11770 1 51.4345 32.4433 26.1129
11771 1 53.0171 34.0259 27.6955
11772 1 51.4345 32.4433 29.2781
11773 1 53.0171 34.0259 30.8607
11774 1 51.4345 32.4433 32.4433
11775 1 53.0171 34.0259 34.0259
11776 1 51.4345 32.4433 35.6085
11777 1 53.0171 34.0259 37.1911
11778 1 51.4345 32.4433 38.7737
11779 1 53.0171 34.0259 40.3563
11780 1 51.4345 32.4433 41.9389
11781 1 53.0171 34.0259 43.5215
11782 1 51.4345 32.4433 45.1041
11783 1 53.0171 34.0259 46.6867
11784 1 51.4345 32.4433 48.2693
11785 1 53.0171 34.0259 49.8519
11786 1 51.4345 32.4433 51.4345
11787 1 53.0171 34.0259 53.0171
11788 1 51.4345 32.4433 54.5997
11789 1 53.0171 34.0259 56.1823
11790 1 51.4345 32.4433 57.7649
11791 1 53.0171 34.0259 59.3475
11792 1 51.4345 32.4433 60.9301
11793 1 53.0171 34.0259 62.5127
11794 1 51.4345 32.4433 64.0953
11795 1 53.0171 34.0259 65.6779
11796 1 51.4345 32.4433 67.2605
11797 1 53.0171 34.0259 68.8431
11798 1 51.4345 32.4433 70.4257
11799 1 53.0171 34.0259 72.0083
11800 1 51.4345 32.4433 73.5909
11801 1 53.0171 34.0259 75.1735
11802 1 51.4345 32.4433 76.7561
11803 1 53.0171 34.0259 78.3387
11804 1 51.4345 35.6085 0.7913
11805 1 53.0171 37.1911 2.3739
11806 1 51.4345 35.6085 3.9565
11807 1 53.0171 37.1911 5.5391
11808 1 51.4345 35.6085 7.1217
11809 1 53.0171 37.1911 8.7043
11810 1 51.4345 35.6085 10.2869
11811 1 53.0171 37.1911 11.8695
11812 1 51.4345 35.6085 13.4521
11813 1 53.0171 37.1911 15.0347
11814 1 51.4345 35.6085 16.6173
11815 1 53.0171 37.1911 18.1999
11816 1 51.4345 35.6085 19.7825
11817 1 53.0171 37.1911 21.3651
11818 1 51.4345 35.6085 22.9477
11819 1 53.0171 37.1911 24.5303
11820 1 51.4345 35.6085 26.1129
11821 1 53.0171 37.1911 27.6955
11822 1 51.4345 35.6085 29.2781
11823 1 53.0171 37.1911 30.8607
11824 1 51.4345 35.6085 32.4433
11825 1 53.0171 37.1911 34.0259
11826 1 51.4345 35.6085 35.6085
11827 1 53.0171 37.1911 37.1911
11828 1 51.4345 35.6085 38.7737
11829 1 53.0171 37.1911 40.3563
11830 1 51.4345 35.6085 41.9389
11831 1 53.0171 37.1911 43.5215
11832 1 51.4345 35.6085 45.1041
11833 1 53.0171 37.1911 46.6867
11834 1 51.4345 35.6085 48.2693
11835 1 53.0171 37.1911 49.8519
11836 1 51.4345 35.6085 51.4345
11837 1 53.0171 37.1911 53.0171
11838 1 51.4345 35.6085 54.5997
11839 1 53.0171 37.1911 56.1823
11840 1 51.4345 35.6085 57.7649
11841 1 53.0171 37.1911 59.3475
11842 1 51.4345 35.6085 60.9301
11843 1 53.0171 37.1911 62.5127
11844 1 51.4345 35.6085 64.0953
11845 1 53.0171 37.1911 65.6779
11846 1 51.4345 35.6085 67.2605
11847 1 53.0171 37.1911 68.8431
11848 1 51.4345 35.6085 70.4257
11849 1 53.0171 37.1911 72.0083
11850 1 51.4345 35.6085 73.5909
11851 1 53.0171 37.1911 75.1735
11852 1 51.4345 35.6085 76.7561
11853 1 53.0171 37.1911 78.3387
11854 1 51.4345 38.7737 0.7913
11855 1 53.0171 40.3563 2.3739
11856 1 51.4345 38.7737 3.9565
11857 1 53.0171 40.3563 5.5391
11858 1 51.4345 38.7737 7.1217
11859 1 53.0171 40.3563 8.7043
11860 1 51.4345 38.7737 10.2869
11861 1 53.0171 40.3563 11.8695
11862 1 51.4345 38.7737 13.4521
11863 1 53.0171 40.3563 15.0347
11864 1 51.4345 38.7737 16.6173
11865 1 53.0171 40.3563 18.1999
11866 1 51.4345 38.7737 19.7825
11867 1 53.0171 40.3563 21.3651
11868 1 51.4345 38.7737 22.9477
11869 1 53.0171 40.3563 24.5303
11870 1 51.4345 38.7737 26.1129
11871 1 53.0171 40.3563 27.6955
11872 1 51.4345 38.7737 29.2781
11873 1 53.0171 40.3563 30.8607
11874 1 51.4345 38.7737 32.4433
11875 1 53.0171 40.3563 34.0259
11876 1 51.4345 38.7737 35.6085
11877 1 53.0171 40.3563 37.1911
11878 1 51.4345 38.7737 38.7737
11879 1 53.0171 40.3563 40.3563
11880 1 51.4345 38.7737 41.9389
11881 1 53.0171 40.3563 43.5215
11882 1 51.4345 38.7737 45.1041
11883 1 53.0171 40.3563 46.6867
11884 1 51.4345 38.7737 48.2693
11885 1 53.0171 40.3563 49.8519
11886 1 51.4345 38.7737 51.4345
11887 1 53.0171 40.3563 53.0171
11888 1 51.4345 38.7737 54.5997
11889 1 53.0171 40.3563 56.1823
11890 1 51.4345 38.7737 57.7649
11891 1 53.0171 40.3563 59.3475
11892 1 51.4345 38.7737 60.9301
11893 1 53.0171 40.3563 62.5127
11894 1 51.4345 38.7737 64.0953
11895 1 53.0171 40.3563 65.6779
11896 1 51.4345 38.7737 67.2605
11897 1 53.0171 40.3563 68.8431
11898 1 51.4345 38.7737 70.4257
11899 1 53.0171 40.3563 72.0083
11900 1 51.4345 38.7737 73.5909
11901 1 53.0171 40.3563 75.1735
11902 1 51.4345 38.7737 76.7561
11903 1 53.0171 40.3563 78.3387
11904 1 51.4345 41.9389 0.7913
11905 1 53.0171 43.5215 2.3739
11906 1 51.4345 41.9389 3.9565
11907 1 53.0171 43.5215 5.5391
11908 1 51.4345 41.9389 7.1217
11909 1 53.0171 43.5215 8.7043
11910 1 51.4345 41.9389 10.2869
11911 1 53.0171 43.5215 11.8695
11912 1 51.4345 41.9389 13.4521
11913 1 53.0171 43.5215 15.0347
11914 1 51.4345 41.9389 16.6173
11915 1 53.0171 43.5215 18.1999
11916 1 51.4345 41.9389 19.7825
11917 1 53.0171 43.5215 21.3651
11918 1 51.4345 41.9389 22.9477
11919 1 53.0171 43.5215 24.5303
11920 1 51.4345 41.9389 26.1129
11921 1 53.0171 43.5215 27.6955
11922 1 51.4345 41.9389 29.2781
11923 1 53.0171 43.5215 30.8607
11924 1 51.4345 41.9389 32.4433
11925 1 53.0171 43.5215 34.0259
11926 1 51.4345 41.9389 35.6085
11927 1 53.0171 43.5215 37.1911
11928 1 51.4345 41.9389 38.7737
11929 1 53.0171 43.5215 40.3563
11930 1 51.4345 41.9389 41.9389
11931 1 53.0171 43.5215 43.5215
11932 1 51.4345 41.9389 45.1041
11933 1 53.0171 43.5215 46.6867
11934 1 51.4345 41.9389 48.2693
11935 1 53.0171 43.5215 49.8519
11936 1 51.4345 41.9389 51.4345
11937 1 53.0171 43.5215 53.0171
11938 1 51.4345 41.9389 54.5997
11939 1 53.0171 43.5215 56.1823
11940 1 51.4345 41.9389 57.7649
11941 1 53.0171 43.5215 59.3475
11942 1 51.4345 41.9389 60.9301
11943 1 53.0171 43.5215 62.5127
11944 1 51.4345 41.9389 64.0953
11945 1 53.0171 43.5215 65.6779
11946 1 51.4345 41.9389 67.2605
11947 1 53.0171 43.5215 68.8431
11948 1 51.4345 41.9389 70.4257
11949 1 53.0171 43.5215 72.0083
11950 1 51.4345 41.9389 73.5909
11951 1 53.0171 43.5215 75.1735
11952 1 51.4345 41.9389 76.7561
11953 1 53.0171 43.5215 78.3387
11954 1 51.4345 45.1041 0.7913
11955 1 53.0171 46.6867 2.3739
11956 1 51.4345 45.1041 3.9565
11957 1 53.0171 46.6867 5.5391
11958 1 51.4345 45.1041 7.1217
11959 1 53.0171 46.6867 8.7043
11960 1 51.4345 45.1041 10.2869
11961 1 53.0171 46.6867 11.8695
11962 1 51.4345 45.1041 13.4521
11963 1 53.0171 46.6867 15.0347
11964 1 51.4345 45.1041 16.6173
11965 1 53.0171 46.6867 18.1999
11966 1 51.4345 45.1041 19.7825
11967 1 53.0171 46.6867 21.3651
11968 1 51.4345 45.1041 22.9477
11969 1 53.0171 46.6867 24.5303
11970 1 51.4345 45.1041 26.1129
11971 1 53.0171 46.6867 27.6955
11972 1 51.4345 45.1041 29.2781
11973 1 53.0171 46.6867 30.8607
11974 1 51.4345 45.1041 32.4433
11975 1 53.0171 46.6867 34.0259
11976 1 51.4345 45.1041 35.6085
11977 1 53.0171 46.6867 37.1911
11978 1 51.4345 45.1041 38.7737
11979 1 53.0171 46.6867 40.3563
11980 1 51.4345 45.1041 41.9389
11981 1 53.0171 46.6867 43.5215
11982 1 51.4345 45.1041 45.1041
11983 1 53.0171 46.6867 46.6867
11984 1 51.4345 45.1041 48.2693
11985 1 53.0171 46.6867 49.8519
11986 1 51.4345 45.1041 51.4345
11987 1 53.0171 46.6867 53.0171
11988 1 51.4345 45.1041 54.5997
11989 1 53.0171 46.6867 56.1823
11990 1 51.4345 45.1041 57.7649
11991 1 53.0171 46.6867 59.3475
11992 1 51.4345 45.1041 60.9301
11993 1 53.0171 46.6867 62.5127
11994 1 51.4345 45.1041 64.0953
11995 1 53.0171 46.6867 65.6779
11996 1 51.4345 45.1041 67.2605
11997 1 53.0171 46.6867 68.8431
11998 1 51.4345 45.1041 70.4257
11999 1 53.0171 46.6867 72.0083
12000 1 51.4345 45.1041 73.5909
12001 1 53.0171 46.6867 75.1735
12002 1 51.4345 45.1041 76.7561
12003 1 53.0171 46.6867 78.3387
12004 1 51.4345 48.2693 0.7913
12005 1 53.0171 49.8519 2.3739
12006 1 51.4345 48.2693 3.9565
12007 1 53.0171 49.8519 5.5391
12008 1 51.4345 48.2693 7.1217
12009 1 53.0171 49.8519 8.7043
12010 1 51.4345 48.2693 10.2869
12011 1 53.0171 49.8519 11.8695
12012 1 51.4345 48.2693 13.4521
12013 1 53.0171 49.8519 15.0347
12014 1 51.4345 48.2693 16.6173
12015 1 53.0171 49.8519 18.1999
12016 1 51.4345 48.2693 19.7825
12017 1 53.0171 49.8519 21.3651
12018 1 51.4345 48.2693 22.9477
12019 1 53.0171 49.8519 24.5303
12020 1 51.4345 48.2693 26.1129
12021 1 53.0171 49.8519 27.6955
12022 1 51.4345 48.2693 29.2781
12023 1 53.0171 49.8519 30.8607
12024 1 51.4345 48.2693 32.4433
12025 1 53.0171 49.8519 34.0259
12026 1 51.4345 48.2693 35.6085
12027 1 53.0171 49.8519 37.1911
12028 1 51.4345 48.2693 38.7737
12029 1 53.0171 49.8519 40.3563
12030 1 51.4345 48.2693 41.9389
12031 1 53.0171 49.8519 43.5215
12032 1 51.4345 48.2693 45.1041
12033 1 53.0171 49.8519 46.6867
12034 1 51.4345 48.2693 48.2693
12035 1 53.0171 49.8519 49.8519
12036 1 51.4345 48.2693 51.4345
12037 1 53.0171 49.8519 53.0171
12038 1 51.4345 48.2693 54.5997
12039 1 53.0171 49.8519 56.1823
12040 1 51.4345 48.2693 57.7649
12041 1 53.0171 49.8519 59.3475
12042 1 51.4345 48.2693 60.9301
12043 1 53.0171 49.8519 62.5127
12044 1 51.4345 48.2693 64.0953
12045 1 53.0171 49.8519 65.6779
12046 1 51.4345 48.2693 67.2605
12047 1 53.0171 49.8519 68.8431
12048 1 51.4345 48.2693 70.4257
12049 1 53.0171 49.8519 72.0083
12050 1 51.4345 48.2693 73.5909
12051 1 53.0171 49.8519 75.1735
12052 1 51.4345 48.2693 76.7561
12053 1 53.0171 49.8519 78.3387
12054 1 51.4345 51.4345 0.7913
12055 1 53.0171 53.0171 2.3739
12056 1 51.4345 51.4345 3.9565
12057 1 53.0171 53.0171 5.5391
12058 1 51.4345 51.4345 7.1217
12059 1 53.0171 53.0171 8.7043
12060 1 51.4345 51.4345 10.2869
12061 1 53.0171 53.0171 11.8695
12062 1 51.4345 51.4345 13.4521
12063 1 53.0171 53.0171 15.0347
12064 1 51.4345 51.4345 16.6173
12065 1 53.0171 53.0171 18.1999
12066 1 51.4345 51.4345 19.7825
12067 1 53.0171 53.0171 21.3651
12068 1 51.4345 51.4345 22.9477
12069 1 53.0171 53.0171 24.5303
12070 1 51.4345 51.4345 26.1129
12071 1 53.0171 53.0171 27.6955
12072 1 51.4345 51.4345 29.2781
12073 1 53.0171 53.0171 30.8607
12074 1 51.4345 51.4345 32.4433
12075 1 53.0171 53.0171 34.0259
12076 1 51.4345 51.4345 35.6085
12077 1 53.0171 53.0171 37.1911
12078 1 51.4345 51.4345 38.7737
12079 1 53.0171 53.0171 40.3563
12080 1 51.4345 51.4345 41.9389
12081 1 53.0171 53.0171 43.5215
12082 1 51.4345 51.4345 45.1041
12083 1 53.0171 53.0171 46.6867
12084 1 51.4345 51.4345 48.2693
12085 1 53.0171 53.0171 49.8519
12086 1 51.4345 51.4345 51.4345
12087 1 53.0171 53.0171 53.0171
12088 1 51.4345 51.4345 54.5997
12089 1 53.0171 53.0171 56.1823
12090 1 51.4345 51.4345 57.7649
12091 1 53.0171 53.0171 59.3475
12092 1 51.4345 51.4345 60.9301
12093 1 53.0171 53.0171 62.5127
12094 1 51.4345 51.4345 64.0953
12095 1 53.0171 53.0171 65.6779
12096 1 51.4345 51.4345 67.2605
12097 1 53.0171 53.0171 68.8431
12098 1 51.4345 51.4345 70.4257
12099 1 53.0171 53.0171 72.0083
12100 1 51.4345 51.4345 73.5909
12101 1 53.0171 53.0171 75.1735
12102 1 51.4345 51.4345 76.7561
12103 1 53.0171 53.0171 78.3387
12104 1 51.4345 54.5997 0.7913
12105 1 53.0171 56.1823 2.3739
12106 1 51.4345 54.5997 3.9565
12107 1 53.0171 56.1823 5.5391
12108 1 51.4345 54.5997 7.1217
12109 1 53.0171 56.1823 8.7043
12110 1 51.4345 54.5997 10.2869
12111 1 53.0171 56.1823 11.8695
12112 1 51.4345 54.5997 13.4521
12113 1 53.0171 56.1823 15.0347
12114 1 51.4345 54.5997 16.6173
12115 1 53.0171 56.1823 18.1999
12116 1 51.4345 54.5997 19.7825
12117 1 53.0171 56.1823 21.3651
12118 1 51.4345 54.5997 22.9477
12119 1 53.0171 56.1823 24.5303
12120 1 51.4345 54.5997 26.1129
12121 1 53.0171 56.1823 27.6955
12122 1 51.4345 54.5997 29.2781
12123 1 53.0171 56.1823 30.8607
12124 1 51.4345 54.5997 32.4433
12125 1 53.0171 56.1823 34.0259
12126 1 51.4345 54.5997 35.6085
12127 1 53.0171 56.1823 37.1911
12128 1 51.4345 54.5997 38.7737
12129 1 53.0171 56.1823 40.3563
12130 1 51.4345 54.5997 41.9389
12131 1 53.0171 56.1823 43.5215
12132 1 51.4345 54.5997 45.1041
12133 1 53.0171 56.1823 46.6867
12134 1 51.4345 54.5997 48.2693
12135 1 53.0171 56.1823 49.8519
12136 1 51.4345 54.5997 51.4345
12137 1 53.0171 56.1823 53.0171
12138 1 51.4345 54.5997 54.5997
12139 1 53.0171 56.1823 56.1823
12140 1 51.4345 54.5997 57.7649
12141 1 53.0171 56.1823 59.3475
12142 1 51.4345 54.5997 60.9301
12143 1 53.0171 56.1823 62.5127
12144 1 51.4345 54.5997 64.0953
12145 1 53.0171 56.1823 65.6779
12146 1 51.4345 54.5997 67.2605
12147 1 53.0171 56.1823 68.8431
12148 1 51.4345 54.5997 70.4257
12149 1 53.0171 56.1823 72.0083
12150 1 51.4345 54.5997 73.5909
12151 1 53.0171 56.1823 75.1735
12152 1 51.4345 54.5997 76.7561
12153 1 53.0171 56.1823 78.3387
12154 1 51.4345 57.7649 0.7913
12155 1 53.0171 59.3475 2.3739
12156 1 51.4345 57.7649 3.9565
12157 1 53.0171 59.3475 5.5391
12158 1 51.4345 57.7649 7.1217
12159 1 53.0171 59.3475 8.7043
12160 1 51.4345 57.7649 10.2869
12161 1 53.0171 59.3475 11.8695
12162 1 51.4345 57.7649 13.4521
12163 1 53.0171 59.3475 15.0347
12164 1 51.4345 57.7649 16.6173
12165 1 53.0171 59.3475 18.1999
12166 1 51.4345 57.7649 19.7825
12167 1 53.0171 59.3475 21.3651
12168 1 51.4345 57.7649 22.9477
12169 1 53.0171 59.3475 24.5303
12170 1 51.4345 57.7649 26.1129
12171 1 53.0171 59.3475 27.6955
12172 1 51.4345 57.7649 29.2781
12173 1 53.0171 59.3475 30.8607
12174 1 51.4345 57.7649 32.4433
12175 1 53.0171 59.3475 34.0259
12176 1 51.4345 57.7649 35.6085
12177 1 53.0171 59.3475 37.1911
12178 1 51.4345 57.7649 38.7737
12179 1 53.0171 59.3475 40.3563
12180 1 51.4345 57.7649 41.9389
12181 1 53.0171 59.3475 43.5215
12182 1 51.4345 57.7649 45.1041
12183 1 53.0171 59.3475 46.6867
12184 1 51.4345 57.7649 48.2693
12185 1 53.0171 59.3475 49.8519
12186 1 51.4345 57.7649 51.4345
12187 1 53.0171 59.3475 53.0171
12188 1 51.4345 57.7649 54.5997
12189 1 53.0171 59.3475 56.1823
12190 1 51.4345 57.7649 57.7649
12191 1 53.0171 59.3475 59.3475
12192 1 51.4345 57.7649 60.9301
12193 1 53.0171 59.3475 62.5127
12194 1 51.4345 57.7649 64.0953
12195 1 53.0171 59.3475 65.6779
12196 1 51.4345 57.7649 67.2605
12197 1 53.0171 59.3475 68.8431
12198 1 51.4345 57.7649 70.4257
12199 1 53.0171 59.3475 72.0083
12200 1 51.4345 57.7649 73.5909
12201 1 53.0171 59.3475 75.1735
12202 1 51.4345 57.7649 76.7561
12203 1 53.0171 59.3475 78.3387
12204 1 51.4345 60.9301 0.7913
12205 1 53.0171 62.5127 2.3739
12206 1 51.4345 60.9301 3.9565
12207 1 53.0171 62.5127 5.5391
12208 1 51.4345 60.9301 7.1217
12209 1 53.0171 62.5127 8.7043
12210 1 51.4345 60.9301 10.2869
12211 1 53.0171 62.5127 11.8695
12212 1 51.4345 60.9301 13.4521
12213 1 53.0171 62.5127 15.0347
12214 1 51.4345 60.9301 16.6173
12215 1 53.0171 62.5127 18.1999
12216 1 51.4345 60.9301 19.7825
12217 1 53.0171 62.5127 21.3651
12218 1 51.4345 60.9301 22.9477
12219 1 53.0171 62.5127 24.5303
12220 1 51.4345 60.9301 26.1129
12221 1 53.0171 62.5127 27.6955
12222 1 51.4345 60.9301 29.2781
12223 1 53.0171 62.5127 30.8607
12224 1 51.4345 60.9301 32.4433
12225 1 53.0171 62.5127 34.0259
12226 1 51.4345 60.9301 35.6085
12227 1 53.0171 62.5127 37.1911
12228 1 51.4345 60.9301 38.7737
12229 1 53.0171 62.5127 40.3563
12230 1 51.4345 60.9301 41.9389
12231 1 53.0171 62.5127 43.5215
12232 1 51.4345 60.9301 45.1041
12233 1 53.0171 62.5127 46.6867
12234 1 51.4345 60.9301 48.2693
12235 1 53.0171 62.5127 49.8519
12236 1 51.4345 60.9301 51.4345
12237 1 53.0171 62.5127 53.0171
12238 1 51.4345 60.9301 54.5997
12239 1 53.0171 62.5127 56.1823
12240 1 51.4345 60.9301 57.7649
12241 1 53.0171 62.5127 59.3475
12242 1 51.4345 60.9301 60.9301
12243 1 53.0171 62.5127 62.5127
12244 1 51.4345 60.9301 64.0953
12245 1 53.0171 62.5127 65.6779
12246 1 51.4345 60.9301 67.2605
12247 1 53.0171 62.5127 68.8431
12248 1 51.4345 60.9301 70.4257
12249 1 53.0171 62.5127 72.0083
12250 1 51.4345 60.9301 73.5909
12251 1 53.0171 62.5127 75.1735
12252 1 51.4345 60.9301 76.7561
12253 1 53.0171 62.5127 78.3387
12254 1 51.4345 64.0953 0.7913
12255 1 53.0171 65.6779 2.3739
12256 1 51.4345 64.0953 3.9565
12257 1 53.0171 65.6779 5.5391
12258 1 51.4345 64.0953 7.1217
12259 1 53.0171 65.6779 8.7043
12260 1 51.4345 64.0953 10.2869
12261 1 53.0171 65.6779 11.8695
12262 1 51.4345 64.0953 13.4521
12263 1 53.0171 65.6779 15.0347
12264 1 51.4345 64.0953 16.6173
12265 1 53.0171 65.6779 18.1999
12266 1 51.4345 64.0953 19.7825
12267 1 53.0171 65.6779 21.3651
12268 1 51.4345 64.0953 22.9477
12269 1 53.0171 65.6779 24.5303
12270 1 51.4345 64.0953 26.1129
12271 1 53.0171 65.6779 27.6955
12272 1 51.4345 64.0953 29.2781
12273 1 53.0171 65.6779 30.8607
12274 1 51.4345 64.0953 32.4433
12275 1 53.0171 65.6779 34.0259
12276 1 51.4345 64.0953 35.6085
12277 1 53.0171 65.6779 37.1911
12278 1 51.4345 64.0953 38.7737
12279 1 53.0171 65.6779 40.3563
12280 1 51.4345 64.0953 41.9389
12281 1 53.0171 65.6779 43.5215
12282 1 51.4345 64.0953 45.1041
12283 1 53.0171 65.6779 46.6867
12284 1 51.4345 64.0953 48.2693
12285 1 53.0171 65.6779 49.8519
12286 1 51.4345 64.0953 51.4345
12287 1 53.0171 65.6779 53.0171
12288 1 51.4345 64.0953 54.5997
12289 1 53.0171 65.6779 56.1823
12290 1 51.4345 64.0953 57.7649
12291 1 53.0171 65.6779 59.3475
12292 1 51.4345 64.0953 60.9301
12293 1 53.0171 65.6779 62.5127
12294 1 51.4345 64.0953 64.0953
12295 1 53.0171 65.6779 65.6779
12296 1 51.4345 64.0953 67.2605
12297 1 53.0171 65.6779 68.8431
12298 1 51.4345 64.0953 70.4257
12299 1 53.0171 65.6779 72.0083
12300 1 51.4345 64.0953 73.5909
12301 1 53.0171 65.6779 75.1735
12302 1 51.4345 64.0953 76.7561
12303 1 53.0171 65.6779 78.3387
12304 1 51.4345 67.2605 0.7913
12305 1 53.0171 68.8431 2.3739
12306 1 51.4345 67.2605 3.9565
12307 1 53.0171 68.8431 5.5391
12308 1 51.4345 67.2605 7.1217
12309 1 53.0171 68.8431 8.7043
12310 1 51.4345 67.2605 10.2869
12311 1 53.0171 68.8431 11.8695
12312 1 51.4345 67.2605 13.4521
12313 1 53.0171 68.8431 15.0347
12314 1 51.4345 67.2605 16.6173
12315 1 53.0171 68.8431 18.1999
12316 1 51.4345 67.2605 19.7825
12317 1 53.0171 68.8431 21.3651
12318 1 51.4345 67.2605 22.9477
12319 1 53.0171 68.8431 24.5303
12320 1 51.4345 67.2605 26.1129
12321 1 53.0171 68.8431 27.6955
12322 1 51.4345 67.2605 29.2781
12323 1 53.0171 68.8431 30.8607
12324 1 51.4345 67.2605 32.4433
12325 1 53.0171 68.8431 34.0259
12326 1 51.4345 67.2605 35.6085
12327 1 53.0171 68.8431 37.1911
12328 1 51.4345 67.2605 38.7737
12329 1 53.0171 68.8431 40.3563
12330 1 51.4345 67.2605 41.9389
12331 1 53.0171 68.8431 43.5215
12332 1 51.4345 67.2605 45.1041
12333 1 53.0171 68.8431 46.6867
12334 1 51.4345 67.2605 48.2693
12335 1 53.0171 68.8431 49.8519
12336 1 51.4345 67.2605 51.4345
12337 1 53.0171 68.8431 53.0171
12338 1 51.4345 67.2605 54.5997
12339 1 53.0171 68.8431 56.1823
12340 1 51.4345 67.2605 57.7649
12341 1 53.0171 68.8431 59.3475
12342 1 51.4345 67.2605 60.9301
12343 1 53.0171 68.8431 62.5127
12344 1 51.4345 67.2605 64.0953
12345 1 53.0171 68.8431 65.6779
12346 1 51.4345 67.2605 67.2605
12347 1 53.0171 68.8431 68.8431
12348 1 51.4345 67.2605 70.4257
12349 1 53.0171 68.8431 72.0083
12350 1 51.4345 67.2605 73.5909
12351 1 53.0171 68.8431 75.1735
12352 1 51.4345 67.2605 76.7561
12353 1 53.0171 68.8431 78.3387
12354 1 51.4345 70.4257 0.7913
12355 1 53.0171 72.0083 2.3739
12356 1 51.4345 70.4257 3.9565
12357 1 53.0171 72.0083 5.5391
12358 1 51.4345 70.4257 7.1217
12359 1 53.0171 72.0083 8.7043
12360 1 51.4345 70.4257 10.2869
12361 1 53.0171 72.0083 11.8695
12362 1 51.4345 70.4257 13.4521
12363 1 53.0171 72.0083 15.0347
12364 1 51.4345 70.4257 16.6173
12365 1 53.0171 72.0083 18.1999
12366 1 51.4345 70.4257 19.7825
12367 1 53.0171 72.0083 21.3651
12368 1 51.4345 70.4257 22.9477
12369 1 53.0171 72.0083 24.5303
12370 1 51.4345 70.4257 26.1129
12371 1 53.0171 72.0083 27.6955
12372 1 51.4345 70.4257 29.2781
12373 1 53.0171 72.0083 30.8607
12374 1 51.4345 70.4257 32.4433
12375 1 53.0171 72.0083 34.0259
12376 1 51.4345 70.4257 35.6085
12377 1 53.0171 72.0083 37.1911
12378 1 51.4345 70.4257 38.7737
12379 1 53.0171 72.0083 40.3563
12380 1 51.4345 70.4257 41.9389
12381 1 53.0171 72.0083 43.5215
12382 1 51.4345 70.4257 45.1041
12383 1 53.0171 72.0083 46.6867
12384 1 51.4345 70.4257 48.2693
12385 1 53.0171 72.0083 49.8519
12386 1 51.4345 70.4257 51.4345
12387 1 53.0171 72.0083 53.0171
12388 1 51.4345 70.4257 54.5997
12389 1 53.0171 72.0083 56.1823
12390 1 51.4345 70.4257 57.7649
12391 1 53.0171 72.0083 59.3475
12392 1 51.4345 70.4257 60.9301
12393 1 53.0171 72.0083 62.5127
12394 1 51.4345 70.4257 64.0953
12395 1 53.0171 72.0083 65.6779
12396 1 51.4345 70.4257 67.2605
12397 1 53.0171 72.0083 68.8431
12398 1 51.4345 70.4257 70.4257
12399 1 53.0171 72.0083 72.0083
12400 1 51.4345 70.4257 73.5909
12401 1 53.0171 72.0083 75.1735
12402 1 51.4345 70.4257 76.7561
12403 1 53.0171 72.0083 78.3387
12404 1 51.4345 73.5909 0.7913
12405 1 53.0171 75.1735 2.3739
12406 1 51.4345 73.5909 3.9565
12407 1 53.0171 75.1735 5.5391
12408 1 51.4345 73.5909 7.1217
12409 1 53.0171 75.1735 8.7043
12410 1 51.4345 73.5909 10.2869
12411 1 53.0171 75.1735 11.8695
12412 1 51.4345 73.5909 13.4521
12413 1 53.0171 75.1735 15.0347
12414 1 51.4345 73.5909 16.6173
12415 1 53.0171 75.1735 18.1999
12416 1 51.4345 73.5909 19.7825
12417 1 53.0171 75.1735 21.3651
12418 1 51.4345 73.5909 22.9477
12419 1 53.0171 75.1735 24.5303
12420 1 51.4345 73.5909 26.1129
12421 1 53.0171 75.1735 27.6955
12422 1 51.4345 73.5909 29.2781
12423 1 53.0171 75.1735 30.8607
12424 1 51.4345 73.5909 32.4433
12425 1 53.0171 75.1735 34.0259
12426 1 51.4345 73.5909 35.6085
12427 1 53.0171 75.1735 37.1911
12428 1 51.4345 73.5909 38.7737
12429 1 53.0171 75.1735 40.3563
12430 1 51.4345 73.5909 41.9389
12431 1 53.0171 75.1735 43.5215
12432 1 51.4345 73.5909 45.1041
12433 1 53.0171 75.1735 46.6867
12434 1 51.4345 73.5909 48.2693
12435 1 53.0171 75.1735 49.8519
12436 1 51.4345 73.5909 51.4345
12437 1 53.0171 75.1735 53.0171
12438 1 51.4345 73.5909 54.5997
12439 1 53.0171 75.1735 56.1823
12440 1 51.4345 73.5909 57.7649
12441 1 53.0171 75.1735 59.3475
12442 1 51.4345 73.5909 60.9301
12443 1 53.0171 75.1735 62.5127
12444 1 51.4345 73.5909 64.0953
12445 1 53.0171 75.1735 65.6779
12446 1 51.4345 73.5909 67.2605
12447 1 53.0171 75.1735 68.8431
12448 1 51.4345 73.5909 70.4257
12449 1 53.0171 75.1735 72.0083
12450 1 51.4345 73.5909 73.5909
12451 1 53.0171 75.1735 75.1735
12452 1 51.4345 73.5909 76.7561
12453 1 53.0171 75.1735 78.3387
12454 1 51.4345 76.7561 0.7913
12455 1 53.0171 78.3387 2.3739
12456 1 51.4345 76.7561 3.9565
12457 1 53.0171 78.3387 5.5391
12458 1 51.4345 76.7561 7.1217
12459 1 53.0171 78.3387 8.7043
12460 1 51.4345 76.7561 10.2869
12461 1 53.0171 78.3387 11.8695
12462 1 51.4345 76.7561 13.4521
12463 1 53.0171 78.3387 15.0347
12464 1 51.4345 76.7561 16.6173
12465 1 53.0171 78.3387 18.1999
12466 1 51.4345 76.7561 19.7825
12467 1 53.0171 78.3387 21.3651
12468 1 51.4345 76.7561 22.9477
12469 1 53.0171 78.3387 24.5303
12470 1 51.4345 76.7561 26.1129
12471 1 53.0171 78.3387 27.6955
12472 1 51.4345 76.7561 29.2781
12473 1 53.0171 78.3387 30.8607
12474 1 51.4345 76.7561 32.4433
12475 1 53.0171 78.3387 34.0259
12476 1 51.4345 76.7561 35.6085
12477 1 53.0171 78.3387 37.1911
12478 1 51.4345 76.7561 38.7737
12479 1 53.0171 78.3387 40.3563
12480 1 51.4345 76.7561 41.9389
12481 1 53.0171 78.3387 43.5215
12482 1 51.4345 76.7561 45.1041
12483 1 53.0171 78.3387 46.6867
12484 1 51.4345 76.7561 48.2693
12485 1 53.0171 78.3387 49.8519
12486 1 51.4345 76.7561 51.4345
12487 1 53.0171 78.3387 53.0171
12488 1 51.4345 76.7561 54.5997
12489 1 53.0171 78.3387 56.1823
12490 1 51.4345 76.7561 57.7649
12491 1 53.0171 78.3387 59.3475
12492 1 51.4345 76.7561 60.9301
12493 1 53.0171 78.3387 62.5127
12494 1 51.4345 76.7561 64.0953
12495 1 53.0171 78.3387 65.6779
12496 1 51.4345 76.7561 67.2605
12497 1 53.0171 78.3387 68.8431
12498 1 51.4345 76.7561 70.4257
12499 1 53.0171 78.3387 72.0083
12500 1 51.4345 76.7561 73.5909
12501 1 53.0171 78.3387 75.1735
12502 1 51.4345 76.7561 76.7561
12503 1 53.0171 78.3387 78.3387
12504 1 54.5997 0.7913 0.7913
12505 1 56.1823 2.3739 2.3739
12506 1 54.5997 0.7913 3.9565
12507 1 56.1823 2.3739 5.5391
12508 1 54.5997 0.7913 7.1217
12509 1 56.1823 2.3739 8.7043
12510 1 54.5997 0.7913 10.2869
12511 1 56.1823 2.3739 11.8695
12512 1 54.5997 0.7913 13.4521
12513 1 56.1823 2.3739 15.0347
12514 1 54.5997 0.7913 16.6173
12515 1 56.1823 2.3739 18.1999
12516 1 54.5997 0.7913 19.7825
12517 1 56.1823 2.3739 21.3651
12518 1 54.5997 0.7913 22.9477
12519 1 56.1823 2.3739 24.5303
12520 1 54.5997 0.7913 26.1129
12521 1 56.1823 2.3739 27.6955
12522 1 54.5997 0.7913 29.2781
12523 1 56.1823 2.3739 30.8607
12524 1 54.5997 0.7913 32.4433
12525 1 56.1823 2.3739 34.0259
12526 1 54.5997 0.7913 35.6085
12527 1 56.1823 2.3739 37.1911
12528 1 54.5997 0.7913 38.7737
12529 1 56.1823 2.3739 40.3563
12530 1 54.5997 0.7913 41.9389
12531 1 56.1823 2.3739 43.5215
12532 1 54.5997 0.7913 45.1041
12533 1 56.1823 2.3739 46.6867
12534 1 54.5997 0.7913 48.2693
12535 1 56.1823 2.3739 49.8519
12536 1 54.5997 0.7913 51.4345
12537 1 56.1823 2.3739 53.0171
12538 1 54.5997 0.7913 54.5997
12539 1 56.1823 2.3739 56.1823
12540 1 54.5997 0.7913 57.7649
12541 1 56.1823 2.3739 59.3475
12542 1 54.5997 0.7913 60.9301
12543 1 56.1823 2.3739 62.5127
12544 1 54.5997 0.7913 64.0953
12545 1 56.1823 2.3739 65.6779
12546 1 54.5997 0.7913 67.2605
12547 1 56.1823 2.3739 68.8431
12548 1 54.5997 0.7913 70.4257
12549 1 56.1823 2.3739 72.0083
12550 1 54.5997 0.7913 73.5909
12551 1 56.1823 2.3739 75.1735
12552 1 54.5997 0.7913 76.7561
12553 1 56.1823 2.3739 78.3387
12554 1 54.5997 3.9565 0.7913
12555 1 56.1823 5.5391 2.3739
12556 1 54.5997 3.9565 3.9565
12557 1 56.1823 5.5391 5.5391
12558 1 54.5997 3.9565 7.1217
12559 1 56.1823 5.5391 8.7043
12560 1 54.5997 3.9565 10.2869
12561 1 56.1823 5.5391 11.8695
12562 1 54.5997 3.9565 13.4521
12563 1 56.1823 5.5391 15.0347
12564 1 54.5997 3.9565 16.6173
12565 1 56.1823 5.5391 18.1999
12566 1 54.5997 3.9565 19.7825
12567 1 56.1823 5.5391 21.3651
12568 1 54.5997 3.9565 22.9477
12569 1 56.1823 5.5391 24.5303
12570 1 54.5997 3.9565 26.1129
12571 1 56.1823 5.5391 27.6955
12572 1 54.5997 3.9565 29.2781
12573 1 56.1823 5.5391 30.8607
12574 1 54.5997 3.9565 32.4433
12575 1 56.1823 5.5391 34.0259
12576 1 54.5997 3.9565 35.6085
12577 1 56.1823 5.5391 37.1911
12578 1 54.5997 3.9565 38.7737
12579 1 56.1823 5.5391 40.3563
12580 1 54.5997 3.9565 41.9389
12581 1 56.1823 5.5391 43.5215
12582 1 54.5997 3.9565 45.1041
12583 1 56.1823 5.5391 46.6867
12584 1 54.5997 3.9565 48.2693
12585 1 56.1823 5.5391 49.8519
12586 1 54.5997 3.9565 51.4345
12587 1 56.1823 5.5391 53.0171
12588 1 54.5997 3.9565 54.5997
12589 1 56.1823 5.5391 56.1823
12590 1 54.5997 3.9565 57.7649
12591 1 56.1823 5.5391 59.3475
12592 1 54.5997 3.9565 60.9301
12593 1 56.1823 5.5391 62.5127
12594 1 54.5997 3.9565 64.0953
12595 1 56.1823 5.5391 65.6779
12596 1 54.5997 3.9565 67.2605
12597 1 56.1823 5.5391 68.8431
12598 1 54.5997 3.9565 70.4257
12599 1 56.1823 5.5391 72.0083
12600 1 54.5997 3.9565 73.5909
12601 1 56.1823 5.5391 75.1735
12602 1 54.5997 3.9565 76.7561
12603 1 56.1823 5.5391 78.3387
12604 1 54.5997 7.1217 0.7913
12605 1 56.1823 8.7043 2.3739
12606 1 54.5997 7.1217 3.9565
12607 1 56.1823 8.7043 5.5391
12608 1 54.5997 7.1217 7.1217
12609 1 56.1823 8.7043 8.7043
12610 1 54.5997 7.1217 10.2869
12611 1 56.1823 8.7043 11.8695
12612 1 54.5997 7.1217 13.4521
12613 1 56.1823 8.7043 15.0347
12614 1 54.5997 7.1217 16.6173
12615 1 56.1823 8.7043 18.1999
12616 1 54.5997 7.1217 19.7825
12617 1 56.1823 8.7043 21.3651
12618 1 54.5997 7.1217 22.9477
12619 1 56.1823 8.7043 24.5303
12620 1 54.5997 7.1217 26.1129
12621 1 56.1823 8.7043 27.6955
12622 1 54.5997 7.1217 29.2781
12623 1 56.1823 8.7043 30.8607
12624 1 54.5997 7.1217 32.4433
12625 1 56.1823 8.7043 34.0259
12626 1 54.5997 7.1217 35.6085
12627 1 56.1823 8.7043 37.1911
12628 1 54.5997 7.1217 38.7737
12629 1 56.1823 8.7043 40.3563
12630 1 54.5997 7.1217 41.9389
12631 1 56.1823 8.7043 43.5215
12632 1 54.5997 7.1217 45.1041
12633 1 56.1823 8.7043 46.6867
12634 1 54.5997 7.1217 48.2693
12635 1 56.1823 8.7043 49.8519
12636 1 54.5997 7.1217 51.4345
12637 1 56.1823 8.7043 53.0171
12638 1 54.5997 7.1217 54.5997
12639 1 56.1823 8.7043 56.1823
12640 1 54.5997 7.1217 57.7649
12641 1 56.1823 8.7043 59.3475
12642 1 54.5997 7.1217 60.9301
12643 1 56.1823 8.7043 62.5127
12644 1 54.5997 7.1217 64.0953
12645 1 56.1823 8.7043 65.6779
12646 1 54.5997 7.1217 67.2605
12647 1 56.1823 8.7043 68.8431
12648 1 54.5997 7.1217 70.4257
12649 1 56.1823 8.7043 72.0083
12650 1 54.5997 7.1217 73.5909
12651 1 56.1823 8.7043 75.1735
12652 1 54.5997 7.1217 76.7561
12653 1 56.1823 8.7043 78.3387
12654 1 54.5997 10.2869 0.7913
12655 1 56.1823 11.8695 2.3739
12656 1 54.5997 10.2869 3.9565
12657 1 56.1823 11.8695 5.5391
12658 1 54.5997 10.2869 7.1217
12659 1 56.1823 11.8695 8.7043
12660 1 54.5997 10.2869 10.2869
12661 1 56.1823 11.8695 11.8695
12662 1 54.5997 10.2869 13.4521
12663 1 56.1823 11.8695 15.0347
12664 1 54.5997 10.2869 16.6173
12665 1 56.1823 11.8695 18.1999
12666 1 54.5997 10.2869 19.7825
12667 1 56.1823 11.8695 21.3651
12668 1 54.5997 10.2869 22.9477
12669 1 56.1823 11.8695 24.5303
12670 1 54.5997 10.2869 26.1129
12671 1 56.1823 11.8695 27.6955
12672 1 54.5997 10.2869 29.2781
12673 1 56.1823 11.8695 30.8607
12674 1 54.5997 10.2869 32.4433
12675 1 56.1823 11.8695 34.0259
12676 1 54.5997 10.2869 35.6085
12677 1 56.1823 11.8695 37.1911
12678 1 54.5997 10.2869 38.7737
12679 1 56.1823 11.8695 40.3563
12680 1 54.5997 10.2869 41.9389
12681 1 56.1823 11.8695 43.5215
12682 1 54.5997 10.2869 45.1041
12683 1 56.1823 11.8695 46.6867
12684 1 54.5997 10.2869 48.2693
12685 1 56.1823 11.8695 49.8519
12686 1 54.5997 10.2869 51.4345
12687 1 56.1823 11.8695 53.0171
12688 1 54.5997 10.2869 54.5997
12689 1 56.1823 11.8695 56.1823
12690 1 54.5997 10.2869 57.7649
12691 1 56.1823 11.8695 59.3475
12692 1 54.5997 10.2869 60.9301
12693 1 56.1823 11.8695 62.5127
12694 1 54.5997 10.2869 64.0953
12695 1 56.1823 11.8695 65.6779
12696 1 54.5997 10.2869 67.2605
12697 1 56.1823 11.8695 68.8431
12698 1 54.5997 10.2869 70.4257
12699 1 56.1823 11.8695 72.0083
12700 1 54.5997 10.2869 73.5909
12701 1 56.1823 11.8695 75.1735
12702 1 54.5997 10.2869 76.7561
12703 1 56.1823 11.8695 78.3387
12704 1 54.5997 13.4521 0.7913
12705 1 56.1823 15.0347 2.3739
12706 1 54.5997 13.4521 3.9565
12707 1 56.1823 15.0347 5.5391
12708 1 54.5997 13.4521 7.1217
12709 1 56.1823 15.0347 8.7043
12710 1 54.5997 13.4521 10.2869
12711 1 56.1823 15.0347 11.8695
12712 1 54.5997 13.4521 13.4521
12713 1 56.1823 15.0347 15.0347
12714 1 54.5997 13.4521 16.6173
12715 1 56.1823 15.0347 18.1999
12716 1 54.5997 13.4521 19.7825
12717 1 56.1823 15.0347 21.3651
12718 1 54.5997 13.4521 22.9477
12719 1 56.1823 15.0347 24.5303
12720 1 54.5997 13.4521 26.1129
12721 1 56.1823 15.0347 27.6955
12722 1 54.5997 13.4521 29.2781
12723 1 56.1823 15.0347 30.8607
12724 1 54.5997 13.4521 32.4433
12725 1 56.1823 15.0347 34.0259
12726 1 54.5997 13.4521 35.6085
12727 1 56.1823 15.0347 37.1911
12728 1 54.5997 13.4521 38.7737
12729 1 56.1823 15.0347 40.3563
12730 1 54.5997 13.4521 41.9389
12731 1 56.1823 15.0347 43.5215
12732 1 54.5997 13.4521 45.1041
12733 1 56.1823 15.0347 46.6867
12734 1 54.5997 13.4521 48.2693
12735 1 56.1823 15.0347 49.8519
12736 1 54.5997 13.4521 51.4345
12737 1 56.1823 15.0347 53.0171
12738 1 54.5997 13.4521 54.5997
12739 1 56.1823 15.0347 56.1823
12740 1 54.5997 13.4521 57.7649
12741 1 56.1823 15.0347 59.3475
12742 1 54.5997 13.4521 60.9301
12743 1 56.1823 15.0347 62.5127
12744 1 54.5997 13.4521 64.0953
12745 1 56.1823 15.0347 65.6779
12746 1 54.5997 13.4521 67.2605
12747 1 56.1823 15.0347 68.8431
12748 1 54.5997 13.4521 70.4257
12749 1 56.1823 15.0347 72.0083
12750 1 54.5997 13.4521 73.5909
12751 1 56.1823 15.0347 75.1735
12752 1 54.5997 13.4521 76.7561
12753 1 56.1823 15.0347 78.3387
12754 1 54.5997 16.6173 0.7913
12755 1 56.1823 18.1999 2.3739
12756 1 54.5997 16.6173 3.9565
12757 1 56.1823 18.1999 5.5391
12758 1 54.5997 16.6173 7.1217
12759 1 56.1823 18.1999 8.7043
12760 1 54.5997 16.6173 10.2869
12761 1 56.1823 18.1999 11.8695
12762 1 54.5997 16.6173 13.4521
12763 1 56.1823 18.1999 15.0347
12764 1 54.5997 16.6173 16.6173
12765 1 56.1823 18.1999 18.1999
12766 1 54.5997 16.6173 19.7825
12767 1 56.1823 18.1999 21.3651
12768 1 54.5997 16.6173 22.9477
12769 1 56.1823 18.1999 24.5303
12770 1 54.5997 16.6173 26.1129
12771 1 56.1823 18.1999 27.6955
12772 1 54.5997 16.6173 29.2781
12773 1 56.1823 18.1999 30.8607
12774 1 54.5997 16.6173 32.4433
12775 1 56.1823 18.1999 34.0259
12776 1 54.5997 16.6173 35.6085
12777 1 56.1823 18.1999 37.1911
12778 1 54.5997 16.6173 38.7737
12779 1 56.1823 18.1999 40.3563
12780 1 54.5997 16.6173 41.9389
12781 1 56.1823 18.1999 43.5215
12782 1 54.5997 16.6173 45.1041
12783 1 56.1823 18.1999 46.6867
12784 1 54.5997 16.6173 48.2693
12785 1 56.1823 18.1999 49.8519
12786 1 54.5997 16.6173 51.4345
12787 1 56.1823 18.1999 53.0171
12788 1 54.5997 16.6173 54.5997
12789 1 56.1823 18.1999 56.1823
12790 1 54.5997 16.6173 57.7649
12791 1 56.1823 18.1999 59.3475
12792 1 54.5997 16.6173 60.9301
12793 1 56.1823 18.1999 62.5127
12794 1 54.5997 16.6173 64.0953
12795 1 56.1823 18.1999 65.6779
12796 1 54.5997 16.6173 67.2605
12797 1 56.1823 18.1999 68.8431
12798 1 54.5997 16.6173 70.4257
12799 1 56.1823 18.1999 72.0083
12800 1 54.5997 16.6173 73.5909
12801 1 56.1823 18.1999 75.1735
12802 1 54.5997 16.6173 76.7561
12803 1 56.1823 18.1999 78.3387
12804 1 54.5997 19.7825 0.7913
12805 1 56.1823 21.3651 2.3739
12806 1 54.5997 19.7825 3.9565
12807 1 56.1823 21.3651 5.5391
12808 1 54.5997 19.7825 7.1217
12809 1 56.1823 21.3651 8.7043
12810 1 54.5997 19.7825 10.2869
12811 1 56.1823 21.3651 11.8695
12812 1 54.5997 19.7825 13.4521
12813 1 56.1823 21.3651 15.0347
12814 1 54.5997 19.7825 16.6173
12815 1 56.1823 21.3651 18.1999
12816 1 54.5997 19.7825 19.7825
12817 1 56.1823 21.3651 21.3651
12818 1 54.5997 19.7825 22.9477
12819 1 56.1823 21.3651 24.5303
12820 1 54.5997 19.7825 26.1129
12821 1 56.1823 21.3651 27.6955
12822 1 54.5997 19.7825 29.2781
12823 1 56.1823 21.3651 30.8607
12824 1 54.5997 19.7825 32.4433
12825 1 56.1823 21.3651 34.0259
12826 1 54.5997 19.7825 35.6085
12827 1 56.1823 21.3651 37.1911
12828 1 54.5997 19.7825 38.7737
12829 1 56.1823 21.3651 40.3563
12830 1 54.5997 19.7825 41.9389
12831 1 56.1823 21.3651 43.5215
12832 1 54.5997 19.7825 45.1041
12833 1 56.1823 21.3651 46.6867
12834 1 54.5997 19.7825 48.2693
12835 1 56.1823 21.3651 49.8519
12836 1 54.5997 19.7825 51.4345
12837 1 56.1823 21.3651 53.0171
12838 1 54.5997 19.7825 54.5997
12839 1 56.1823 21.3651 56.1823
12840 1 54.5997 19.7825 57.7649
12841 1 56.1823 21.3651 59.3475
12842 1 54.5997 19.7825 60.9301
12843 1 56.1823 21.3651 62.5127
12844 1 54.5997 19.7825 64.0953
12845 1 56.1823 21.3651 65.6779
12846 1 54.5997 19.7825 67.2605
12847 1 56.1823 21.3651 68.8431
12848 1 54.5997 19.7825 70.4257
12849 1 56.1823 21.3651 72.0083
12850 1 54.5997 19.7825 73.5909
12851 1 56.1823 21.3651 75.1735
12852 1 54.5997 19.7825 76.7561
12853 1 56.1823 21.3651 78.3387
12854 1 54.5997 22.9477 0.7913
12855 1 56.1823 24.5303 2.3739
12856 1 54.5997 22.9477 3.9565
12857 1 56.1823 24.5303 5.5391
12858 1 54.5997 22.9477 7.1217
12859 1 56.1823 24.5303 8.7043
12860 1 54.5997 22.9477 10.2869
12861 1 56.1823 24.5303 11.8695
12862 1 54.5997 22.9477 13.4521
12863 1 56.1823 24.5303 15.0347
12864 1 54.5997 22.9477 16.6173
12865 1 56.1823 24.5303 18.1999
12866 1 54.5997 22.9477 19.7825
12867 1 56.1823 24.5303 21.3651
12868 1 54.5997 22.9477 22.9477
12869 1 56.1823 24.5303 24.5303
12870 1 54.5997 22.9477 26.1129
12871 1 56.1823 24.5303 27.6955
12872 1 54.5997 22.9477 29.2781
12873 1 56.1823 24.5303 30.8607
12874 1 54.5997 22.9477 32.4433
12875 1 56.1823 24.5303 34.0259
12876 1 54.5997 22.9477 35.6085
12877 1 56.1823 24.5303 37.1911
12878 1 54.5997 22.9477 38.7737
12879 1 56.1823 24.5303 40.3563
12880 1 54.5997 22.9477 41.9389
12881 1 56.1823 24.5303 43.5215
12882 1 54.5997 22.9477 45.1041
12883 1 56.1823 24.5303 46.6867
12884 1 54.5997 22.9477 48.2693
12885 1 56.1823 24.5303 49.8519
12886 1 54.5997 22.9477 51.4345
12887 1 56.1823 24.5303 53.0171
12888 1 54.5997 22.9477 54.5997
12889 1 56.1823 24.5303 56.1823
12890 1 54.5997 22.9477 57.7649
12891 1 56.1823 24.5303 59.3475
12892 1 54.5997 22.9477 60.9301
12893 1 56.1823 24.5303 62.5127
12894 1 54.5997 22.9477 64.0953
12895 1 56.1823 24.5303 65.6779
12896 1 54.5997 22.9477 67.2605
12897 1 56.1823 24.5303 68.8431
12898 1 54.5997 22.9477 70.4257
12899 1 56.1823 24.5303 72.0083
12900 1 54.5997 22.9477 73.5909
12901 1 56.1823 24.5303 75.1735
12902 1 54.5997 22.9477 76.7561
12903 1 56.1823 24.5303 78.3387
12904 1 54.5997 26.1129 0.7913
12905 1 56.1823 27.6955 2.3739
12906 1 54.5997 26.1129 3.9565
12907 1 56.1823 27.6955 5.5391
12908 1 54.5997 26.1129 7.1217
12909 1 56.1823 27.6955 8.7043
12910 1 54.5997 26.1129 10.2869
12911 1 56.1823 27.6955 11.8695
12912 1 54.5997 26.1129 13.4521
12913 1 56.1823 27.6955 15.0347
12914 1 54.5997 26.1129 16.6173
12915 1 56.1823 27.6955 18.1999
12916 1 54.5997 26.1129 19.7825
12917 1 56.1823 27.6955 21.3651
12918 1 54.5997 26.1129 22.9477
12919 1 56.1823 27.6955 24.5303
12920 1 54.5997 26.1129 26.1129
12921 1 56.1823 27.6955 27.6955
12922 1 54.5997 26.1129 29.2781
12923 1 56.1823 27.6955 30.8607
12924 1 54.5997 26.1129 32.4433
12925 1 56.1823 27.6955 34.0259
12926 1 54.5997 26.1129 35.6085
12927 1 56.1823 27.6955 37.1911
12928 1 54.5997 26.1129 38.7737
12929 1 56.1823 27.6955 40.3563
12930 1 54.5997 26.1129 41.9389
12931 1 56.1823 27.6955 43.5215
12932 1 54.5997 26.1129 45.1041
12933 1 56.1823 27.6955 46.6867
12934 1 54.5997 26.1129 48.2693
12935 1 56.1823 27.6955 49.8519
12936 1 54.5997 26.1129 51.4345
12937 1 56.1823 27.6955 53.0171
12938 1 54.5997 26.1129 54.5997
12939 1 56.1823 27.6955 56.1823
12940 1 54.5997 26.1129 57.7649
12941 1 56.1823 27.6955 59.3475
12942 1 54.5997 26.1129 60.9301
12943 1 56.1823 27.6955 62.5127
12944 1 54.5997 26.1129 64.0953
12945 1 56.1823 27.6955 65.6779
12946 1 54.5997 26.1129 67.2605
12947 1 56.1823 27.6955 68.8431
12948 1 54.5997 26.1129 70.4257
12949 1 56.1823 27.6955 72.0083
12950 1 54.5997 26.1129 73.5909
12951 1 56.1823 27.6955 75.1735
12952 1 54.5997 26.1129 76.7561
12953 1 56.1823 27.6955 78.3387
12954 1 54.5997 29.2781 0.7913
12955 1 56.1823 30.8607 2.3739
12956 1 54.5997 29.2781 3.9565
12957 1 56.1823 30.8607 5.5391
12958 1 54.5997 29.2781 7.1217
12959 1 56.1823 30.8607 8.7043
12960 1 54.5997 29.2781 10.2869
12961 1 56.1823 30.8607 11.8695
12962 1 54.5997 29.2781 13.4521
12963 1 56.1823 30.8607 15.0347
12964 1 54.5997 29.2781 16.6173
12965 1 56.1823 30.8607 18.1999
12966 1 54.5997 29.2781 19.7825
12967 1 56.1823 30.8607 21.3651
12968 1 54.5997 29.2781 22.9477
12969 1 56.1823 30.8607 24.5303
12970 1 54.5997 29.2781 26.1129
12971 1 56.1823 30.8607 27.6955
12972 1 54.5997 29.2781 29.2781
12973 1 56.1823 30.8607 30.8607
12974 1 54.5997 29.2781 32.4433
12975 1 56.1823 30.8607 34.0259
12976 1 54.5997 29.2781 35.6085
12977 1 56.1823 30.8607 37.1911
12978 1 54.5997 29.2781 38.7737
12979 1 56.1823 30.8607 40.3563
12980 1 54.5997 29.2781 41.9389
12981 1 56.1823 30.8607 43.5215
12982 1 54.5997 29.2781 45.1041
12983 1 56.1823 30.8607 46.6867
12984 1 54.5997 29.2781 48.2693
12985 1 56.1823 30.8607 49.8519
12986 1 54.5997 29.2781 51.4345
12987 1 56.1823 30.8607 53.0171
12988 1 54.5997 29.2781 54.5997
12989 1 56.1823 30.8607 56.1823
12990 1 54.5997 29.2781 57.7649
12991 1 56.1823 30.8607 59.3475
12992 1 54.5997 29.2781 60.9301
12993 1 56.1823 30.8607 62.5127
12994 1 54.5997 29.2781 64.0953
12995 1 56.1823 30.8607 65.6779
12996 1 54.5997 29.2781 67.2605
12997 1 56.1823 30.8607 68.8431
12998 1 54.5997 29.2781 70.4257
12999 1 56.1823 30.8607 72.0083
13000 1 54.5997 29.2781 73.5909
13001 1 56.1823 30.8607 75.1735
13002 1 54.5997 29.2781 76.7561
13003 1 56.1823 30.8607 78.3387
13004 1 54.5997 32.4433 0.7913
13005 1 56.1823 34.0259 2.3739
13006 1 54.5997 32.4433 3.9565
13007 1 56.1823 34.0259 5.5391
13008 1 54.5997 32.4433 7.1217
13009 1 56.1823 34.0259 8.7043
13010 1 54.5997 32.4433 10.2869
13011 1 56.1823 34.0259 11.8695
13012 1 54.5997 32.4433 13.4521
13013 1 56.1823 34.0259 15.0347
13014 1 54.5997 32.4433 16.6173
13015 1 56.1823 34.0259 18.1999
13016 1 54.5997 32.4433 19.7825
13017 1 56.1823 34.0259 21.3651
13018 1 54.5997 32.4433 22.9477
13019 1 56.1823 34.0259 24.5303
13020 1 54.5997 32.4433 26.1129
13021 1 56.1823 34.0259 27.6955
13022 1 54.5997 32.4433 29.2781
13023 1 56.1823 34.0259 30.8607
13024 1 54.5997 32.4433 32.4433
13025 1 56.1823 34.0259 34.0259
13026 1 54.5997 32.4433 35.6085
13027 1 56.1823 34.0259 37.1911
13028 1 54.5997 32.4433 38.7737
13029 1 56.1823 34.0259 40.3563
13030 1 54.5997 32.4433 41.9389
13031 1 56.1823 34.0259 43.5215
13032 1 54.5997 32.4433 45.1041
13033 1 56.1823 34.0259 46.6867
13034 1 54.5997 32.4433 48.2693
13035 1 56.1823 34.0259 49.8519
13036 1 54.5997 32.4433 51.4345
13037 1 56.1823 34.0259 53.0171
13038 1 54.5997 32.4433 54.5997
13039 1 56.1823 34.0259 56.1823
13040 1 54.5997 32.4433 57.7649
13041 1 56.1823 34.0259 59.3475
13042 1 54.5997 32.4433 60.9301
13043 1 56.1823 34.0259 62.5127
13044 1 54.5997 32.4433 64.0953
13045 1 56.1823 34.0259 65.6779
13046 1 54.5997 32.4433 67.2605
13047 1 56.1823 34.0259 68.8431
13048 1 54.5997 32.4433 70.4257
13049 1 56.1823 34.0259 72.0083
13050 1 54.5997 32.4433 73.5909
13051 1 56.1823 34.0259 75.1735
13052 1 54.5997 32.4433 76.7561
13053 1 56.1823 34.0259 78.3387
13054 1 54.5997 35.6085 0.7913
13055 1 56.1823 37.1911 2.3739
13056 1 54.5997 35.6085 3.9565
13057 1 56.1823 37.1911 5.5391
13058 1 54.5997 35.6085 7.1217
13059 1 56.1823 37.1911 8.7043
13060 1 54.5997 35.6085 10.2869
13061 1 56.1823 37.1911 11.8695
13062 1 54.5997 35.6085 13.4521
13063 1 56.1823 37.1911 15.0347
13064 1 54.5997 35.6085 16.6173
13065 1 56.1823 37.1911 18.1999
13066 1 54.5997 35.6085 19.7825
13067 1 56.1823 37.1911 21.3651
13068 1 54.5997 35.6085 22.9477
13069 1 56.1823 37.1911 24.5303
13070 1 54.5997 35.6085 26.1129
13071 1 56.1823 37.1911 27.6955
13072 1 54.5997 35.6085 29.2781
13073 1 56.1823 37.1911 30.8607
13074 1 54.5997 35.6085 32.4433
13075 1 56.1823 37.1911 34.0259
13076 1 54.5997 35.6085 35.6085
13077 1 56.1823 37.1911 37.1911
13078 1 54.5997 35.6085 38.7737
13079 1 56.1823 37.1911 40.3563
13080 1 54.5997 35.6085 41.9389
13081 1 56.1823 37.1911 43.5215
13082 1 54.5997 35.6085 45.1041
13083 1 56.1823 37.1911 46.6867
13084 1 54.5997 35.6085 48.2693
13085 1 56.1823 37.1911 49.8519
13086 1 54.5997 35.6085 51.4345
13087 1 56.1823 37.1911 53.0171
13088 1 54.5997 35.6085 54.5997
13089 1 56.1823 37.1911 56.1823
13090 1 54.5997 35.6085 57.7649
13091 1 56.1823 37.1911 59.3475
13092 1 54.5997 35.6085 60.9301
13093 1 56.1823 37.1911 62.5127
13094 1 54.5997 35.6085 64.0953
13095 1 56.1823 37.1911 65.6779
13096 1 54.5997 35.6085 67.2605
13097 1 56.1823 37.1911 68.8431
13098 1 54.5997 35.6085 70.4257
13099 1 56.1823 37.1911 72.0083
13100 1 54.5997 35.6085 73.5909
13101 1 56.1823 37.1911 75.1735
13102 1 54.5997 35.6085 76.7561
13103 1 56.1823 37.1911 78.3387
13104 1 54.5997 38.7737 0.7913
13105 1 56.1823 40.3563 2.3739
13106 1 54.5997 38.7737 3.9565
13107 1 56.1823 40.3563 5.5391
13108 1 54.5997 38.7737 7.1217
13109 1 56.1823 40.3563 8.7043
13110 1 54.5997 38.7737 10.2869
13111 1 56.1823 40.3563 11.8695
13112 1 54.5997 38.7737 13.4521
13113 1 56.1823 40.3563 15.0347
13114 1 54.5997 38.7737 16.6173
13115 1 56.1823 40.3563 18.1999
13116 1 54.5997 38.7737 19.7825
13117 1 56.1823 40.3563 21.3651
13118 1 54.5997 38.7737 22.9477
13119 1 56.1823 40.3563 24.5303
13120 1 54.5997 38.7737 26.1129
13121 1 56.1823 40.3563 27.6955
13122 1 54.5997 38.7737 29.2781
13123 1 56.1823 40.3563 30.8607
13124 1 54.5997 38.7737 32.4433
13125 1 56.1823 40.3563 34.0259
13126 1 54.5997 38.7737 35.6085
13127 1 56.1823 40.3563 37.1911
13128 1 54.5997 38.7737 38.7737
13129 1 56.1823 40.3563 40.3563
13130 1 54.5997 38.7737 41.9389
13131 1 56.1823 40.3563 43.5215
13132 1 54.5997 38.7737 45.1041
13133 1 56.1823 40.3563 46.6867
13134 1 54.5997 38.7737 48.2693
13135 1 56.1823 40.3563 49.8519
13136 1 54.5997 38.7737 51.4345
13137 1 56.1823 40.3563 53.0171
13138 1 54.5997 38.7737 54.5997
13139 1 56.1823 40.3563 56.1823
13140 1 54.5997 38.7737 57.7649
13141 1 56.1823 40.3563 59.3475
13142 1 54.5997 38.7737 60.9301
13143 1 56.1823 40.3563 62.5127
13144 1 54.5997 38.7737 64.0953
13145 1 56.1823 40.3563 65.6779
13146 1 54.5997 38.7737 67.2605
13147 1 56.1823 40.3563 68.8431
13148 1 54.5997 38.7737 70.4257
13149 1 56.1823 40.3563 72.0083
13150 1 54.5997 38.7737 73.5909
13151 1 56.1823 40.3563 75.1735
13152 1 54.5997 38.7737 76.7561
13153 1 56.1823 40.3563 78.3387
13154 1 54.5997 41.9389 0.7913
13155 1 56.1823 43.5215 2.3739
13156 1 54.5997 41.9389 3.9565
13157 1 56.1823 43.5215 5.5391
13158 1 54.5997 41.9389 7.1217
13159 1 56.1823 43.5215 8.7043
13160 1 54.5997 41.9389 10.2869
13161 1 56.1823 43.5215 11.8695
13162 1 54.5997 41.9389 13.4521
13163 1 56.1823 43.5215 15.0347
13164 1 54.5997 41.9389 16.6173
13165 1 56.1823 43.5215 18.1999
13166 1 54.5997 41.9389 19.7825
13167 1 56.1823 43.5215 21.3651
13168 1 54.5997 41.9389 22.9477
13169 1 56.1823 43.5215 24.5303
13170 1 54.5997 41.9389 26.1129
13171 1 56.1823 43.5215 27.6955
13172 1 54.5997 41.9389 29.2781
13173 1 56.1823 43.5215 30.8607
13174 1 54.5997 41.9389 32.4433
13175 1 56.1823 43.5215 34.0259
13176 1 54.5997 41.9389 35.6085
13177 1 56.1823 43.5215 37.1911
13178 1 54.5997 41.9389 38.7737
13179 1 56.1823 43.5215 40.3563
13180 1 54.5997 41.9389 41.9389
13181 1 56.1823 43.5215 43.5215
13182 1 54.5997 41.9389 45.1041
13183 1 56.1823 43.5215 46.6867
13184 1 54.5997 41.9389 48.2693
13185 1 56.1823 43.5215 49.8519
13186 1 54.5997 41.9389 51.4345
13187 1 56.1823 43.5215 53.0171
13188 1 54.5997 41.9389 54.5997
13189 1 56.1823 43.5215 56.1823
13190 1 54.5997 41.9389 57.7649
13191 1 56.1823 43.5215 59.3475
13192 1 54.5997 41.9389 60.9301
13193 1 56.1823 43.5215 62.5127
13194 1 54.5997 41.9389 64.0953
13195 1 56.1823 43.5215 65.6779
13196 1 54.5997 41.9389 67.2605
13197 1 56.1823 43.5215 68.8431
13198 1 54.5997 41.9389 70.4257
13199 1 56.1823 43.5215 72.0083
13200 1 54.5997 41.9389 73.5909
13201 1 56.1823 43.5215 75.1735
13202 1 54.5997 41.9389 76.7561
13203 1 56.1823 43.5215 78.3387
13204 1 54.5997 45.1041 0.7913
13205 1 56.1823 46.6867 2.3739
13206 1 54.5997 45.1041 3.9565
13207 1 56.1823 46.6867 5.5391
13208 1 54.5997 45.1041 7.1217
13209 1 56.1823 46.6867 8.7043
13210 1 54.5997 45.1041 10.2869
13211 1 56.1823 46.6867 11.8695
13212 1 54.5997 45.1041 13.4521
13213 1 56.1823 46.6867 15.0347
13214 1 54.5997 45.1041 16.6173
13215 1 56.1823 46.6867 18.1999
13216 1 54.5997 45.1041 19.7825
13217 1 56.1823 46.6867 21.3651
13218 1 54.5997 45.1041 22.9477
13219 1 56.1823 46.6867 24.5303
13220 1 54.5997 45.1041 26.1129
13221 1 56.1823 46.6867 27.6955
13222 1 54.5997 45.1041 29.2781
13223 1 56.1823 46.6867 30.8607
13224 1 54.5997 45.1041 32.4433
13225 1 56.1823 46.6867 34.0259
13226 1 54.5997 45.1041 35.6085
13227 1 56.1823 46.6867 37.1911
13228 1 54.5997 45.1041 38.7737
13229 1 56.1823 46.6867 40.3563
13230 1 54.5997 45.1041 41.9389
13231 1 56.1823 46.6867 43.5215
13232 1 54.5997 45.1041 45.1041
13233 1 56.1823 46.6867 46.6867
13234 1 54.5997 45.1041 48.2693
13235 1 56.1823 46.6867 49.8519
13236 1 54.5997 45.1041 51.4345
13237 1 56.1823 46.6867 53.0171
13238 1 54.5997 45.1041 54.5997
13239 1 56.1823 46.6867 56.1823
13240 1 54.5997 45.1041 57.7649
13241 1 56.1823 46.6867 59.3475
13242 1 54.5997 45.1041 60.9301
13243 1 56.1823 46.6867 62.5127
13244 1 54.5997 45.1041 64.0953
13245 1 56.1823 46.6867 65.6779
13246 1 54.5997 45.1041 67.2605
13247 1 56.1823 46.6867 68.8431
13248 1 54.5997 45.1041 70.4257
13249 1 56.1823 46.6867 72.0083
13250 1 54.5997 45.1041 73.5909
13251 1 56.1823 46.6867 75.1735
13252 1 54.5997 45.1041 76.7561
13253 1 56.1823 46.6867 78.3387
13254 1 54.5997 48.2693 0.7913
13255 1 56.1823 49.8519 2.3739
13256 1 54.5997 48.2693 3.9565
13257 1 56.1823 49.8519 5.5391
13258 1 54.5997 48.2693 7.1217
13259 1 56.1823 49.8519 8.7043
13260 1 54.5997 48.2693 10.2869
13261 1 56.1823 49.8519 11.8695
13262 1 54.5997 48.2693 13.4521
13263 1 56.1823 49.8519 15.0347
13264 1 54.5997 48.2693 16.6173
13265 1 56.1823 49.8519 18.1999
13266 1 54.5997 48.2693 19.7825
13267 1 56.1823 49.8519 21.3651
13268 1 54.5997 48.2693 22.9477
13269 1 56.1823 49.8519 24.5303
13270 1 54.5997 48.2693 26.1129
13271 1 56.1823 49.8519 27.6955
13272 1 54.5997 48.2693 29.2781
13273 1 56.1823 49.8519 30.8607
13274 1 54.5997 48.2693 32.4433
13275 1 56.1823 49.8519 34.0259
13276 1 54.5997 48.2693 35.6085
13277 1 56.1823 49.8519 37.1911
13278 1 54.5997 48.2693 38.7737
13279 1 56.1823 49.8519 40.3563
13280 1 54.5997 48.2693 41.9389
13281 1 56.1823 49.8519 43.5215
13282 1 54.5997 48.2693 45.1041
13283 1 56.1823 49.8519 46.6867
13284 1 54.5997 48.2693 48.2693
13285 1 56.1823 49.8519 49.8519
13286 1 54.5997 48.2693 51.4345
13287 1 56.1823 49.8519 53.0171
13288 1 54.5997 48.2693 54.5997
13289 1 56.1823 49.8519 56.1823
13290 1 54.5997 48.2693 57.7649
13291 1 56.1823 49.8519 59.3475
13292 1 54.5997 48.2693 60.9301
13293 1 56.1823 49.8519 62.5127
13294 1 54.5997 48.2693 64.0953
13295 1 56.1823 49.8519 65.6779
13296 1 54.5997 48.2693 67.2605
13297 1 56.1823 49.8519 68.8431
13298 1 54.5997 48.2693 70.4257
13299 1 56.1823 49.8519 72.0083
13300 1 54.5997 48.2693 73.5909
13301 1 56.1823 49.8519 75.1735
13302 1 54.5997 48.2693 76.7561
13303 1 56.1823 49.8519 78.3387
13304 1 54.5997 51.4345 0.7913
13305 1 56.1823 53.0171 2.3739
13306 1 54.5997 51.4345 3.9565
13307 1 56.1823 53.0171 5.5391
13308 1 54.5997 51.4345 7.1217
13309 1 56.1823 53.0171 8.7043
13310 1 54.5997 51.4345 10.2869
13311 1 56.1823 53.0171 11.8695
13312 1 54.5997 51.4345 13.4521
13313 1 56.1823 53.0171 15.0347
13314 1 54.5997 51.4345 16.6173
13315 1 56.1823 53.0171 18.1999
13316 1 54.5997 51.4345 19.7825
13317 1 56.1823 53.0171 21.3651
13318 1 54.5997 51.4345 22.9477
13319 1 56.1823 53.0171 24.5303
13320 1 54.5997 51.4345 26.1129
13321 1 56.1823 53.0171 27.6955
13322 1 54.5997 51.4345 29.2781
13323 1 56.1823 53.0171 30.8607
13324 1 54.5997 51.4345 32.4433
13325 1 56.1823 53.0171 34.0259
13326 1 54.5997 51.4345 35.6085
13327 1 56.1823 53.0171 37.1911
13328 1 54.5997 51.4345 38.7737
13329 1 56.1823 53.0171 40.3563
13330 1 54.5997 51.4345 41.9389
13331 1 56.1823 53.0171 43.5215
13332 1 54.5997 51.4345 45.1041
13333 1 56.1823 53.0171 46.6867
13334 1 54.5997 51.4345 48.2693
13335 1 56.1823 53.0171 49.8519
13336 1 54.5997 51.4345 51.4345
13337 1 56.1823 53.0171 53.0171
13338 1 54.5997 51.4345 54.5997
13339 1 56.1823 53.0171 56.1823
13340 1 54.5997 51.4345 57.7649
13341 1 56.1823 53.0171 59.3475
13342 1 54.5997 51.4345 60.9301
13343 1 56.1823 53.0171 62.5127
13344 1 54.5997 51.4345 64.0953
13345 1 56.1823 53.0171 65.6779
13346 1 54.5997 51.4345 67.2605
13347 1 56.1823 53.0171 68.8431
13348 1 54.5997 51.4345 70.4257
13349 1 56.1823 53.0171 72.0083
13350 1 54.5997 51.4345 73.5909
13351 1 56.1823 53.0171 75.1735
13352 1 54.5997 51.4345 76.7561
13353 1 56.1823 53.0171 78.3387
13354 1 54.5997 54.5997 0.7913
13355 1 56.1823 56.1823 2.3739
13356 1 54.5997 54.5997 3.9565
13357 1 56.1823 56.1823 5.5391
13358 1 54.5997 54.5997 7.1217
13359 1 56.1823 56.1823 8.7043
13360 1 54.5997 54.5997 10.2869
13361 1 56.1823 56.1823 11.8695
13362 1 54.5997 54.5997 13.4521
13363 1 56.1823 56.1823 15.0347
13364 1 54.5997 54.5997 16.6173
13365 1 56.1823 56.1823 18.1999
13366 1 54.5997 54.5997 19.7825
13367 1 56.1823 56.1823 21.3651
13368 1 54.5997 54.5997 22.9477
13369 1 56.1823 56.1823 24.5303
13370 1 54.5997 54.5997 26.1129
13371 1 56.1823 56.1823 27.6955
13372 1 54.5997 54.5997 29.2781
13373 1 56.1823 56.1823 30.8607
13374 1 54.5997 54.5997 32.4433
13375 1 56.1823 56.1823 34.0259
13376 1 54.5997 54.5997 35.6085
13377 1 56.1823 56.1823 37.1911
13378 1 54.5997 54.5997 38.7737
13379 1 56.1823 56.1823 40.3563
13380 1 54.5997 54.5997 41.9389
13381 1 56.1823 56.1823 43.5215
13382 1 54.5997 54.5997 45.1041
13383 1 56.1823 56.1823 46.6867
13384 1 54.5997 54.5997 48.2693
13385 1 56.1823 56.1823 49.8519
13386 1 54.5997 54.5997 51.4345
13387 1 56.1823 56.1823 53.0171
13388 1 54.5997 54.5997 54.5997
13389 1 56.1823 56.1823 56.1823
13390 1 54.5997 54.5997 57.7649
13391 1 56.1823 56.1823 59.3475
13392 1 54.5997 54.5997 60.9301
13393 1 56.1823 56.1823 62.5127
13394 1 54.5997 54.5997 64.0953
13395 1 56.1823 56.1823 65.6779
13396 1 54.5997 54.5997 67.2605
13397 1 56.1823 56.1823 68.8431
13398 1 54.5997 54.5997 70.4257
13399 1 56.1823 56.1823 72.0083
13400 1 54.5997 54.5997 73.5909
13401 1 56.1823 56.1823 75.1735
13402 1 54.5997 54.5997 76.7561
13403 1 56.1823 56.1823 78.3387
13404 1 54.5997 57.7649 0.7913
13405 1 56.1823 59.3475 2.3739
13406 1 54.5997 57.7649 3.9565
13407 1 56.1823 59.3475 5.5391
13408 1 54.5997 57.7649 7.1217
13409 1 56.1823 59.3475 8.7043
13410 1 54.5997 57.7649 10.2869
13411 1 56.1823 59.3475 11.8695
13412 1 54.5997 57.7649 13.4521
13413 1 56.1823 59.3475 15.0347
13414 1 54.5997 57.7649 16.6173
13415 1 56.1823 59.3475 18.1999
13416 1 54.5997 57.7649 19.7825
13417 1 56.1823 59.3475 21.3651
13418 1 54.5997 57.7649 22.9477
13419 1 56.1823 59.3475 24.5303
13420 1 54.5997 57.7649 26.1129
13421 1 56.1823 59.3475 27.6955
13422 1 54.5997 57.7649 29.2781
13423 1 56.1823 59.3475 30.8607
13424 1 54.5997 57.7649 32.4433
13425 1 56.1823 59.3475 34.0259
13426 1 54.5997 57.7649 35.6085
13427 1 56.1823 59.3475 37.1911
13428 1 54.5997 57.7649 38.7737
13429 1 56.1823 59.3475 40.3563
13430 1 54.5997 57.7649 41.9389
13431 1 56.1823 59.3475 43.5215
13432 1 54.5997 57.7649 45.1041
13433 1 56.1823 59.3475 46.6867
13434 1 54.5997 57.7649 48.2693
13435 1 56.1823 59.3475 49.8519
13436 1 54.5997 57.7649 51.4345
13437 1 56.1823 59.3475 53.0171
13438 1 54.5997 57.7649 54.5997
13439 1 56.1823 59.3475 56.1823
13440 1 54.5997 57.7649 57.7649
13441 1 56.1823 59.3475 59.3475
13442 1 54.5997 57.7649 60.9301
13443 1 56.1823 59.3475 62.5127
13444 1 54.5997 57.7649 64.0953
13445 1 56.1823 59.3475 65.6779
13446 1 54.5997 57.7649 67.2605
13447 1 56.1823 59.3475 68.8431
13448 1 54.5997 57.7649 70.4257
13449 1 56.1823 59.3475 72.0083
13450 1 54.5997 57.7649 73.5909
13451 1 56.1823 59.3475 75.1735
13452 1 54.5997 57.7649 76.7561
13453 1 56.1823 59.3475 78.3387
13454 1 54.5997 60.9301 0.7913
13455 1 56.1823 62.5127 2.3739
13456 1 54.5997 60.9301 3.9565
13457 1 56.1823 62.5127 5.5391
13458 1 54.5997 60.9301 7.1217
13459 1 56.1823 62.5127 8.7043
13460 1 54.5997 60.9301 10.2869
13461 1 56.1823 62.5127 11.8695
13462 1 54.5997 60.9301 13.4521
13463 1 56.1823 62.5127 15.0347
13464 1 54.5997 60.9301 16.6173
13465 1 56.1823 62.5127 18.1999
13466 1 54.5997 60.9301 19.7825
13467 1 56.1823 62.5127 21.3651
13468 1 54.5997 60.9301 22.9477
13469 1 56.1823 62.5127 24.5303
13470 1 54.5997 60.9301 26.1129
13471 1 56.1823 62.5127 27.6955
13472 1 54.5997 60.9301 29.2781
13473 1 56.1823 62.5127 30.8607
13474 1 54.5997 60.9301 32.4433
13475 1 56.1823 62.5127 34.0259
13476 1 54.5997 60.9301 35.6085
13477 1 56.1823 62.5127 37.1911
13478 1 54.5997 60.9301 38.7737
13479 1 56.1823 62.5127 40.3563
13480 1 54.5997 60.9301 41.9389
13481 1 56.1823 62.5127 43.5215
13482 1 54.5997 60.9301 45.1041
13483 1 56.1823 62.5127 46.6867
13484 1 54.5997 60.9301 48.2693
13485 1 56.1823 62.5127 49.8519
13486 1 54.5997 60.9301 51.4345
13487 1 56.1823 62.5127 53.0171
13488 1 54.5997 60.9301 54.5997
13489 1 56.1823 62.5127 56.1823
13490 1 54.5997 60.9301 57.7649
13491 1 56.1823 62.5127 59.3475
13492 1 54.5997 60.9301 60.9301
13493 1 56.1823 62.5127 62.5127
13494 1 54.5997 60.9301 64.0953
13495 1 56.1823 62.5127 65.6779
13496 1 54.5997 60.9301 67.2605
13497 1 56.1823 62.5127 68.8431
13498 1 54.5997 60.9301 70.4257
13499 1 56.1823 62.5127 72.0083
13500 1 54.5997 60.9301 73.5909
13501 1 56.1823 62.5127 75.1735
13502 1 54.5997 60.9301 76.7561
13503 1 56.1823 62.5127 78.3387
13504 1 54.5997 64.0953 0.7913
13505 1 56.1823 65.6779 2.3739
13506 1 54.5997 64.0953 3.9565
13507 1 56.1823 65.6779 5.5391
13508 1 54.5997 64.0953 7.1217
13509 1 56.1823 65.6779 8.7043
13510 1 54.5997 64.0953 10.2869
13511 1 56.1823 65.6779 11.8695
13512 1 54.5997 64.0953 13.4521
13513 1 56.1823 65.6779 15.0347
13514 1 54.5997 64.0953 16.6173
13515 1 56.1823 65.6779 18.1999
13516 1 54.5997 64.0953 19.7825
13517 1 56.1823 65.6779 21.3651
13518 1 54.5997 64.0953 22.9477
13519 1 56.1823 65.6779 24.5303
13520 1 54.5997 64.0953 26.1129
13521 1 56.1823 65.6779 27.6955
13522 1 54.5997 64.0953 29.2781
13523 1 56.1823 65.6779 30.8607
13524 1 54.5997 64.0953 32.4433
13525 1 56.1823 65.6779 34.0259
13526 1 54.5997 64.0953 35.6085
13527 1 56.1823 65.6779 37.1911
13528 1 54.5997 64.0953 38.7737
13529 1 56.1823 65.6779 40.3563
13530 1 54.5997 64.0953 41.9389
13531 1 56.1823 65.6779 43.5215
13532 1 54.5997 64.0953 45.1041
13533 1 56.1823 65.6779 46.6867
13534 1 54.5997 64.0953 48.2693
13535 1 56.1823 65.6779 49.8519
13536 1 54.5997 64.0953 51.4345
13537 1 56.1823 65.6779 53.0171
13538 1 54.5997 64.0953 54.5997
13539 1 56.1823 65.6779 56.1823
13540 1 54.5997 64.0953 57.7649
13541 1 56.1823 65.6779 59.3475
13542 1 54.5997 64.0953 60.9301
13543 1 56.1823 65.6779 62.5127
13544 1 54.5997 64.0953 64.0953
13545 1 56.1823 65.6779 65.6779
13546 1 54.5997 64.0953 67.2605
13547 1 56.1823 65.6779 68.8431
13548 1 54.5997 64.0953 70.4257
13549 1 56.1823 65.6779 72.0083
13550 1 54.5997 64.0953 73.5909
13551 1 56.1823 65.6779 75.1735
13552 1 54.5997 64.0953 76.7561
13553 1 56.1823 65.6779 78.3387
13554 1 54.5997 67.2605 0.7913
13555 1 56.1823 68.8431 2.3739
13556 1 54.5997 67.2605 3.9565
13557 1 56.1823 68.8431 5.5391
13558 1 54.5997 67.2605 7.1217
13559 1 56.1823 68.8431 8.7043
13560 1 54.5997 67.2605 10.2869
13561 1 56.1823 68.8431 11.8695
13562 1 54.5997 67.2605 13.4521
13563 1 56.1823 68.8431 15.0347
13564 1 54.5997 67.2605 16.6173
13565 1 56.1823 68.8431 18.1999
13566 1 54.5997 67.2605 19.7825
13567 1 56.1823 68.8431 21.3651
13568 1 54.5997 67.2605 22.9477
13569 1 56.1823 68.8431 24.5303
13570 1 54.5997 67.2605 26.1129
13571 1 56.1823 68.8431 27.6955
13572 1 54.5997 67.2605 29.2781
13573 1 56.1823 68.8431 30.8607
13574 1 54.5997 67.2605 32.4433
13575 1 56.1823 68.8431 34.0259
13576 1 54.5997 67.2605 35.6085
13577 1 56.1823 68.8431 37.1911
13578 1 54.5997 67.2605 38.7737
13579 1 56.1823 68.8431 40.3563
13580 1 54.5997 67.2605 41.9389
13581 1 56.1823 68.8431 43.5215
13582 1 54.5997 67.2605 45.1041
13583 1 56.1823 68.8431 46.6867
13584 1 54.5997 67.2605 48.2693
13585 1 56.1823 68.8431 49.8519
13586 1 54.5997 67.2605 51.4345
13587 1 56.1823 68.8431 53.0171
13588 1 54.5997 67.2605 54.5997
13589 1 56.1823 68.8431 56.1823
13590 1 54.5997 67.2605 57.7649
13591 1 56.1823 68.8431 59.3475
13592 1 54.5997 67.2605 60.9301
13593 1 56.1823 68.8431 62.5127
13594 1 54.5997 67.2605 64.0953
13595 1 56.1823 68.8431 65.6779
13596 1 54.5997 67.2605 67.2605
13597 1 56.1823 68.8431 68.8431
13598 1 54.5997 67.2605 70.4257
13599 1 56.1823 68.8431 72.0083
13600 1 54.5997 67.2605 73.5909
13601 1 56.1823 68.8431 75.1735
13602 1 54.5997 67.2605 76.7561
13603 1 56.1823 68.8431 78.3387
13604 1 54.5997 70.4257 0.7913
13605 1 56.1823 72.0083 2.3739
13606 1 54.5997 70.4257 3.9565
13607 1 56.1823 72.0083 5.5391
13608 1 54.5997 70.4257 7.1217
13609 1 56.1823 72.0083 8.7043
13610 1 54.5997 70.4257 10.2869
13611 1 56.1823 72.0083 11.8695
13612 1 54.5997 70.4257 13.4521
13613 1 56.1823 72.0083 15.0347
13614 1 54.5997 70.4257 16.6173
13615 1 56.1823 72.0083 18.1999
13616 1 54.5997 70.4257 19.7825
13617 1 56.1823 72.0083 21.3651
13618 1 54.5997 70.4257 22.9477
13619 1 56.1823 72.0083 24.5303
13620 1 54.5997 70.4257 26.1129
13621 1 56.1823 72.0083 27.6955
13622 1 54.5997 70.4257 29.2781
13623 1 56.1823 72.0083 30.8607
13624 1 54.5997 70.4257 32.4433
13625 1 56.1823 72.0083 34.0259
13626 1 54.5997 70.4257 35.6085
13627 1 56.1823 72.0083 37.1911
13628 1 54.5997 70.4257 38.7737
13629 1 56.1823 72.0083 40.3563
13630 1 54.5997 70.4257 41.9389
13631 1 56.1823 72.0083 43.5215
13632 1 54.5997 70.4257 45.1041
13633 1 56.1823 72.0083 46.6867
13634 1 54.5997 70.4257 48.2693
13635 1 56.1823 72.0083 49.8519
13636 1 54.5997 70.4257 51.4345
13637 1 56.1823 72.0083 53.0171
13638 1 54.5997 70.4257 54.5997
13639 1 56.1823 72.0083 56.1823
13640 1 54.5997 70.4257 57.7649
13641 1 56.1823 72.0083 59.3475
13642 1 54.5997 70.4257 60.9301
13643 1 56.1823 72.0083 62.5127
13644 1 54.5997 70.4257 64.0953
13645 1 56.1823 72.0083 65.6779
13646 1 54.5997 70.4257 67.2605
13647 1 56.1823 72.0083 68.8431
13648 1 54.5997 70.4257 70.4257
13649 1 56.1823 72.0083 72.0083
13650 1 54.5997 70.4257 73.5909
13651 1 56.1823 72.0083 75.1735
13652 1 54.5997 70.4257 76.7561
13653 1 56.1823 72.0083 78.3387
13654 1 54.5997 73.5909 0.7913
13655 1 56.1823 75.1735 2.3739
13656 1 54.5997 73.5909 3.9565
13657 1 56.1823 75.1735 5.5391
13658 1 54.5997 73.5909 7.1217
13659 1 56.1823 75.1735 8.7043
13660 1 54.5997 73.5909 10.2869
13661 1 56.1823 75.1735 11.8695
13662 1 54.5997 73.5909 13.4521
13663 1 56.1823 75.1735 15.0347
13664 1 54.5997 73.5909 16.6173
13665 1 56.1823 75.1735 18.1999
13666 1 54.5997 73.5909 19.7825
13667 1 56.1823 75.1735 21.3651
13668 1 54.5997 73.5909 22.9477
13669 1 56.1823 75.1735 24.5303
13670 1 54.5997 73.5909 26.1129
13671 1 56.1823 75.1735 27.6955
13672 1 54.5997 73.5909 29.2781
13673 1 56.1823 75.1735 30.8607
13674 1 54.5997 73.5909 32.4433
13675 1 56.1823 75.1735 34.0259
13676 1 54.5997 73.5909 35.6085
13677 1 56.1823 75.1735 37.1911
13678 1 54.5997 73.5909 38.7737
13679 1 56.1823 75.1735 40.3563
13680 1 54.5997 73.5909 41.9389
13681 1 56.1823 75.1735 43.5215
13682 1 54.5997 73.5909 45.1041
13683 1 56.1823 75.1735 46.6867
13684 1 54.5997 73.5909 48.2693
13685 1 56.1823 75.1735 49.8519
13686 1 54.5997 73.5909 51.4345
13687 1 56.1823 75.1735 53.0171
13688 1 54.5997 73.5909 54.5997
13689 1 56.1823 75.1735 56.1823
13690 1 54.5997 73.5909 57.7649
13691 1 56.1823 75.1735 59.3475
13692 1 54.5997 73.5909 60.9301
13693 1 56.1823 75.1735 62.5127
13694 1 54.5997 73.5909 64.0953
13695 1 56.1823 75.1735 65.6779
13696 1 54.5997 73.5909 67.2605
13697 1 56.1823 75.1735 68.8431
13698 1 54.5997 73.5909 70.4257
13699 1 56.1823 75.1735 72.0083
13700 1 54.5997 73.5909 73.5909
13701 1 56.1823 75.1735 75.1735
13702 1 54.5997 73.5909 76.7561
13703 1 56.1823 75.1735 78.3387
13704 1 54.5997 76.7561 0.7913
13705 1 56.1823 78.3387 2.3739
13706 1 54.5997 76.7561 3.9565
13707 1 56.1823 78.3387 5.5391
13708 1 54.5997 76.7561 7.1217
13709 1 56.1823 78.3387 8.7043
13710 1 54.5997 76.7561 10.2869
13711 1 56.1823 78.3387 11.8695
13712 1 54.5997 76.7561 13.4521
13713 1 56.1823 78.3387 15.0347
13714 1 54.5997 76.7561 16.6173
13715 1 56.1823 78.3387 18.1999
13716 1 54.5997 76.7561 19.7825
13717 1 56.1823 78.3387 21.3651
13718 1 54.5997 76.7561 22.9477
13719 1 56.1823 78.3387 24.5303
13720 1 54.5997 76.7561 26.1129
13721 1 56.1823 78.3387 27.6955
13722 1 54.5997 76.7561 29.2781
13723 1 56.1823 78.3387 30.8607
13724 1 54.5997 76.7561 32.4433
13725 1 56.1823 78.3387 34.0259
13726 1 54.5997 76.7561 35.6085
13727 1 56.1823 78.3387 37.1911
13728 1 54.5997 76.7561 38.7737
13729 1 56.1823 78.3387 40.3563
13730 1 54.5997 76.7561 41.9389
13731 1 56.1823 78.3387 43.5215
13732 1 54.5997 76.7561 45.1041
13733 1 56.1823 78.3387 46.6867
13734 1 54.5997 76.7561 48.2693
13735 1 56.1823 78.3387 49.8519
13736 1 54.5997 76.7561 51.4345
13737 1 56.1823 78.3387 53.0171
13738 1 54.5997 76.7561 54.5997
13739 1 56.1823 78.3387 56.1823
13740 1 54.5997 76.7561 57.7649
13741 1 56.1823 78.3387 59.3475
13742 1 54.5997 76.7561 60.9301
13743 1 56.1823 78.3387 62.5127
13744 1 54.5997 76.7561 64.0953
13745 1 56.1823 78.3387 65.6779
13746 1 54.5997 76.7561 67.2605
13747 1 56.1823 78.3387 68.8431
13748 1 54.5997 76.7561 70.4257
13749 1 56.1823 78.3387 72.0083
13750 1 54.5997 76.7561 73.5909
13751 1 56.1823 78.3387 75.1735
13752 1 54.5997 76.7561 76.7561
13753 1 56.1823 78.3387 78.3387
13754 1 57.7649 0.7913 0.7913
13755 1 59.3475 2.3739 2.3739
13756 1 57.7649 0.7913 3.9565
13757 1 59.3475 2.3739 5.5391
13758 1 57.7649 0.7913 7.1217
13759 1 59.3475 2.3739 8.7043
13760 1 57.7649 0.7913 10.2869
13761 1 59.3475 2.3739 11.8695
13762 1 57.7649 0.7913 13.4521
13763 1 59.3475 2.3739 15.0347
13764 1 57.7649 0.7913 16.6173
13765 1 59.3475 2.3739 18.1999
13766 1 57.7649 0.7913 19.7825
13767 1 59.3475 2.3739 21.3651
13768 1 57.7649 0.7913 22.9477
13769 1 59.3475 2.3739 24.5303
13770 1 57.7649 0.7913 26.1129
13771 1 59.3475 2.3739 27.6955
13772 1 57.7649 0.7913 29.2781
13773 1 59.3475 2.3739 30.8607
13774 1 57.7649 0.7913 32.4433
13775 1 59.3475 2.3739 34.0259
13776 1 57.7649 0.7913 35.6085
13777 1 59.3475 2.3739 37.1911
13778 1 57.7649 0.7913 38.7737
13779 1 59.3475 2.3739 40.3563
13780 1 57.7649 0.7913 41.9389
13781 1 59.3475 2.3739 43.5215
13782 1 57.7649 0.7913 45.1041
13783 1 59.3475 2.3739 46.6867
13784 1 57.7649 0.7913 48.2693
13785 1 59.3475 2.3739 49.8519
13786 1 57.7649 0.7913 51.4345
13787 1 59.3475 2.3739 53.0171
13788 1 57.7649 0.7913 54.5997
13789 1 59.3475 2.3739 56.1823
13790 1 57.7649 0.7913 57.7649
13791 1 59.3475 2.3739 59.3475
13792 1 57.7649 0.7913 60.9301
13793 1 59.3475 2.3739 62.5127
13794 1 57.7649 0.7913 64.0953
13795 1 59.3475 2.3739 65.6779
13796 1 57.7649 0.7913 67.2605
13797 1 59.3475 2.3739 68.8431
13798 1 57.7649 0.7913 70.4257
13799 1 59.3475 2.3739 72.0083
13800 1 57.7649 0.7913 73.5909
13801 1 59.3475 2.3739 75.1735
13802 1 57.7649 0.7913 76.7561
13803 1 59.3475 2.3739 78.3387
13804 1 57.7649 3.9565 0.7913
13805 1 59.3475 5.5391 2.3739
13806 1 57.7649 3.9565 3.9565
13807 1 59.3475 5.5391 5.5391
13808 1 57.7649 3.9565 7.1217
13809 1 59.3475 5.5391 8.7043
13810 1 57.7649 3.9565 10.2869
13811 1 59.3475 5.5391 11.8695
13812 1 57.7649 3.9565 13.4521
13813 1 59.3475 5.5391 15.0347
13814 1 57.7649 3.9565 16.6173
13815 1 59.3475 5.5391 18.1999
13816 1 57.7649 3.9565 19.7825
13817 1 59.3475 5.5391 21.3651
13818 1 57.7649 3.9565 22.9477
13819 1 59.3475 5.5391 24.5303
13820 1 57.7649 3.9565 26.1129
13821 1 59.3475 5.5391 27.6955
13822 1 57.7649 3.9565 29.2781
13823 1 59.3475 5.5391 30.8607
13824 1 57.7649 3.9565 32.4433
13825 1 59.3475 5.5391 34.0259
13826 1 57.7649 3.9565 35.6085
13827 1 59.3475 5.5391 37.1911
13828 1 57.7649 3.9565 38.7737
13829 1 59.3475 5.5391 40.3563
13830 1 57.7649 3.9565 41.9389
13831 1 59.3475 5.5391 43.5215
13832 1 57.7649 3.9565 45.1041
13833 1 59.3475 5.5391 46.6867
13834 1 57.7649 3.9565 48.2693
13835 1 59.3475 5.5391 49.8519
13836 1 57.7649 3.9565 51.4345
13837 1 59.3475 5.5391 53.0171
13838 1 57.7649 3.9565 54.5997
13839 1 59.3475 5.5391 56.1823
13840 1 57.7649 3.9565 57.7649
13841 1 59.3475 5.5391 59.3475
13842 1 57.7649 3.9565 60.9301
13843 1 59.3475 5.5391 62.5127
13844 1 57.7649 3.9565 64.0953
13845 1 59.3475 5.5391 65.6779
13846 1 57.7649 3.9565 67.2605
13847 1 59.3475 5.5391 68.8431
13848 1 57.7649 3.9565 70.4257
13849 1 59.3475 5.5391 72.0083
13850 1 57.7649 3.9565 73.5909
13851 1 59.3475 5.5391 75.1735
13852 1 57.7649 3.9565 76.7561
13853 1 59.3475 5.5391 78.3387
13854 1 57.7649 7.1217 0.7913
13855 1 59.3475 8.7043 2.3739
13856 1 57.7649 7.1217 3.9565
13857 1 59.3475 8.7043 5.5391
13858 1 57.7649 7.1217 7.1217
13859 1 59.3475 8.7043 8.7043
13860 1 57.7649 7.1217 10.2869
13861 1 59.3475 8.7043 11.8695
13862 1 57.7649 7.1217 13.4521
13863 1 59.3475 8.7043 15.0347
13864 1 57.7649 7.1217 16.6173
13865 1 59.3475 8.7043 18.1999
13866 1 57.7649 7.1217 19.7825
13867 1 59.3475 8.7043 21.3651
13868 1 57.7649 7.1217 22.9477
13869 1 59.3475 8.7043 24.5303
13870 1 57.7649 7.1217 26.1129
13871 1 59.3475 8.7043 27.6955
13872 1 57.7649 7.1217 29.2781
13873 1 59.3475 8.7043 30.8607
13874 1 57.7649 7.1217 32.4433
13875 1 59.3475 8.7043 34.0259
13876 1 57.7649 7.1217 35.6085
13877 1 59.3475 8.7043 37.1911
13878 1 57.7649 7.1217 38.7737
13879 1 59.3475 8.7043 40.3563
13880 1 57.7649 7.1217 41.9389
13881 1 59.3475 8.7043 43.5215
13882 1 57.7649 7.1217 45.1041
13883 1 59.3475 8.7043 46.6867
13884 1 57.7649 7.1217 48.2693
13885 1 59.3475 8.7043 49.8519
13886 1 57.7649 7.1217 51.4345
13887 1 59.3475 8.7043 53.0171
13888 1 57.7649 7.1217 54.5997
13889 1 59.3475 8.7043 56.1823
13890 1 57.7649 7.1217 57.7649
13891 1 59.3475 8.7043 59.3475
13892 1 57.7649 7.1217 60.9301
13893 1 59.3475 8.7043 62.5127
13894 1 57.7649 7.1217 64.0953
13895 1 59.3475 8.7043 65.6779
13896 1 57.7649 7.1217 67.2605
13897 1 59.3475 8.7043 68.8431
13898 1 57.7649 7.1217 70.4257
13899 1 59.3475 8.7043 72.0083
13900 1 57.7649 7.1217 73.5909
13901 1 59.3475 8.7043 75.1735
13902 1 57.7649 7.1217 76.7561
13903 1 59.3475 8.7043 78.3387
13904 1 57.7649 10.2869 0.7913
13905 1 59.3475 11.8695 2.3739
13906 1 57.7649 10.2869 3.9565
13907 1 59.3475 11.8695 5.5391
13908 1 57.7649 10.2869 7.1217
13909 1 59.3475 11.8695 8.7043
13910 1 57.7649 10.2869 10.2869
13911 1 59.3475 11.8695 11.8695
13912 1 57.7649 10.2869 13.4521
13913 1 59.3475 11.8695 15.0347
13914 1 57.7649 10.2869 16.6173
13915 1 59.3475 11.8695 18.1999
13916 1 57.7649 10.2869 19.7825
13917 1 59.3475 11.8695 21.3651
13918 1 57.7649 10.2869 22.9477
13919 1 59.3475 11.8695 24.5303
13920 1 57.7649 10.2869 26.1129
13921 1 59.3475 11.8695 27.6955
13922 1 57.7649 10.2869 29.2781
13923 1 59.3475 11.8695 30.8607
13924 1 57.7649 10.2869 32.4433
13925 1 59.3475 11.8695 34.0259
13926 1 57.7649 10.2869 35.6085
13927 1 59.3475 11.8695 37.1911
13928 1 57.7649 10.2869 38.7737
13929 1 59.3475 11.8695 40.3563
13930 1 57.7649 10.2869 41.9389
13931 1 59.3475 11.8695 43.5215
13932 1 57.7649 10.2869 45.1041
13933 1 59.3475 11.8695 46.6867
13934 1 57.7649 10.2869 48.2693
13935 1 59.3475 11.8695 49.8519
13936 1 57.7649 10.2869 51.4345
13937 1 59.3475 11.8695 53.0171
13938 1 57.7649 10.2869 54.5997
13939 1 59.3475 11.8695 56.1823
13940 1 57.7649 10.2869 57.7649
13941 1 59.3475 11.8695 59.3475
13942 1 57.7649 10.2869 60.9301
13943 1 59.3475 11.8695 62.5127
13944 1 57.7649 10.2869 64.0953
13945 1 59.3475 11.8695 65.6779
13946 1 57.7649 10.2869 67.2605
13947 1 59.3475 11.8695 68.8431
13948 1 57.7649 10.2869 70.4257
13949 1 59.3475 11.8695 72.0083
13950 1 57.7649 10.2869 73.5909
13951 1 59.3475 11.8695 75.1735
13952 1 57.7649 10.2869 76.7561
13953 1 59.3475 11.8695 78.3387
13954 1 57.7649 13.4521 0.7913
13955 1 59.3475 15.0347 2.3739
13956 1 57.7649 13.4521 3.9565
13957 1 59.3475 15.0347 5.5391
13958 1 57.7649 13.4521 7.1217
13959 1 59.3475 15.0347 8.7043
13960 1 57.7649 13.4521 10.2869
13961 1 59.3475 15.0347 11.8695
13962 1 57.7649 13.4521 13.4521
13963 1 59.3475 15.0347 15.0347
13964 1 57.7649 13.4521 16.6173
13965 1 59.3475 15.0347 18.1999
13966 1 57.7649 13.4521 19.7825
13967 1 59.3475 15.0347 21.3651
13968 1 57.7649 13.4521 22.9477
13969 1 59.3475 15.0347 24.5303
13970 1 57.7649 13.4521 26.1129
13971 1 59.3475 15.0347 27.6955
13972 1 57.7649 13.4521 29.2781
13973 1 59.3475 15.0347 30.8607
13974 1 57.7649 13.4521 32.4433
13975 1 59.3475 15.0347 34.0259
13976 1 57.7649 13.4521 35.6085
13977 1 59.3475 15.0347 37.1911
13978 1 57.7649 13.4521 38.7737
13979 1 59.3475 15.0347 40.3563
13980 1 57.7649 13.4521 41.9389
13981 1 59.3475 15.0347 43.5215
13982 1 57.7649 13.4521 45.1041
13983 1 59.3475 15.0347 46.6867
13984 1 57.7649 13.4521 48.2693
13985 1 59.3475 15.0347 49.8519
13986 1 57.7649 13.4521 51.4345
13987 1 59.3475 15.0347 53.0171
13988 1 57.7649 13.4521 54.5997
13989 1 59.3475 15.0347 56.1823
13990 1 57.7649 13.4521 57.7649
13991 1 59.3475 15.0347 59.3475
13992 1 57.7649 13.4521 60.9301
13993 1 59.3475 15.0347 62.5127
13994 1 57.7649 13.4521 64.0953
13995 1 59.3475 15.0347 65.6779
13996 1 57.7649 13.4521 67.2605
13997 1 59.3475 15.0347 68.8431
13998 1 57.7649 13.4521 70.4257
13999 1 59.3475 15.0347 72.0083
14000 1 57.7649 13.4521 73.5909
14001 1 59.3475 15.0347 75.1735
14002 1 57.7649 13.4521 76.7561
14003 1 59.3475 15.0347 78.3387
14004 1 57.7649 16.6173 0.7913
14005 1 59.3475 18.1999 2.3739
14006 1 57.7649 16.6173 3.9565
14007 1 59.3475 18.1999 5.5391
14008 1 57.7649 16.6173 7.1217
14009 1 59.3475 18.1999 8.7043
14010 1 57.7649 16.6173 10.2869
14011 1 59.3475 18.1999 11.8695
14012 1 57.7649 16.6173 13.4521
14013 1 59.3475 18.1999 15.0347
14014 1 57.7649 16.6173 16.6173
14015 1 59.3475 18.1999 18.1999
14016 1 57.7649 16.6173 19.7825
14017 1 59.3475 18.1999 21.3651
14018 1 57.7649 16.6173 22.9477
14019 1 59.3475 18.1999 24.5303
14020 1 57.7649 16.6173 26.1129
14021 1 59.3475 18.1999 27.6955
14022 1 57.7649 16.6173 29.2781
14023 1 59.3475 18.1999 30.8607
14024 1 57.7649 16.6173 32.4433
14025 1 59.3475 18.1999 34.0259
14026 1 57.7649 16.6173 35.6085
14027 1 59.3475 18.1999 37.1911
14028 1 57.7649 16.6173 38.7737
14029 1 59.3475 18.1999 40.3563
14030 1 57.7649 16.6173 41.9389
14031 1 59.3475 18.1999 43.5215
14032 1 57.7649 16.6173 45.1041
14033 1 59.3475 18.1999 46.6867
14034 1 57.7649 16.6173 48.2693
14035 1 59.3475 18.1999 49.8519
14036 1 57.7649 16.6173 51.4345
14037 1 59.3475 18.1999 53.0171
14038 1 57.7649 16.6173 54.5997
14039 1 59.3475 18.1999 56.1823
14040 1 57.7649 16.6173 57.7649
14041 1 59.3475 18.1999 59.3475
14042 1 57.7649 16.6173 60.9301
14043 1 59.3475 18.1999 62.5127
14044 1 57.7649 16.6173 64.0953
14045 1 59.3475 18.1999 65.6779
14046 1 57.7649 16.6173 67.2605
14047 1 59.3475 18.1999 68.8431
14048 1 57.7649 16.6173 70.4257
14049 1 59.3475 18.1999 72.0083
14050 1 57.7649 16.6173 73.5909
14051 1 59.3475 18.1999 75.1735
14052 1 57.7649 16.6173 76.7561
14053 1 59.3475 18.1999 78.3387
14054 1 57.7649 19.7825 0.7913
14055 1 59.3475 21.3651 2.3739
14056 1 57.7649 19.7825 3.9565
14057 1 59.3475 21.3651 5.5391
14058 1 57.7649 19.7825 7.1217
14059 1 59.3475 21.3651 8.7043
14060 1 57.7649 19.7825 10.2869
14061 1 59.3475 21.3651 11.8695
14062 1 57.7649 19.7825 13.4521
14063 1 59.3475 21.3651 15.0347
14064 1 57.7649 19.7825 16.6173
14065 1 59.3475 21.3651 18.1999
14066 1 57.7649 19.7825 19.7825
14067 1 59.3475 21.3651 21.3651
14068 1 57.7649 19.7825 22.9477
14069 1 59.3475 21.3651 24.5303
14070 1 57.7649 19.7825 26.1129
14071 1 59.3475 21.3651 27.6955
14072 1 57.7649 19.7825 29.2781
14073 1 59.3475 21.3651 30.8607
14074 1 57.7649 19.7825 32.4433
14075 1 59.3475 21.3651 34.0259
14076 1 57.7649 19.7825 35.6085
14077 1 59.3475 21.3651 37.1911
14078 1 57.7649 19.7825 38.7737
14079 1 59.3475 21.3651 40.3563
14080 1 57.7649 19.7825 41.9389
14081 1 59.3475 21.3651 43.5215
14082 1 57.7649 19.7825 45.1041
14083 1 59.3475 21.3651 46.6867
14084 1 57.7649 19.7825 48.2693
14085 1 59.3475 21.3651 49.8519
14086 1 57.7649 19.7825 51.4345
14087 1 59.3475 21.3651 53.0171
14088 1 57.7649 19.7825 54.5997
14089 1 59.3475 21.3651 56.1823
14090 1 57.7649 19.7825 57.7649
14091 1 59.3475 21.3651 59.3475
14092 1 57.7649 19.7825 60.9301
14093 1 59.3475 21.3651 62.5127
14094 1 57.7649 19.7825 64.0953
14095 1 59.3475 21.3651 65.6779
14096 1 57.7649 19.7825 67.2605
14097 1 59.3475 21.3651 68.8431
14098 1 57.7649 19.7825 70.4257
14099 1 59.3475 21.3651 72.0083
14100 1 57.7649 19.7825 73.5909
14101 1 59.3475 21.3651 75.1735
14102 1 57.7649 19.7825 76.7561
14103 1 59.3475 21.3651 78.3387
14104 1 57.7649 22.9477 0.7913
14105 1 59.3475 24.5303 2.3739
14106 1 57.7649 22.9477 3.9565
14107 1 59.3475 24.5303 5.5391
14108 1 57.7649 22.9477 7.1217
14109 1 59.3475 24.5303 8.7043
14110 1 57.7649 22.9477 10.2869
14111 1 59.3475 24.5303 11.8695
14112 1 57.7649 22.9477 13.4521
14113 1 59.3475 24.5303 15.0347
14114 1 57.7649 22.9477 16.6173
14115 1 59.3475 24.5303 18.1999
14116 1 57.7649 22.9477 19.7825
14117 1 59.3475 24.5303 21.3651
14118 1 57.7649 22.9477 22.9477
14119 1 59.3475 24.5303 24.5303
14120 1 57.7649 22.9477 26.1129
14121 1 59.3475 24.5303 27.6955
14122 1 57.7649 22.9477 29.2781
14123 1 59.3475 24.5303 30.8607
14124 1 57.7649 22.9477 32.4433
14125 1 59.3475 24.5303 34.0259
14126 1 57.7649 22.9477 35.6085
14127 1 59.3475 24.5303 37.1911
14128 1 57.7649 22.9477 38.7737
14129 1 59.3475 24.5303 40.3563
14130 1 57.7649 22.9477 41.9389
14131 1 59.3475 24.5303 43.5215
14132 1 57.7649 22.9477 45.1041
14133 1 59.3475 24.5303 46.6867
14134 1 57.7649 22.9477 48.2693
14135 1 59.3475 24.5303 49.8519
14136 1 57.7649 22.9477 51.4345
14137 1 59.3475 24.5303 53.0171
14138 1 57.7649 22.9477 54.5997
14139 1 59.3475 24.5303 56.1823
14140 1 57.7649 22.9477 57.7649
14141 1 59.3475 24.5303 59.3475
14142 1 57.7649 22.9477 60.9301
14143 1 59.3475 24.5303 62.5127
14144 1 57.7649 22.9477 64.0953
14145 1 59.3475 24.5303 65.6779
14146 1 57.7649 22.9477 67.2605
14147 1 59.3475 24.5303 68.8431
14148 1 57.7649 22.9477 70.4257
14149 1 59.3475 24.5303 72.0083
14150 1 57.7649 22.9477 73.5909
14151 1 59.3475 24.5303 75.1735
14152 1 57.7649 22.9477 76.7561
14153 1 59.3475 24.5303 78.3387
14154 1 57.7649 26.1129 0.7913
14155 1 59.3475 27.6955 2.3739
14156 1 57.7649 26.1129 3.9565
14157 1 59.3475 27.6955 5.5391
14158 1 57.7649 26.1129 7.1217
14159 1 59.3475 27.6955 8.7043
14160 1 57.7649 26.1129 10.2869
14161 1 59.3475 27.6955 11.8695
14162 1 57.7649 26.1129 13.4521
14163 1 59.3475 27.6955 15.0347
14164 1 57.7649 26.1129 16.6173
14165 1 59.3475 27.6955 18.1999
14166 1 57.7649 26.1129 19.7825
14167 1 59.3475 27.6955 21.3651
14168 1 57.7649 26.1129 22.9477
14169 1 59.3475 27.6955 24.5303
14170 1 57.7649 26.1129 26.1129
14171 1 59.3475 27.6955 27.6955
14172 1 57.7649 26.1129 29.2781
14173 1 59.3475 27.6955 30.8607
14174 1 57.7649 26.1129 32.4433
14175 1 59.3475 27.6955 34.0259
14176 1 57.7649 26.1129 35.6085
14177 1 59.3475 27.6955 37.1911
14178 1 57.7649 26.1129 38.7737
14179 1 59.3475 27.6955 40.3563
14180 1 57.7649 26.1129 41.9389
14181 1 59.3475 27.6955 43.5215
14182 1 57.7649 26.1129 45.1041
14183 1 59.3475 27.6955 46.6867
14184 1 57.7649 26.1129 48.2693
14185 1 59.3475 27.6955 49.8519
14186 1 57.7649 26.1129 51.4345
14187 1 59.3475 27.6955 53.0171
14188 1 57.7649 26.1129 54.5997
14189 1 59.3475 27.6955 56.1823
14190 1 57.7649 26.1129 57.7649
14191 1 59.3475 27.6955 59.3475
14192 1 57.7649 26.1129 60.9301
14193 1 59.3475 27.6955 62.5127
14194 1 57.7649 26.1129 64.0953
14195 1 59.3475 27.6955 65.6779
14196 1 57.7649 26.1129 67.2605
14197 1 59.3475 27.6955 68.8431
14198 1 57.7649 26.1129 70.4257
14199 1 59.3475 27.6955 72.0083
14200 1 57.7649 26.1129 73.5909
14201 1 59.3475 27.6955 75.1735
14202 1 57.7649 26.1129 76.7561
14203 1 59.3475 27.6955 78.3387
14204 1 57.7649 29.2781 0.7913
14205 1 59.3475 30.8607 2.3739
14206 1 57.7649 29.2781 3.9565
14207 1 59.3475 30.8607 5.5391
14208 1 57.7649 29.2781 7.1217
14209 1 59.3475 30.8607 8.7043
14210 1 57.7649 29.2781 10.2869
14211 1 59.3475 30.8607 11.8695
14212 1 57.7649 29.2781 13.4521
14213 1 59.3475 30.8607 15.0347
14214 1 57.7649 29.2781 16.6173
14215 1 59.3475 30.8607 18.1999
14216 1 57.7649 29.2781 19.7825
14217 1 59.3475 30.8607 21.3651
14218 1 57.7649 29.2781 22.9477
14219 1 59.3475 30.8607 24.5303
14220 1 57.7649 29.2781 26.1129
14221 1 59.3475 30.8607 27.6955
14222 1 57.7649 29.2781 29.2781
14223 1 59.3475 30.8607 30.8607
14224 1 57.7649 29.2781 32.4433
14225 1 59.3475 30.8607 34.0259
14226 1 57.7649 29.2781 35.6085
14227 1 59.3475 30.8607 37.1911
14228 1 57.7649 29.2781 38.7737
14229 1 59.3475 30.8607 40.3563
14230 1 57.7649 29.2781 41.9389
14231 1 59.3475 30.8607 43.5215
14232 1 57.7649 29.2781 45.1041
14233 1 59.3475 30.8607 46.6867
14234 1 57.7649 29.2781 48.2693
14235 1 59.3475 30.8607 49.8519
14236 1 57.7649 29.2781 51.4345
14237 1 59.3475 30.8607 53.0171
14238 1 57.7649 29.2781 54.5997
14239 1 59.3475 30.8607 56.1823
14240 1 57.7649 29.2781 57.7649
14241 1 59.3475 30.8607 59.3475
14242 1 57.7649 29.2781 60.9301
14243 1 59.3475 30.8607 62.5127
14244 1 57.7649 29.2781 64.0953
14245 1 59.3475 30.8607 65.6779
14246 1 57.7649 29.2781 67.2605
14247 1 59.3475 30.8607 68.8431
14248 1 57.7649 29.2781 70.4257
14249 1 59.3475 30.8607 72.0083
14250 1 57.7649 29.2781 73.5909
14251 1 59.3475 30.8607 75.1735
14252 1 57.7649 29.2781 76.7561
14253 1 59.3475 30.8607 78.3387
14254 1 57.7649 32.4433 0.7913
14255 1 59.3475 34.0259 2.3739
14256 1 57.7649 32.4433 3.9565
14257 1 59.3475 34.0259 5.5391
14258 1 57.7649 32.4433 7.1217
14259 1 59.3475 34.0259 8.7043
14260 1 57.7649 32.4433 10.2869
14261 1 59.3475 34.0259 11.8695
14262 1 57.7649 32.4433 13.4521
14263 1 59.3475 34.0259 15.0347
14264 1 57.7649 32.4433 16.6173
14265 1 59.3475 34.0259 18.1999
14266 1 57.7649 32.4433 19.7825
14267 1 59.3475 34.0259 21.3651
14268 1 57.7649 32.4433 22.9477
14269 1 59.3475 34.0259 24.5303
14270 1 57.7649 32.4433 26.1129
14271 1 59.3475 34.0259 27.6955
14272 1 57.7649 32.4433 29.2781
14273 1 59.3475 34.0259 30.8607
14274 1 57.7649 32.4433 32.4433
14275 1 59.3475 34.0259 34.0259
14276 1 57.7649 32.4433 35.6085
14277 1 59.3475 34.0259 37.1911
14278 1 57.7649 32.4433 38.7737
14279 1 59.3475 34.0259 40.3563
14280 1 57.7649 32.4433 41.9389
14281 1 59.3475 34.0259 43.5215
14282 1 57.7649 32.4433 45.1041
14283 1 59.3475 34.0259 46.6867
14284 1 57.7649 32.4433 48.2693
14285 1 59.3475 34.0259 49.8519
14286 1 57.7649 32.4433 51.4345
14287 1 59.3475 34.0259 53.0171
14288 1 57.7649 32.4433 54.5997
14289 1 59.3475 34.0259 56.1823
14290 1 57.7649 32.4433 57.7649
14291 1 59.3475 34.0259 59.3475
14292 1 57.7649 32.4433 60.9301
14293 1 59.3475 34.0259 62.5127
14294 1 57.7649 32.4433 64.0953
14295 1 59.3475 34.0259 65.6779
14296 1 57.7649 32.4433 67.2605
14297 1 59.3475 34.0259 68.8431
14298 1 57.7649 32.4433 70.4257
14299 1 59.3475 34.0259 72.0083
14300 1 57.7649 32.4433 73.5909
14301 1 59.3475 34.0259 75.1735
14302 1 57.7649 32.4433 76.7561
14303 1 59.3475 34.0259 78.3387
14304 1 57.7649 35.6085 0.7913
14305 1 59.3475 37.1911 2.3739
14306 1 57.7649 35.6085 3.9565
14307 1 59.3475 37.1911 5.5391
14308 1 57.7649 35.6085 7.1217
14309 1 59.3475 37.1911 8.7043
14310 1 57.7649 35.6085 10.2869
14311 1 59.3475 37.1911 11.8695
14312 1 57.7649 35.6085 13.4521
14313 1 59.3475 37.1911 15.0347
14314 1 57.7649 35.6085 16.6173
14315 1 59.3475 37.1911 18.1999
14316 1 57.7649 35.6085 19.7825
14317 1 59.3475 37.1911 21.3651
14318 1 57.7649 35.6085 22.9477
14319 1 59.3475 37.1911 24.5303
14320 1 57.7649 35.6085 26.1129
14321 1 59.3475 37.1911 27.6955
14322 1 57.7649 35.6085 29.2781
14323 1 59.3475 37.1911 30.8607
14324 1 57.7649 35.6085 32.4433
14325 1 59.3475 37.1911 34.0259
14326 1 57.7649 35.6085 35.6085
14327 1 59.3475 37.1911 37.1911
14328 1 57.7649 35.6085 38.7737
14329 1 59.3475 37.1911 40.3563
14330 1 57.7649 35.6085 41.9389
14331 1 59.3475 37.1911 43.5215
14332 1 57.7649 35.6085 45.1041
14333 1 59.3475 37.1911 46.6867
14334 1 57.7649 35.6085 48.2693
14335 1 59.3475 37.1911 49.8519
14336 1 57.7649 35.6085 51.4345
14337 1 59.3475 37.1911 53.0171
14338 1 57.7649 35.6085 54.5997
14339 1 59.3475 37.1911 56.1823
14340 1 57.7649 35.6085 57.7649
14341 1 59.3475 37.1911 59.3475
14342 1 57.7649 35.6085 60.9301
14343 1 59.3475 37.1911 62.5127
14344 1 57.7649 35.6085 64.0953
14345 1 59.3475 37.1911 65.6779
14346 1 57.7649 35.6085 67.2605
14347 1 59.3475 37.1911 68.8431
14348 1 57.7649 35.6085 70.4257
14349 1 59.3475 37.1911 72.0083
14350 1 57.7649 35.6085 73.5909
14351 1 59.3475 37.1911 75.1735
14352 1 57.7649 35.6085 76.7561
14353 1 59.3475 37.1911 78.3387
14354 1 57.7649 38.7737 0.7913
14355 1 59.3475 40.3563 2.3739
14356 1 57.7649 38.7737 3.9565
14357 1 59.3475 40.3563 5.5391
14358 1 57.7649 38.7737 7.1217
14359 1 59.3475 40.3563 8.7043
14360 1 57.7649 38.7737 10.2869
14361 1 59.3475 40.3563 11.8695
14362 1 57.7649 38.7737 13.4521
14363 1 59.3475 40.3563 15.0347
14364 1 57.7649 38.7737 16.6173
14365 1 59.3475 40.3563 18.1999
14366 1 57.7649 38.7737 19.7825
14367 1 59.3475 40.3563 21.3651
14368 1 57.7649 38.7737 22.9477
14369 1 59.3475 40.3563 24.5303
14370 1 57.7649 38.7737 26.1129
14371 1 59.3475 40.3563 27.6955
14372 1 57.7649 38.7737 29.2781
14373 1 59.3475 40.3563 30.8607
14374 1 57.7649 38.7737 32.4433
14375 1 59.3475 40.3563 34.0259
14376 1 57.7649 38.7737 35.6085
14377 1 59.3475 40.3563 37.1911
14378 1 57.7649 38.7737 38.7737
14379 1 59.3475 40.3563 40.3563
14380 1 57.7649 38.7737 41.9389
14381 1 59.3475 40.3563 43.5215
14382 1 57.7649 38.7737 45.1041
14383 1 59.3475 40.3563 46.6867
14384 1 57.7649 38.7737 48.2693
14385 1 59.3475 40.3563 49.8519
14386 1 57.7649 38.7737 51.4345
14387 1 59.3475 40.3563 53.0171
14388 1 57.7649 38.7737 54.5997
14389 1 59.3475 40.3563 56.1823
14390 1 57.7649 38.7737 57.7649
14391 1 59.3475 40.3563 59.3475
14392 1 57.7649 38.7737 60.9301
14393 1 59.3475 40.3563 62.5127
14394 1 57.7649 38.7737 64.0953
14395 1 59.3475 40.3563 65.6779
14396 1 57.7649 38.7737 67.2605
14397 1 59.3475 40.3563 68.8431
14398 1 57.7649 38.7737 70.4257
14399 1 59.3475 40.3563 72.0083
14400 1 57.7649 38.7737 73.5909
14401 1 59.3475 40.3563 75.1735
14402 1 57.7649 38.7737 76.7561
14403 1 59.3475 40.3563 78.3387
14404 1 57.7649 41.9389 0.7913
14405 1 59.3475 43.5215 2.3739
14406 1 57.7649 41.9389 3.9565
14407 1 59.3475 43.5215 5.5391
14408 1 57.7649 41.9389 7.1217
14409 1 59.3475 43.5215 8.7043
14410 1 57.7649 41.9389 10.2869
14411 1 59.3475 43.5215 11.8695
14412 1 57.7649 41.9389 13.4521
14413 1 59.3475 43.5215 15.0347
14414 1 57.7649 41.9389 16.6173
14415 1 59.3475 43.5215 18.1999
14416 1 57.7649 41.9389 19.7825
14417 1 59.3475 43.5215 21.3651
14418 1 57.7649 41.9389 22.9477
14419 1 59.3475 43.5215 24.5303
14420 1 57.7649 41.9389 26.1129
14421 1 59.3475 43.5215 27.6955
14422 1 57.7649 41.9389 29.2781
14423 1 59.3475 43.5215 30.8607
14424 1 57.7649 41.9389 32.4433
14425 1 59.3475 43.5215 34.0259
14426 1 57.7649 41.9389 35.6085
14427 1 59.3475 43.5215 37.1911
14428 1 57.7649 41.9389 38.7737
14429 1 59.3475 43.5215 40.3563
14430 1 57.7649 41.9389 41.9389
14431 1 59.3475 43.5215 43.5215
14432 1 57.7649 41.9389 45.1041
14433 1 59.3475 43.5215 46.6867
14434 1 57.7649 41.9389 48.2693
14435 1 59.3475 43.5215 49.8519
14436 1 57.7649 41.9389 51.4345
14437 1 59.3475 43.5215 53.0171
14438 1 57.7649 41.9389 54.5997
14439 1 59.3475 43.5215 56.1823
14440 1 57.7649 41.9389 57.7649
14441 1 59.3475 43.5215 59.3475
14442 1 57.7649 41.9389 60.9301
14443 1 59.3475 43.5215 62.5127
14444 1 57.7649 41.9389 64.0953
14445 1 59.3475 43.5215 65.6779
14446 1 57.7649 41.9389 67.2605
14447 1 59.3475 43.5215 68.8431
14448 1 57.7649 41.9389 70.4257
14449 1 59.3475 43.5215 72.0083
14450 1 57.7649 41.9389 73.5909
14451 1 59.3475 43.5215 75.1735
14452 1 57.7649 41.9389 76.7561
14453 1 59.3475 43.5215 78.3387
14454 1 57.7649 45.1041 0.7913
14455 1 59.3475 46.6867 2.3739
14456 1 57.7649 45.1041 3.9565
14457 1 59.3475 46.6867 5.5391
14458 1 57.7649 45.1041 7.1217
14459 1 59.3475 46.6867 8.7043
14460 1 57.7649 45.1041 10.2869
14461 1 59.3475 46.6867 11.8695
14462 1 57.7649 45.1041 13.4521
14463 1 59.3475 46.6867 15.0347
14464 1 57.7649 45.1041 16.6173
14465 1 59.3475 46.6867 18.1999
14466 1 57.7649 45.1041 19.7825
14467 1 59.3475 46.6867 21.3651
14468 1 57.7649 45.1041 22.9477
14469 1 59.3475 46.6867 24.5303
14470 1 57.7649 45.1041 26.1129
14471 1 59.3475 46.6867 27.6955
14472 1 57.7649 45.1041 29.2781
14473 1 59.3475 46.6867 30.8607
14474 1 57.7649 45.1041 32.4433
14475 1 59.3475 46.6867 34.0259
14476 1 57.7649 45.1041 35.6085
14477 1 59.3475 46.6867 37.1911
14478 1 57.7649 45.1041 38.7737
14479 1 59.3475 46.6867 40.3563
14480 1 57.7649 45.1041 41.9389
14481 1 59.3475 46.6867 43.5215
14482 1 57.7649 45.1041 45.1041
14483 1 59.3475 46.6867 46.6867
14484 1 57.7649 45.1041 48.2693
14485 1 59.3475 46.6867 49.8519
14486 1 57.7649 45.1041 51.4345
14487 1 59.3475 46.6867 53.0171
14488 1 57.7649 45.1041 54.5997
14489 1 59.3475 46.6867 56.1823
14490 1 57.7649 45.1041 57.7649
14491 1 59.3475 46.6867 59.3475
14492 1 57.7649 45.1041 60.9301
14493 1 59.3475 46.6867 62.5127
14494 1 57.7649 45.1041 64.0953
14495 1 59.3475 46.6867 65.6779
14496 1 57.7649 45.1041 67.2605
14497 1 59.3475 46.6867 68.8431
14498 1 57.7649 45.1041 70.4257
14499 1 59.3475 46.6867 72.0083
14500 1 57.7649 45.1041 73.5909
14501 1 59.3475 46.6867 75.1735
14502 1 57.7649 45.1041 76.7561
14503 1 59.3475 46.6867 78.3387
14504 1 57.7649 48.2693 0.7913
14505 1 59.3475 49.8519 2.3739
14506 1 57.7649 48.2693 3.9565
14507 1 59.3475 49.8519 5.5391
14508 1 57.7649 48.2693 7.1217
14509 1 59.3475 49.8519 8.7043
14510 1 57.7649 48.2693 10.2869
14511 1 59.3475 49.8519 11.8695
14512 1 57.7649 48.2693 13.4521
14513 1 59.3475 49.8519 15.0347
14514 1 57.7649 48.2693 16.6173
14515 1 59.3475 49.8519 18.1999
14516 1 57.7649 48.2693 19.7825
14517 1 59.3475 49.8519 21.3651
14518 1 57.7649 48.2693 22.9477
14519 1 59.3475 49.8519 24.5303
14520 1 57.7649 48.2693 26.1129
14521 1 59.3475 49.8519 27.6955
14522 1 57.7649 48.2693 29.2781
14523 1 59.3475 49.8519 30.8607
14524 1 57.7649 48.2693 32.4433
14525 1 59.3475 49.8519 34.0259
14526 1 57.7649 48.2693 35.6085
14527 1 59.3475 49.8519 37.1911
14528 1 57.7649 48.2693 38.7737
14529 1 59.3475 49.8519 40.3563
14530 1 57.7649 48.2693 41.9389
14531 1 59.3475 49.8519 43.5215
14532 1 57.7649 48.2693 45.1041
14533 1 59.3475 49.8519 46.6867
14534 1 57.7649 48.2693 48.2693
14535 1 59.3475 49.8519 49.8519
14536 1 57.7649 48.2693 51.4345
14537 1 59.3475 49.8519 53.0171
14538 1 57.7649 48.2693 54.5997
14539 1 59.3475 49.8519 56.1823
14540 1 57.7649 48.2693 57.7649
14541 1 59.3475 49.8519 59.3475
14542 1 57.7649 48.2693 60.9301
14543 1 59.3475 49.8519 62.5127
14544 1 57.7649 48.2693 64.0953
14545 1 59.3475 49.8519 65.6779
14546 1 57.7649 48.2693 67.2605
14547 1 59.3475 49.8519 68.8431
14548 1 57.7649 48.2693 70.4257
14549 1 59.3475 49.8519 72.0083
14550 1 57.7649 48.2693 73.5909
14551 1 59.3475 49.8519 75.1735
14552 1 57.7649 48.2693 76.7561
14553 1 59.3475 49.8519 78.3387
14554 1 57.7649 51.4345 0.7913
14555 1 59.3475 53.0171 2.3739
14556 1 57.7649 51.4345 3.9565
14557 1 59.3475 53.0171 5.5391
14558 1 57.7649 51.4345 7.1217
14559 1 59.3475 53.0171 8.7043
14560 1 57.7649 51.4345 10.2869
14561 1 59.3475 53.0171 11.8695
14562 1 57.7649 51.4345 13.4521
14563 1 59.3475 53.0171 15.0347
14564 1 57.7649 51.4345 16.6173
14565 1 59.3475 53.0171 18.1999
14566 1 57.7649 51.4345 19.7825
14567 1 59.3475 53.0171 21.3651
14568 1 57.7649 51.4345 22.9477
14569 1 59.3475 53.0171 24.5303
14570 1 57.7649 51.4345 26.1129
14571 1 59.3475 53.0171 27.6955
14572 1 57.7649 51.4345 29.2781
14573 1 59.3475 53.0171 30.8607
14574 1 57.7649 51.4345 32.4433
14575 1 59.3475 53.0171 34.0259
14576 1 57.7649 51.4345 35.6085
14577 1 59.3475 53.0171 37.1911
14578 1 57.7649 51.4345 38.7737
14579 1 59.3475 53.0171 40.3563
14580 1 57.7649 51.4345 41.9389
14581 1 59.3475 53.0171 43.5215
14582 1 57.7649 51.4345 45.1041
14583 1 59.3475 53.0171 46.6867
14584 1 57.7649 51.4345 48.2693
14585 1 59.3475 53.0171 49.8519
14586 1 57.7649 51.4345 51.4345
14587 1 59.3475 53.0171 53.0171
14588 1 57.7649 51.4345 54.5997
14589 1 59.3475 53.0171 56.1823
14590 1 57.7649 51.4345 57.7649
14591 1 59.3475 53.0171 59.3475
14592 1 57.7649 51.4345 60.9301
14593 1 59.3475 53.0171 62.5127
14594 1 57.7649 51.4345 64.0953
14595 1 59.3475 53.0171 65.6779
14596 1 57.7649 51.4345 67.2605
14597 1 59.3475 53.0171 68.8431
14598 1 57.7649 51.4345 70.4257
14599 1 59.3475 53.0171 72.0083
14600 1 57.7649 51.4345 73.5909
14601 1 59.3475 53.0171 75.1735
14602 1 57.7649 51.4345 76.7561
14603 1 59.3475 53.0171 78.3387
14604 1 57.7649 54.5997 0.7913
14605 1 59.3475 56.1823 2.3739
14606 1 57.7649 54.5997 3.9565
14607 1 59.3475 56.1823 5.5391
14608 1 57.7649 54.5997 7.1217
14609 1 59.3475 56.1823 8.7043
14610 1 57.7649 54.5997 10.2869
14611 1 59.3475 56.1823 11.8695
14612 1 57.7649 54.5997 13.4521
14613 1 59.3475 56.1823 15.0347
14614 1 57.7649 54.5997 16.6173
14615 1 59.3475 56.1823 18.1999
14616 1 57.7649 54.5997 19.7825
14617 1 59.3475 56.1823 21.3651
14618 1 57.7649 54.5997 22.9477
14619 1 59.3475 56.1823 24.5303
14620 1 57.7649 54.5997 26.1129
14621 1 59.3475 56.1823 27.6955
14622 1 57.7649 54.5997 29.2781
14623 1 59.3475 56.1823 30.8607
14624 1 57.7649 54.5997 32.4433
14625 1 59.3475 56.1823 34.0259
14626 1 57.7649 54.5997 35.6085
14627 1 59.3475 56.1823 37.1911
14628 1 57.7649 54.5997 38.7737
14629 1 59.3475 56.1823 40.3563
14630 1 57.7649 54.5997 41.9389
14631 1 59.3475 56.1823 43.5215
14632 1 57.7649 54.5997 45.1041
14633 1 59.3475 56.1823 46.6867
14634 1 57.7649 54.5997 48.2693
14635 1 59.3475 56.1823 49.8519
14636 1 57.7649 54.5997 51.4345
14637 1 59.3475 56.1823 53.0171
14638 1 57.7649 54.5997 54.5997
14639 1 59.3475 56.1823 56.1823
14640 1 57.7649 54.5997 57.7649
14641 1 59.3475 56.1823 59.3475
14642 1 57.7649 54.5997 60.9301
14643 1 59.3475 56.1823 62.5127
14644 1 57.7649 54.5997 64.0953
14645 1 59.3475 56.1823 65.6779
14646 1 57.7649 54.5997 67.2605
14647 1 59.3475 56.1823 68.8431
14648 1 57.7649 54.5997 70.4257
14649 1 59.3475 56.1823 72.0083
14650 1 57.7649 54.5997 73.5909
14651 1 59.3475 56.1823 75.1735
14652 1 57.7649 54.5997 76.7561
14653 1 59.3475 56.1823 78.3387
14654 1 57.7649 57.7649 0.7913
14655 1 59.3475 59.3475 2.3739
14656 1 57.7649 57.7649 3.9565
14657 1 59.3475 59.3475 5.5391
14658 1 57.7649 57.7649 7.1217
14659 1 59.3475 59.3475 8.7043
14660 1 57.7649 57.7649 10.2869
14661 1 59.3475 59.3475 11.8695
14662 1 57.7649 57.7649 13.4521
14663 1 59.3475 59.3475 15.0347
14664 1 57.7649 57.7649 16.6173
14665 1 59.3475 59.3475 18.1999
14666 1 57.7649 57.7649 19.7825
14667 1 59.3475 59.3475 21.3651
14668 1 57.7649 57.7649 22.9477
14669 1 59.3475 59.3475 24.5303
14670 1 57.7649 57.7649 26.1129
14671 1 59.3475 59.3475 27.6955
14672 1 57.7649 57.7649 29.2781
14673 1 59.3475 59.3475 30.8607
14674 1 57.7649 57.7649 32.4433
14675 1 59.3475 59.3475 34.0259
14676 1 57.7649 57.7649 35.6085
14677 1 59.3475 59.3475 37.1911
14678 1 57.7649 57.7649 38.7737
14679 1 59.3475 59.3475 40.3563
14680 1 57.7649 57.7649 41.9389
14681 1 59.3475 59.3475 43.5215
14682 1 57.7649 57.7649 45.1041
14683 1 59.3475 59.3475 46.6867
14684 1 57.7649 57.7649 48.2693
14685 1 59.3475 59.3475 49.8519
14686 1 57.7649 57.7649 51.4345
14687 1 59.3475 59.3475 53.0171
14688 1 57.7649 57.7649 54.5997
14689 1 59.3475 59.3475 56.1823
14690 1 57.7649 57.7649 57.7649
14691 1 59.3475 59.3475 59.3475
14692 1 57.7649 57.7649 60.9301
14693 1 59.3475 59.3475 62.5127
14694 1 57.7649 57.7649 64.0953
14695 1 59.3475 59.3475 65.6779
14696 1 57.7649 57.7649 67.2605
14697 1 59.3475 59.3475 68.8431
14698 1 57.7649 57.7649 70.4257
14699 1 59.3475 59.3475 72.0083
14700 1 57.7649 57.7649 73.5909
14701 1 59.3475 59.3475 75.1735
14702 1 57.7649 57.7649 76.7561
14703 1 59.3475 59.3475 78.3387
14704 1 57.7649 60.9301 0.7913
14705 1 59.3475 62.5127 2.3739
14706 1 57.7649 60.9301 3.9565
14707 1 59.3475 62.5127 5.5391
14708 1 57.7649 60.9301 7.1217
14709 1 59.3475 62.5127 8.7043
14710 1 57.7649 60.9301 10.2869
14711 1 59.3475 62.5127 11.8695
14712 1 57.7649 60.9301 13.4521
14713 1 59.3475 62.5127 15.0347
14714 1 57.7649 60.9301 16.6173
14715 1 59.3475 62.5127 18.1999
14716 1 57.7649 60.9301 19.7825
14717 1 59.3475 62.5127 21.3651
14718 1 57.7649 60.9301 22.9477
14719 1 59.3475 62.5127 24.5303
14720 1 57.7649 60.9301 26.1129
14721 1 59.3475 62.5127 27.6955
14722 1 57.7649 60.9301 29.2781
14723 1 59.3475 62.5127 30.8607
14724 1 57.7649 60.9301 32.4433
14725 1 59.3475 62.5127 34.0259
14726 1 57.7649 60.9301 35.6085
14727 1 59.3475 62.5127 37.1911
14728 1 57.7649 60.9301 38.7737
14729 1 59.3475 62.5127 40.3563
14730 1 57.7649 60.9301 41.9389
14731 1 59.3475 62.5127 43.5215
14732 1 57.7649 60.9301 45.1041
14733 1 59.3475 62.5127 46.6867
14734 1 57.7649 60.9301 48.2693
14735 1 59.3475 62.5127 49.8519
14736 1 57.7649 60.9301 51.4345
14737 1 59.3475 62.5127 53.0171
14738 1 57.7649 60.9301 54.5997
14739 1 59.3475 62.5127 56.1823
14740 1 57.7649 60.9301 57.7649
14741 1 59.3475 62.5127 59.3475
14742 1 57.7649 60.9301 60.9301
14743 1 59.3475 62.5127 62.5127
14744 1 57.7649 60.9301 64.0953
14745 1 59.3475 62.5127 65.6779
14746 1 57.7649 60.9301 67.2605
14747 1 59.3475 62.5127 68.8431
14748 1 57.7649 60.9301 70.4257
14749 1 59.3475 62.5127 72.0083
14750 1 57.7649 60.9301 73.5909
14751 1 59.3475 62.5127 75.1735
14752 1 57.7649 60.9301 76.7561
14753 1 59.3475 62.5127 78.3387
14754 1 57.7649 64.0953 0.7913
14755 1 59.3475 65.6779 2.3739
14756 1 57.7649 64.0953 3.9565
14757 1 59.3475 65.6779 5.5391
14758 1 57.7649 64.0953 7.1217
14759 1 59.3475 65.6779 8.7043
14760 1 57.7649 64.0953 10.2869
14761 1 59.3475 65.6779 11.8695
14762 1 57.7649 64.0953 13.4521
14763 1 59.3475 65.6779 15.0347
14764 1 57.7649 64.0953 16.6173
14765 1 59.3475 65.6779 18.1999
14766 1 57.7649 64.0953 19.7825
14767 1 59.3475 65.6779 21.3651
14768 1 57.7649 64.0953 22.9477
14769 1 59.3475 65.6779 24.5303
14770 1 57.7649 64.0953 26.1129
14771 1 59.3475 65.6779 27.6955
14772 1 57.7649 64.0953 29.2781
14773 1 59.3475 65.6779 30.8607
14774 1 57.7649 64.0953 32.4433
14775 1 59.3475 65.6779 34.0259
14776 1 57.7649 64.0953 35.6085
14777 1 59.3475 65.6779 37.1911
14778 1 57.7649 64.0953 38.7737
14779 1 59.3475 65.6779 40.3563
14780 1 57.7649 64.0953 41.9389
14781 1 59.3475 65.6779 43.5215
14782 1 57.7649 64.0953 45.1041
14783 1 59.3475 65.6779 46.6867
14784 1 57.7649 64.0953 48.2693
14785 1 59.3475 65.6779 49.8519
14786 1 57.7649 64.0953 51.4345
14787 1 59.3475 65.6779 53.0171
14788 1 57.7649 64.0953 54.5997
14789 1 59.3475 65.6779 56.1823
14790 1 57.7649 64.0953 57.7649
14791 1 59.3475 65.6779 59.3475
14792 1 57.7649 64.0953 60.9301
14793 1 59.3475 65.6779 62.5127
14794 1 57.7649 64.0953 64.0953
14795 1 59.3475 65.6779 65.6779
14796 1 57.7649 64.0953 67.2605
14797 1 59.3475 65.6779 68.8431
14798 1 57.7649 64.0953 70.4257
14799 1 59.3475 65.6779 72.0083
14800 1 57.7649 64.0953 73.5909
14801 1 59.3475 65.6779 75.1735
14802 1 57.7649 64.0953 76.7561
14803 1 59.3475 65.6779 78.3387
14804 1 57.7649 67.2605 0.7913
14805 1 59.3475 68.8431 2.3739
14806 1 57.7649 67.2605 3.9565
14807 1 59.3475 68.8431 5.5391
14808 1 57.7649 67.2605 7.1217
14809 1 59.3475 68.8431 8.7043
14810 1 57.7649 67.2605 10.2869
14811 1 59.3475 68.8431 11.8695
14812 1 57.7649 67.2605 13.4521
14813 1 59.3475 68.8431 15.0347
14814 1 57.7649 67.2605 16.6173
14815 1 59.3475 68.8431 18.1999
14816 1 57.7649 67.2605 19.7825
14817 1 59.3475 68.8431 21.3651
14818 1 57.7649 67.2605 22.9477
14819 1 59.3475 68.8431 24.5303
14820 1 57.7649 67.2605 26.1129
14821 1 59.3475 68.8431 27.6955
14822 1 57.7649 67.2605 29.2781
14823 1 59.3475 68.8431 30.8607
14824 1 57.7649 67.2605 32.4433
14825 1 59.3475 68.8431 34.0259
14826 1 57.7649 67.2605 35.6085
14827 1 59.3475 68.8431 37.1911
14828 1 57.7649 67.2605 38.7737
14829 1 59.3475 68.8431 40.3563
14830 1 57.7649 67.2605 41.9389
14831 1 59.3475 68.8431 43.5215
14832 1 57.7649 67.2605 45.1041
14833 1 59.3475 68.8431 46.6867
14834 1 57.7649 67.2605 48.2693
14835 1 59.3475 68.8431 49.8519
14836 1 57.7649 67.2605 51.4345
14837 1 59.3475 68.8431 53.0171
14838 1 57.7649 67.2605 54.5997
14839 1 59.3475 68.8431 56.1823
14840 1 57.7649 67.2605 57.7649
14841 1 59.3475 68.8431 59.3475
14842 1 57.7649 67.2605 60.9301
14843 1 59.3475 68.8431 62.5127
14844 1 57.7649 67.2605 64.0953
14845 1 59.3475 68.8431 65.6779
14846 1 57.7649 67.2605 67.2605
14847 1 59.3475 68.8431 68.8431
14848 1 57.7649 67.2605 70.4257
14849 1 59.3475 68.8431 72.0083
14850 1 57.7649 67.2605 73.5909
14851 1 59.3475 68.8431 75.1735
14852 1 57.7649 67.2605 76.7561
14853 1 59.3475 68.8431 78.3387
14854 1 57.7649 70.4257 0.7913
14855 1 59.3475 72.0083 2.3739
14856 1 57.7649 70.4257 3.9565
14857 1 59.3475 72.0083 5.5391
14858 1 57.7649 70.4257 7.1217
14859 1 59.3475 72.0083 8.7043
14860 1 57.7649 70.4257 10.2869
14861 1 59.3475 72.0083 11.8695
14862 1 57.7649 70.4257 13.4521
14863 1 59.3475 72.0083 15.0347
14864 1 57.7649 70.4257 16.6173
14865 1 59.3475 72.0083 18.1999
14866 1 57.7649 70.4257 19.7825
14867 1 59.3475 72.0083 21.3651
14868 1 57.7649 70.4257 22.9477
14869 1 59.3475 72.0083 24.5303
14870 1 57.7649 70.4257 26.1129
14871 1 59.3475 72.0083 27.6955
14872 1 57.7649 70.4257 29.2781
14873 1 59.3475 72.0083 30.8607
14874 1 57.7649 70.4257 32.4433
14875 1 59.3475 72.0083 34.0259
14876 1 57.7649 70.4257 35.6085
14877 1 59.3475 72.0083 37.1911
14878 1 57.7649 70.4257 38.7737
14879 1 59.3475 72.0083 40.3563
14880 1 57.7649 70.4257 41.9389
14881 1 59.3475 72.0083 43.5215
14882 1 57.7649 70.4257 45.1041
14883 1 59.3475 72.0083 46.6867
14884 1 57.7649 70.4257 48.2693
14885 1 59.3475 72.0083 49.8519
14886 1 57.7649 70.4257 51.4345
14887 1 59.3475 72.0083 53.0171
14888 1 57.7649 70.4257 54.5997
14889 1 59.3475 72.0083 56.1823
14890 1 57.7649 70.4257 57.7649
14891 1 59.3475 72.0083 59.3475
14892 1 57.7649 70.4257 60.9301
14893 1 59.3475 72.0083 62.5127
14894 1 57.7649 70.4257 64.0953
14895 1 59.3475 72.0083 65.6779
14896 1 57.7649 70.4257 67.2605
14897 1 59.3475 72.0083 68.8431
14898 1 57.7649 70.4257 70.4257
14899 1 59.3475 72.0083 72.0083
14900 1 57.7649 70.4257 73.5909
14901 1 59.3475 72.0083 75.1735
14902 1 57.7649 70.4257 76.7561
14903 1 59.3475 72.0083 78.3387
14904 1 57.7649 73.5909 0.7913
14905 1 59.3475 75.1735 2.3739
14906 1 57.7649 73.5909 3.9565
14907 1 59.3475 75.1735 5.5391
14908 1 57.7649 73.5909 7.1217
14909 1 59.3475 75.1735 8.7043
14910 1 57.7649 73.5909 10.2869
14911 1 59.3475 75.1735 11.8695
14912 1 57.7649 73.5909 13.4521
14913 1 59.3475 75.1735 15.0347
14914 1 57.7649 73.5909 16.6173
14915 1 59.3475 75.1735 18.1999
14916 1 57.7649 73.5909 19.7825
14917 1 59.3475 75.1735 21.3651
14918 1 57.7649 73.5909 22.9477
14919 1 59.3475 75.1735 24.5303
14920 1 57.7649 73.5909 26.1129
14921 1 59.3475 75.1735 27.6955
14922 1 57.7649 73.5909 29.2781
14923 1 59.3475 75.1735 30.8607
14924 1 57.7649 73.5909 32.4433
14925 1 59.3475 75.1735 34.0259
14926 1 57.7649 73.5909 35.6085
14927 1 59.3475 75.1735 37.1911
14928 1 57.7649 73.5909 38.7737
14929 1 59.3475 75.1735 40.3563
14930 1 57.7649 73.5909 41.9389
14931 1 59.3475 75.1735 43.5215
14932 1 57.7649 73.5909 45.1041
14933 1 59.3475 75.1735 46.6867
14934 1 57.7649 73.5909 48.2693
14935 1 59.3475 75.1735 49.8519
14936 1 57.7649 73.5909 51.4345
14937 1 59.3475 75.1735 53.0171
14938 1 57.7649 73.5909 54.5997
14939 1 59.3475 75.1735 56.1823
14940 1 57.7649 73.5909 57.7649
14941 1 59.3475 75.1735 59.3475
14942 1 57.7649 73.5909 60.9301
14943 1 59.3475 75.1735 62.5127
14944 1 57.7649 73.5909 64.0953
14945 1 59.3475 75.1735 65.6779
14946 1 57.7649 73.5909 67.2605
14947 1 59.3475 75.1735 68.8431
14948 1 57.7649 73.5909 70.4257
14949 1 59.3475 75.1735 72.0083
14950 1 57.7649 73.5909 73.5909
14951 1 59.3475 75.1735 75.1735
14952 1 57.7649 73.5909 76.7561
14953 1 59.3475 75.1735 78.3387
14954 1 57.7649 76.7561 0.7913
14955 1 59.3475 78.3387 2.3739
14956 1 57.7649 76.7561 3.9565
14957 1 59.3475 78.3387 5.5391
14958 1 57.7649 76.7561 7.1217
14959 1 59.3475 78.3387 8.7043
14960 1 57.7649 76.7561 10.2869
14961 1 59.3475 78.3387 11.8695
14962 1 57.7649 76.7561 13.4521
14963 1 59.3475 78.3387 15.0347
14964 1 57.7649 76.7561 16.6173
14965 1 59.3475 78.3387 18.1999
14966 1 57.7649 76.7561 19.7825
14967 1 59.3475 78.3387 21.3651
14968 1 57.7649 76.7561 22.9477
14969 1 59.3475 78.3387 24.5303
14970 1 57.7649 76.7561 26.1129
14971 1 59.3475 78.3387 27.6955
14972 1 57.7649 76.7561 29.2781
14973 1 59.3475 78.3387 30.8607
14974 1 57.7649 76.7561 32.4433
14975 1 59.3475 78.3387 34.0259
14976 1 57.7649 76.7561 35.6085
14977 1 59.3475 78.3387 37.1911
14978 1 57.7649 76.7561 38.7737
14979 1 59.3475 78.3387 40.3563
14980 1 57.7649 76.7561 41.9389
14981 1 59.3475 78.3387 43.5215
14982 1 57.7649 76.7561 45.1041
14983 1 59.3475 78.3387 46.6867
14984 1 57.7649 76.7561 48.2693
14985 1 59.3475 78.3387 49.8519
14986 1 57.7649 76.7561 51.4345
14987 1 59.3475 78.3387 53.0171
14988 1 57.7649 76.7561 54.5997
14989 1 59.3475 78.3387 56.1823
14990 1 57.7649 76.7561 57.7649
14991 1 59.3475 78.3387 59.3475
14992 1 57.7649 76.7561 60.9301
14993 1 59.3475 78.3387 62.5127
14994 1 57.7649 76.7561 64.0953
14995 1 59.3475 78.3387 65.6779
14996 1 57.7649 76.7561 67.2605
14997 1 59.3475 78.3387 68.8431
14998 1 57.7649 76.7561 70.4257
14999 1 59.3475 78.3387 72.0083
15000 1 57.7649 76.7561 73.5909
15001 1 59.3475 78.3387 75.1735
15002 1 57.7649 76.7561 76.7561
15003 1 59.3475 78.3387 78.3387
15004 1 60.9301 0.7913 0.7913
15005 1 62.5127 2.3739 2.3739
15006 1 60.9301 0.7913 3.9565
15007 1 62.5127 2.3739 5.5391
15008 1 60.9301 0.7913 7.1217
15009 1 62.5127 2.3739 8.7043
15010 1 60.9301 0.7913 10.2869
15011 1 62.5127 2.3739 11.8695
15012 1 60.9301 0.7913 13.4521
15013 1 62.5127 2.3739 15.0347
15014 1 60.9301 0.7913 16.6173
15015 1 62.5127 2.3739 18.1999
15016 1 60.9301 0.7913 19.7825
15017 1 62.5127 2.3739 21.3651
15018 1 60.9301 0.7913 22.9477
15019 1 62.5127 2.3739 24.5303
15020 1 60.9301 0.7913 26.1129
15021 1 62.5127 2.3739 27.6955
15022 1 60.9301 0.7913 29.2781
15023 1 62.5127 2.3739 30.8607
15024 1 60.9301 0.7913 32.4433
15025 1 62.5127 2.3739 34.0259
15026 1 60.9301 0.7913 35.6085
15027 1 62.5127 2.3739 37.1911
15028 1 60.9301 0.7913 38.7737
15029 1 62.5127 2.3739 40.3563
15030 1 60.9301 0.7913 41.9389
15031 1 62.5127 2.3739 43.5215
15032 1 60.9301 0.7913 45.1041
15033 1 62.5127 2.3739 46.6867
15034 1 60.9301 0.7913 48.2693
15035 1 62.5127 2.3739 49.8519
15036 1 60.9301 0.7913 51.4345
15037 1 62.5127 2.3739 53.0171
15038 1 60.9301 0.7913 54.5997
15039 1 62.5127 2.3739 56.1823
15040 1 60.9301 0.7913 57.7649
15041 1 62.5127 2.3739 59.3475
15042 1 60.9301 0.7913 60.9301
15043 1 62.5127 2.3739 62.5127
15044 1 60.9301 0.7913 64.0953
15045 1 62.5127 2.3739 65.6779
15046 1 60.9301 0.7913 67.2605
15047 1 62.5127 2.3739 68.8431
15048 1 60.9301 0.7913 70.4257
15049 1 62.5127 2.3739 72.0083
15050 1 60.9301 0.7913 73.5909
15051 1 62.5127 2.3739 75.1735
15052 1 60.9301 0.7913 76.7561
15053 1 62.5127 2.3739 78.3387
15054 1 60.9301 3.9565 0.7913
15055 1 62.5127 5.5391 2.3739
15056 1 60.9301 3.9565 3.9565
15057 1 62.5127 5.5391 5.5391
15058 1 60.9301 3.9565 7.1217
15059 1 62.5127 5.5391 8.7043
15060 1 60.9301 3.9565 10.2869
15061 1 62.5127 5.5391 11.8695
15062 1 60.9301 3.9565 13.4521
15063 1 62.5127 5.5391 15.0347
15064 1 60.9301 3.9565 16.6173
15065 1 62.5127 5.5391 18.1999
15066 1 60.9301 3.9565 19.7825
15067 1 62.5127 5.5391 21.3651
15068 1 60.9301 3.9565 22.9477
15069 1 62.5127 5.5391 24.5303
15070 1 60.9301 3.9565 26.1129
15071 1 62.5127 5.5391 27.6955
15072 1 60.9301 3.9565 29.2781
15073 1 62.5127 5.5391 30.8607
15074 1 60.9301 3.9565 32.4433
15075 1 62.5127 5.5391 34.0259
15076 1 60.9301 3.9565 35.6085
15077 1 62.5127 5.5391 37.1911
15078 1 60.9301 3.9565 38.7737
15079 1 62.5127 5.5391 40.3563
15080 1 60.9301 3.9565 41.9389
15081 1 62.5127 5.5391 43.5215
15082 1 60.9301 3.9565 45.1041
15083 1 62.5127 5.5391 46.6867
15084 1 60.9301 3.9565 48.2693
15085 1 62.5127 5.5391 49.8519
15086 1 60.9301 3.9565 51.4345
15087 1 62.5127 5.5391 53.0171
15088 1 60.9301 3.9565 54.5997
15089 1 62.5127 5.5391 56.1823
15090 1 60.9301 3.9565 57.7649
15091 1 62.5127 5.5391 59.3475
15092 1 60.9301 3.9565 60.9301
15093 1 62.5127 5.5391 62.5127
15094 1 60.9301 3.9565 64.0953
15095 1 62.5127 5.5391 65.6779
15096 1 60.9301 3.9565 67.2605
15097 1 62.5127 5.5391 68.8431
15098 1 60.9301 3.9565 70.4257
15099 1 62.5127 5.5391 72.0083
15100 1 60.9301 3.9565 73.5909
15101 1 62.5127 5.5391 75.1735
15102 1 60.9301 3.9565 76.7561
15103 1 62.5127 5.5391 78.3387
15104 1 60.9301 7.1217 0.7913
15105 1 62.5127 8.7043 2.3739
15106 1 60.9301 7.1217 3.9565
15107 1 62.5127 8.7043 5.5391
15108 1 60.9301 7.1217 7.1217
15109 1 62.5127 8.7043 8.7043
15110 1 60.9301 7.1217 10.2869
15111 1 62.5127 8.7043 11.8695
15112 1 60.9301 7.1217 13.4521
15113 1 62.5127 8.7043 15.0347
15114 1 60.9301 7.1217 16.6173
15115 1 62.5127 8.7043 18.1999
15116 1 60.9301 7.1217 19.7825
15117 1 62.5127 8.7043 21.3651
15118 1 60.9301 7.1217 22.9477
15119 1 62.5127 8.7043 24.5303
15120 1 60.9301 7.1217 26.1129
15121 1 62.5127 8.7043 27.6955
15122 1 60.9301 7.1217 29.2781
15123 1 62.5127 8.7043 30.8607
15124 1 60.9301 7.1217 32.4433
15125 1 62.5127 8.7043 34.0259
15126 1 60.9301 7.1217 35.6085
15127 1 62.5127 8.7043 37.1911
15128 1 60.9301 7.1217 38.7737
15129 1 62.5127 8.7043 40.3563
15130 1 60.9301 7.1217 41.9389
15131 1 62.5127 8.7043 43.5215
15132 1 60.9301 7.1217 45.1041
15133 1 62.5127 8.7043 46.6867
15134 1 60.9301 7.1217 48.2693
15135 1 62.5127 8.7043 49.8519
15136 1 60.9301 7.1217 51.4345
15137 1 62.5127 8.7043 53.0171
15138 1 60.9301 7.1217 54.5997
15139 1 62.5127 8.7043 56.1823
15140 1 60.9301 7.1217 57.7649
15141 1 62.5127 8.7043 59.3475
15142 1 60.9301 7.1217 60.9301
15143 1 62.5127 8.7043 62.5127
15144 1 60.9301 7.1217 64.0953
15145 1 62.5127 8.7043 65.6779
15146 1 60.9301 7.1217 67.2605
15147 1 62.5127 8.7043 68.8431
15148 1 60.9301 7.1217 70.4257
15149 1 62.5127 8.7043 72.0083
15150 1 60.9301 7.1217 73.5909
15151 1 62.5127 8.7043 75.1735
15152 1 60.9301 7.1217 76.7561
15153 1 62.5127 8.7043 78.3387
15154 1 60.9301 10.2869 0.7913
15155 1 62.5127 11.8695 2.3739
15156 1 60.9301 10.2869 3.9565
15157 1 62.5127 11.8695 5.5391
15158 1 60.9301 10.2869 7.1217
15159 1 62.5127 11.8695 8.7043
15160 1 60.9301 10.2869 10.2869
15161 1 62.5127 11.8695 11.8695
15162 1 60.9301 10.2869 13.4521
15163 1 62.5127 11.8695 15.0347
15164 1 60.9301 10.2869 16.6173
15165 1 62.5127 11.8695 18.1999
15166 1 60.9301 10.2869 19.7825
15167 1 62.5127 11.8695 21.3651
15168 1 60.9301 10.2869 22.9477
15169 1 62.5127 11.8695 24.5303
15170 1 60.9301 10.2869 26.1129
15171 1 62.5127 11.8695 27.6955
15172 1 60.9301 10.2869 29.2781
15173 1 62.5127 11.8695 30.8607
15174 1 60.9301 10.2869 32.4433
15175 1 62.5127 11.8695 34.0259
15176 1 60.9301 10.2869 35.6085
15177 1 62.5127 11.8695 37.1911
15178 1 60.9301 10.2869 38.7737
15179 1 62.5127 11.8695 40.3563
15180 1 60.9301 10.2869 41.9389
15181 1 62.5127 11.8695 43.5215
15182 1 60.9301 10.2869 45.1041
15183 1 62.5127 11.8695 46.6867
15184 1 60.9301 10.2869 48.2693
15185 1 62.5127 11.8695 49.8519
15186 1 60.9301 10.2869 51.4345
15187 1 62.5127 11.8695 53.0171
15188 1 60.9301 10.2869 54.5997
15189 1 62.5127 11.8695 56.1823
15190 1 60.9301 10.2869 57.7649
15191 1 62.5127 11.8695 59.3475
15192 1 60.9301 10.2869 60.9301
15193 1 62.5127 11.8695 62.5127
15194 1 60.9301 10.2869 64.0953
15195 1 62.5127 11.8695 65.6779
15196 1 60.9301 10.2869 67.2605
15197 1 62.5127 11.8695 68.8431
15198 1 60.9301 10.2869 70.4257
15199 1 62.5127 11.8695 72.0083
15200 1 60.9301 10.2869 73.5909
15201 1 62.5127 11.8695 75.1735
15202 1 60.9301 10.2869 76.7561
15203 1 62.5127 11.8695 78.3387
15204 1 60.9301 13.4521 0.7913
15205 1 62.5127 15.0347 2.3739
15206 1 60.9301 13.4521 3.9565
15207 1 62.5127 15.0347 5.5391
15208 1 60.9301 13.4521 7.1217
15209 1 62.5127 15.0347 8.7043
15210 1 60.9301 13.4521 10.2869
15211 1 62.5127 15.0347 11.8695
15212 1 60.9301 13.4521 13.4521
15213 1 62.5127 15.0347 15.0347
15214 1 60.9301 13.4521 16.6173
15215 1 62.5127 15.0347 18.1999
15216 1 60.9301 13.4521 19.7825
15217 1 62.5127 15.0347 21.3651
15218 1 60.9301 13.4521 22.9477
15219 1 62.5127 15.0347 24.5303
15220 1 60.9301 13.4521 26.1129
15221 1 62.5127 15.0347 27.6955
15222 1 60.9301 13.4521 29.2781
15223 1 62.5127 15.0347 30.8607
15224 1 60.9301 13.4521 32.4433
15225 1 62.5127 15.0347 34.0259
15226 1 60.9301 13.4521 35.6085
15227 1 62.5127 15.0347 37.1911
15228 1 60.9301 13.4521 38.7737
15229 1 62.5127 15.0347 40.3563
15230 1 60.9301 13.4521 41.9389
15231 1 62.5127 15.0347 43.5215
15232 1 60.9301 13.4521 45.1041
15233 1 62.5127 15.0347 46.6867
15234 1 60.9301 13.4521 48.2693
15235 1 62.5127 15.0347 49.8519
15236 1 60.9301 13.4521 51.4345
15237 1 62.5127 15.0347 53.0171
15238 1 60.9301 13.4521 54.5997
15239 1 62.5127 15.0347 56.1823
15240 1 60.9301 13.4521 57.7649
15241 1 62.5127 15.0347 59.3475
15242 1 60.9301 13.4521 60.9301
15243 1 62.5127 15.0347 62.5127
15244 1 60.9301 13.4521 64.0953
15245 1 62.5127 15.0347 65.6779
15246 1 60.9301 13.4521 67.2605
15247 1 62.5127 15.0347 68.8431
15248 1 60.9301 13.4521 70.4257
15249 1 62.5127 15.0347 72.0083
15250 1 60.9301 13.4521 73.5909
15251 1 62.5127 15.0347 75.1735
15252 1 60.9301 13.4521 76.7561
15253 1 62.5127 15.0347 78.3387
15254 1 60.9301 16.6173 0.7913
15255 1 62.5127 18.1999 2.3739
15256 1 60.9301 16.6173 3.9565
15257 1 62.5127 18.1999 5.5391
15258 1 60.9301 16.6173 7.1217
15259 1 62.5127 18.1999 8.7043
15260 1 60.9301 16.6173 10.2869
15261 1 62.5127 18.1999 11.8695
15262 1 60.9301 16.6173 13.4521
15263 1 62.5127 18.1999 15.0347
15264 1 60.9301 16.6173 16.6173
15265 1 62.5127 18.1999 18.1999
15266 1 60.9301 16.6173 19.7825
15267 1 62.5127 18.1999 21.3651
15268 1 60.9301 16.6173 22.9477
15269 1 62.5127 18.1999 24.5303
15270 1 60.9301 16.6173 26.1129
15271 1 62.5127 18.1999 27.6955
15272 1 60.9301 16.6173 29.2781
15273 1 62.5127 18.1999 30.8607
15274 1 60.9301 16.6173 32.4433
15275 1 62.5127 18.1999 34.0259
15276 1 60.9301 16.6173 35.6085
15277 1 62.5127 18.1999 37.1911
15278 1 60.9301 16.6173 38.7737
15279 1 62.5127 18.1999 40.3563
15280 1 60.9301 16.6173 41.9389
15281 1 62.5127 18.1999 43.5215
15282 1 60.9301 16.6173 45.1041
15283 1 62.5127 18.1999 46.6867
15284 1 60.9301 16.6173 48.2693
15285 1 62.5127 18.1999 49.8519
15286 1 60.9301 16.6173 51.4345
15287 1 62.5127 18.1999 53.0171
15288 1 60.9301 16.6173 54.5997
15289 1 62.5127 18.1999 56.1823
15290 1 60.9301 16.6173 57.7649
15291 1 62.5127 18.1999 59.3475
15292 1 60.9301 16.6173 60.9301
15293 1 62.5127 18.1999 62.5127
15294 1 60.9301 16.6173 64.0953
15295 1 62.5127 18.1999 65.6779
15296 1 60.9301 16.6173 67.2605
15297 1 62.5127 18.1999 68.8431
15298 1 60.9301 16.6173 70.4257
15299 1 62.5127 18.1999 72.0083
15300 1 60.9301 16.6173 73.5909
15301 1 62.5127 18.1999 75.1735
15302 1 60.9301 16.6173 76.7561
15303 1 62.5127 18.1999 78.3387
15304 1 60.9301 19.7825 0.7913
15305 1 62.5127 21.3651 2.3739
15306 1 60.9301 19.7825 3.9565
15307 1 62.5127 21.3651 5.5391
15308 1 60.9301 19.7825 7.1217
15309 1 62.5127 21.3651 8.7043
15310 1 60.9301 19.7825 10.2869
15311 1 62.5127 21.3651 11.8695
15312 1 60.9301 19.7825 13.4521
15313 1 62.5127 21.3651 15.0347
15314 1 60.9301 19.7825 16.6173
15315 1 62.5127 21.3651 18.1999
15316 1 60.9301 19.7825 19.7825
15317 1 62.5127 21.3651 21.3651
15318 1 60.9301 19.7825 22.9477
15319 1 62.5127 21.3651 24.5303
15320 1 60.9301 19.7825 26.1129
15321 1 62.5127 21.3651 27.6955
15322 1 60.9301 19.7825 29.2781
15323 1 62.5127 21.3651 30.8607
15324 1 60.9301 19.7825 32.4433
15325 1 62.5127 21.3651 34.0259
15326 1 60.9301 19.7825 35.6085
15327 1 62.5127 21.3651 37.1911
15328 1 60.9301 19.7825 38.7737
15329 1 62.5127 21.3651 40.3563
15330 1 60.9301 19.7825 41.9389
15331 1 62.5127 21.3651 43.5215
15332 1 60.9301 19.7825 45.1041
15333 1 62.5127 21.3651 46.6867
15334 1 60.9301 19.7825 48.2693
15335 1 62.5127 21.3651 49.8519
15336 1 60.9301 19.7825 51.4345
15337 1 62.5127 21.3651 53.0171
15338 1 60.9301 19.7825 54.5997
15339 1 62.5127 21.3651 56.1823
15340 1 60.9301 19.7825 57.7649
15341 1 62.5127 21.3651 59.3475
15342 1 60.9301 19.7825 60.9301
15343 1 62.5127 21.3651 62.5127
15344 1 60.9301 19.7825 64.0953
15345 1 62.5127 21.3651 65.6779
15346 1 60.9301 19.7825 67.2605
15347 1 62.5127 21.3651 68.8431
15348 1 60.9301 19.7825 70.4257
15349 1 62.5127 21.3651 72.0083
15350 1 60.9301 19.7825 73.5909
15351 1 62.5127 21.3651 75.1735
15352 1 60.9301 19.7825 76.7561
15353 1 62.5127 21.3651 78.3387
15354 1 60.9301 22.9477 0.7913
15355 1 62.5127 24.5303 2.3739
15356 1 60.9301 22.9477 3.9565
15357 1 62.5127 24.5303 5.5391
15358 1 60.9301 22.9477 7.1217
15359 1 62.5127 24.5303 8.7043
15360 1 60.9301 22.9477 10.2869
15361 1 62.5127 24.5303 11.8695
15362 1 60.9301 22.9477 13.4521
15363 1 62.5127 24.5303 15.0347
15364 1 60.9301 22.9477 16.6173
15365 1 62.5127 24.5303 18.1999
15366 1 60.9301 22.9477 19.7825
15367 1 62.5127 24.5303 21.3651
15368 1 60.9301 22.9477 22.9477
15369 1 62.5127 24.5303 24.5303
15370 1 60.9301 22.9477 26.1129
15371 1 62.5127 24.5303 27.6955
15372 1 60.9301 22.9477 29.2781
15373 1 62.5127 24.5303 30.8607
15374 1 60.9301 22.9477 32.4433
15375 1 62.5127 24.5303 34.0259
15376 1 60.9301 22.9477 35.6085
15377 1 62.5127 24.5303 37.1911
15378 1 60.9301 22.9477 38.7737
15379 1 62.5127 24.5303 40.3563
15380 1 60.9301 22.9477 41.9389
15381 1 62.5127 24.5303 43.5215
15382 1 60.9301 22.9477 45.1041
15383 1 62.5127 24.5303 46.6867
15384 1 60.9301 22.9477 48.2693
15385 1 62.5127 24.5303 49.8519
15386 1 60.9301 22.9477 51.4345
15387 1 62.5127 24.5303 53.0171
15388 1 60.9301 22.9477 54.5997
15389 1 62.5127 24.5303 56.1823
15390 1 60.9301 22.9477 57.7649
15391 1 62.5127 24.5303 59.3475
15392 1 60.9301 22.9477 60.9301
15393 1 62.5127 24.5303 62.5127
15394 1 60.9301 22.9477 64.0953
15395 1 62.5127 24.5303 65.6779
15396 1 60.9301 22.9477 67.2605
15397 1 62.5127 24.5303 68.8431
15398 1 60.9301 22.9477 70.4257
15399 1 62.5127 24.5303 72.0083
15400 1 60.9301 22.9477 73.5909
15401 1 62.5127 24.5303 75.1735
15402 1 60.9301 22.9477 76.7561
15403 1 62.5127 24.5303 78.3387
15404 1 60.9301 26.1129 0.7913
15405 1 62.5127 27.6955 2.3739
15406 1 60.9301 26.1129 3.9565
15407 1 62.5127 27.6955 5.5391
15408 1 60.9301 26.1129 7.1217
15409 1 62.5127 27.6955 8.7043
15410 1 60.9301 26.1129 10.2869
15411 1 62.5127 27.6955 11.8695
15412 1 60.9301 26.1129 13.4521
15413 1 62.5127 27.6955 15.0347
15414 1 60.9301 26.1129 16.6173
15415 1 62.5127 27.6955 18.1999
15416 1 60.9301 26.1129 19.7825
15417 1 62.5127 27.6955 21.3651
15418 1 60.9301 26.1129 22.9477
15419 1 62.5127 27.6955 24.5303
15420 1 60.9301 26.1129 26.1129
15421 1 62.5127 27.6955 27.6955
15422 1 60.9301 26.1129 29.2781
15423 1 62.5127 27.6955 30.8607
15424 1 60.9301 26.1129 32.4433
15425 1 62.5127 27.6955 34.0259
15426 1 60.9301 26.1129 35.6085
15427 1 62.5127 27.6955 37.1911
15428 1 60.9301 26.1129 38.7737
15429 1 62.5127 27.6955 40.3563
15430 1 60.9301 26.1129 41.9389
15431 1 62.5127 27.6955 43.5215
15432 1 60.9301 26.1129 45.1041
15433 1 62.5127 27.6955 46.6867
15434 1 60.9301 26.1129 48.2693
15435 1 62.5127 27.6955 49.8519
15436 1 60.9301 26.1129 51.4345
15437 1 62.5127 27.6955 53.0171
15438 1 60.9301 26.1129 54.5997
15439 1 62.5127 27.6955 56.1823
15440 1 60.9301 26.1129 57.7649
15441 1 62.5127 27.6955 59.3475
15442 1 60.9301 26.1129 60.9301
15443 1 62.5127 27.6955 62.5127
15444 1 60.9301 26.1129 64.0953
15445 1 62.5127 27.6955 65.6779
15446 1 60.9301 26.1129 67.2605
15447 1 62.5127 27.6955 68.8431
15448 1 60.9301 26.1129 70.4257
15449 1 62.5127 27.6955 72.0083
15450 1 60.9301 26.1129 73.5909
15451 1 62.5127 27.6955 75.1735
15452 1 60.9301 26.1129 76.7561
15453 1 62.5127 27.6955 78.3387
15454 1 60.9301 29.2781 0.7913
15455 1 62.5127 30.8607 2.3739
15456 1 60.9301 29.2781 3.9565
15457 1 62.5127 30.8607 5.5391
15458 1 60.9301 29.2781 7.1217
15459 1 62.5127 30.8607 8.7043
15460 1 60.9301 29.2781 10.2869
15461 1 62.5127 30.8607 11.8695
15462 1 60.9301 29.2781 13.4521
15463 1 62.5127 30.8607 15.0347
15464 1 60.9301 29.2781 16.6173
15465 1 62.5127 30.8607 18.1999
15466 1 60.9301 29.2781 19.7825
15467 1 62.5127 30.8607 21.3651
15468 1 60.9301 29.2781 22.9477
15469 1 62.5127 30.8607 24.5303
15470 1 60.9301 29.2781 26.1129
15471 1 62.5127 30.8607 27.6955
15472 1 60.9301 29.2781 29.2781
15473 1 62.5127 30.8607 30.8607
15474 1 60.9301 29.2781 32.4433
15475 1 62.5127 30.8607 34.0259
15476 1 60.9301 29.2781 35.6085
15477 1 62.5127 30.8607 37.1911
15478 1 60.9301 29.2781 38.7737
15479 1 62.5127 30.8607 40.3563
15480 1 60.9301 29.2781 41.9389
15481 1 62.5127 30.8607 43.5215
15482 1 60.9301 29.2781 45.1041
15483 1 62.5127 30.8607 46.6867
15484 1 60.9301 29.2781 48.2693
15485 1 62.5127 30.8607 49.8519
15486 1 60.9301 29.2781 51.4345
15487 1 62.5127 30.8607 53.0171
15488 1 60.9301 29.2781 54.5997
15489 1 62.5127 30.8607 56.1823
15490 1 60.9301 29.2781 57.7649
15491 1 62.5127 30.8607 59.3475
15492 1 60.9301 29.2781 60.9301
15493 1 62.5127 30.8607 62.5127
15494 1 60.9301 29.2781 64.0953
15495 1 62.5127 30.8607 65.6779
15496 1 60.9301 29.2781 67.2605
15497 1 62.5127 30.8607 68.8431
15498 1 60.9301 29.2781 70.4257
15499 1 62.5127 30.8607 72.0083
15500 1 60.9301 29.2781 73.5909
15501 1 62.5127 30.8607 75.1735
15502 1 60.9301 29.2781 76.7561
15503 1 62.5127 30.8607 78.3387
15504 1 60.9301 32.4433 0.7913
15505 1 62.5127 34.0259 2.3739
15506 1 60.9301 32.4433 3.9565
15507 1 62.5127 34.0259 5.5391
15508 1 60.9301 32.4433 7.1217
15509 1 62.5127 34.0259 8.7043
15510 1 60.9301 32.4433 10.2869
15511 1 62.5127 34.0259 11.8695
15512 1 60.9301 32.4433 13.4521
15513 1 62.5127 34.0259 15.0347
15514 1 60.9301 32.4433 16.6173
15515 1 62.5127 34.0259 18.1999
15516 1 60.9301 32.4433 19.7825
15517 1 62.5127 34.0259 21.3651
15518 1 60.9301 32.4433 22.9477
15519 1 62.5127 34.0259 24.5303
15520 1 60.9301 32.4433 26.1129
15521 1 62.5127 34.0259 27.6955
15522 1 60.9301 32.4433 29.2781
15523 1 62.5127 34.0259 30.8607
15524 1 60.9301 32.4433 32.4433
15525 1 62.5127 34.0259 34.0259
15526 1 60.9301 32.4433 35.6085
15527 1 62.5127 34.0259 37.1911
15528 1 60.9301 32.4433 38.7737
15529 1 62.5127 34.0259 40.3563
15530 1 60.9301 32.4433 41.9389
15531 1 62.5127 34.0259 43.5215
15532 1 60.9301 32.4433 45.1041
15533 1 62.5127 34.0259 46.6867
15534 1 60.9301 32.4433 48.2693
15535 1 62.5127 34.0259 49.8519
15536 1 60.9301 32.4433 51.4345
15537 1 62.5127 34.0259 53.0171
15538 1 60.9301 32.4433 54.5997
15539 1 62.5127 34.0259 56.1823
15540 1 60.9301 32.4433 57.7649
15541 1 62.5127 34.0259 59.3475
15542 1 60.9301 32.4433 60.9301
15543 1 62.5127 34.0259 62.5127
15544 1 60.9301 32.4433 64.0953
15545 1 62.5127 34.0259 65.6779
15546 1 60.9301 32.4433 67.2605
15547 1 62.5127 34.0259 68.8431
15548 1 60.9301 32.4433 70.4257
15549 1 62.5127 34.0259 72.0083
15550 1 60.9301 32.4433 73.5909
15551 1 62.5127 34.0259 75.1735
15552 1 60.9301 32.4433 76.7561
15553 1 62.5127 34.0259 78.3387
15554 1 60.9301 35.6085 0.7913
15555 1 62.5127 37.1911 2.3739
15556 1 60.9301 35.6085 3.9565
15557 1 62.5127 37.1911 5.5391
15558 1 60.9301 35.6085 7.1217
15559 1 62.5127 37.1911 8.7043
15560 1 60.9301 35.6085 10.2869
15561 1 62.5127 37.1911 11.8695
15562 1 60.9301 35.6085 13.4521
15563 1 62.5127 37.1911 15.0347
15564 1 60.9301 35.6085 16.6173
15565 1 62.5127 37.1911 18.1999
15566 1 60.9301 35.6085 19.7825
15567 1 62.5127 37.1911 21.3651
15568 1 60.9301 35.6085 22.9477
15569 1 62.5127 37.1911 24.5303
15570 1 60.9301 35.6085 26.1129
15571 1 62.5127 37.1911 27.6955
15572 1 60.9301 35.6085 29.2781
15573 1 62.5127 37.1911 30.8607
15574 1 60.9301 35.6085 32.4433
15575 1 62.5127 37.1911 34.0259
15576 1 60.9301 35.6085 35.6085
15577 1 62.5127 37.1911 37.1911
15578 1 60.9301 35.6085 38.7737
15579 1 62.5127 37.1911 40.3563
15580 1 60.9301 35.6085 41.9389
15581 1 62.5127 37.1911 43.5215
15582 1 60.9301 35.6085 45.1041
15583 1 62.5127 37.1911 46.6867
15584 1 60.9301 35.6085 48.2693
15585 1 62.5127 37.1911 49.8519
15586 1 60.9301 35.6085 51.4345
15587 1 62.5127 37.1911 53.0171
15588 1 60.9301 35.6085 54.5997
15589 1 62.5127 37.1911 56.1823
15590 1 60.9301 35.6085 57.7649
15591 1 62.5127 37.1911 59.3475
15592 1 60.9301 35.6085 60.9301
15593 1 62.5127 37.1911 62.5127
15594 1 60.9301 35.6085 64.0953
15595 1 62.5127 37.1911 65.6779
15596 1 60.9301 35.6085 67.2605
15597 1 62.5127 37.1911 68.8431
15598 1 60.9301 35.6085 70.4257
15599 1 62.5127 37.1911 72.0083
15600 1 60.9301 35.6085 73.5909
15601 1 62.5127 37.1911 75.1735
15602 1 60.9301 35.6085 76.7561
15603 1 62.5127 37.1911 78.3387
15604 1 60.9301 38.7737 0.7913
15605 1 62.5127 40.3563 2.3739
15606 1 60.9301 38.7737 3.9565
15607 1 62.5127 40.3563 5.5391
15608 1 60.9301 38.7737 7.1217
15609 1 62.5127 40.3563 8.7043
15610 1 60.9301 38.7737 10.2869
15611 1 62.5127 40.3563 11.8695
15612 1 60.9301 38.7737 13.4521
15613 1 62.5127 40.3563 15.0347
15614 1 60.9301 38.7737 16.6173
15615 1 62.5127 40.3563 18.1999
15616 1 60.9301 38.7737 19.7825
15617 1 62.5127 40.3563 21.3651
15618 1 60.9301 38.7737 22.9477
15619 1 62.5127 40.3563 24.5303
15620 1 60.9301 38.7737 26.1129
15621 1 62.5127 40.3563 27.6955
15622 1 60.9301 38.7737 29.2781
15623 1 62.5127 40.3563 30.8607
15624 1 60.9301 38.7737 32.4433
15625 1 62.5127 40.3563 34.0259
15626 1 60.9301 38.7737 35.6085
15627 1 62.5127 40.3563 37.1911
15628 1 60.9301 38.7737 38.7737
15629 1 62.5127 40.3563 40.3563
15630 1 60.9301 38.7737 41.9389
15631 1 62.5127 40.3563 43.5215
15632 1 60.9301 38.7737 45.1041
15633 1 62.5127 40.3563 46.6867
15634 1 60.9301 38.7737 48.2693
15635 1 62.5127 40.3563 49.8519
15636 1 60.9301 38.7737 51.4345
15637 1 62.5127 40.3563 53.0171
15638 1 60.9301 38.7737 54.5997
15639 1 62.5127 40.3563 56.1823
15640 1 60.9301 38.7737 57.7649
15641 1 62.5127 40.3563 59.3475
15642 1 60.9301 38.7737 60.9301
15643 1 62.5127 40.3563 62.5127
15644 1 60.9301 38.7737 64.0953
15645 1 62.5127 40.3563 65.6779
15646 1 60.9301 38.7737 67.2605
15647 1 62.5127 40.3563 68.8431
15648 1 60.9301 38.7737 70.4257
15649 1 62.5127 40.3563 72.0083
15650 1 60.9301 38.7737 73.5909
15651 1 62.5127 40.3563 75.1735
15652 1 60.9301 38.7737 76.7561
15653 1 62.5127 40.3563 78.3387
15654 1 60.9301 41.9389 0.7913
15655 1 62.5127 43.5215 2.3739
15656 1 60.9301 41.9389 3.9565
15657 1 62.5127 43.5215 5.5391
15658 1 60.9301 41.9389 7.1217
15659 1 62.5127 43.5215 8.7043
15660 1 60.9301 41.9389 10.2869
15661 1 62.5127 43.5215 11.8695
15662 1 60.9301 41.9389 13.4521
15663 1 62.5127 43.5215 15.0347
15664 1 60.9301 41.9389 16.6173
15665 1 62.5127 43.5215 18.1999
15666 1 60.9301 41.9389 19.7825
15667 1 62.5127 43.5215 21.3651
15668 1 60.9301 41.9389 22.9477
15669 1 62.5127 43.5215 24.5303
15670 1 60.9301 41.9389 26.1129
15671 1 62.5127 43.5215 27.6955
15672 1 60.9301 41.9389 29.2781
15673 1 62.5127 43.5215 30.8607
15674 1 60.9301 41.9389 32.4433
15675 1 62.5127 43.5215 34.0259
15676 1 60.9301 41.9389 35.6085
15677 1 62.5127 43.5215 37.1911
15678 1 60.9301 41.9389 38.7737
15679 1 62.5127 43.5215 40.3563
15680 1 60.9301 41.9389 41.9389
15681 1 62.5127 43.5215 43.5215
15682 1 60.9301 41.9389 45.1041
15683 1 62.5127 43.5215 46.6867
15684 1 60.9301 41.9389 48.2693
15685 1 62.5127 43.5215 49.8519
15686 1 60.9301 41.9389 51.4345
15687 1 62.5127 43.5215 53.0171
15688 1 60.9301 41.9389 54.5997
15689 1 62.5127 43.5215 56.1823
15690 1 60.9301 41.9389 57.7649
15691 1 62.5127 43.5215 59.3475
15692 1 60.9301 41.9389 60.9301
15693 1 62.5127 43.5215 62.5127
15694 1 60.9301 41.9389 64.0953
15695 1 62.5127 43.5215 65.6779
15696 1 60.9301 41.9389 67.2605
15697 1 62.5127 43.5215 68.8431
15698 1 60.9301 41.9389 70.4257
15699 1 62.5127 43.5215 72.0083
15700 1 60.9301 41.9389 73.5909
15701 1 62.5127 43.5215 75.1735
15702 1 60.9301 41.9389 76.7561
15703 1 62.5127 43.5215 78.3387
15704 1 60.9301 45.1041 0.7913
15705 1 62.5127 46.6867 2.3739
15706 1 60.9301 45.1041 3.9565
15707 1 62.5127 46.6867 5.5391
15708 1 60.9301 45.1041 7.1217
15709 1 62.5127 46.6867 8.7043
15710 1 60.9301 45.1041 10.2869
15711 1 62.5127 46.6867 11.8695
15712 1 60.9301 45.1041 13.4521
15713 1 62.5127 46.6867 15.0347
15714 1 60.9301 45.1041 16.6173
15715 1 62.5127 46.6867 18.1999
15716 1 60.9301 45.1041 19.7825
15717 1 62.5127 46.6867 21.3651
15718 1 60.9301 45.1041 22.9477
15719 1 62.5127 46.6867 24.5303
15720 1 60.9301 45.1041 26.1129
15721 1 62.5127 46.6867 27.6955
15722 1 60.9301 45.1041 29.2781
15723 1 62.5127 46.6867 30.8607
15724 1 60.9301 45.1041 32.4433
15725 1 62.5127 46.6867 34.0259
15726 1 60.9301 45.1041 35.6085
15727 1 62.5127 46.6867 37.1911
15728 1 60.9301 45.1041 38.7737
15729 1 62.5127 46.6867 40.3563
15730 1 60.9301 45.1041 41.9389
15731 1 62.5127 46.6867 43.5215
15732 1 60.9301 45.1041 45.1041
15733 1 62.5127 46.6867 46.6867
15734 1 60.9301 45.1041 48.2693
15735 1 62.5127 46.6867 49.8519
15736 1 60.9301 45.1041 51.4345
15737 1 62.5127 46.6867 53.0171
15738 1 60.9301 45.1041 54.5997
15739 1 62.5127 46.6867 56.1823
15740 1 60.9301 45.1041 57.7649
15741 1 62.5127 46.6867 59.3475
15742 1 60.9301 45.1041 60.9301
15743 1 62.5127 46.6867 62.5127
15744 1 60.9301 45.1041 64.0953
15745 1 62.5127 46.6867 65.6779
15746 1 60.9301 45.1041 67.2605
15747 1 62.5127 46.6867 68.8431
15748 1 60.9301 45.1041 70.4257
15749 1 62.5127 46.6867 72.0083
15750 1 60.9301 45.1041 73.5909
15751 1 62.5127 46.6867 75.1735
15752 1 60.9301 45.1041 76.7561
15753 1 62.5127 46.6867 78.3387
15754 1 60.9301 48.2693 0.7913
15755 1 62.5127 49.8519 2.3739
15756 1 60.9301 48.2693 3.9565
15757 1 62.5127 49.8519 5.5391
15758 1 60.9301 48.2693 7.1217
15759 1 62.5127 49.8519 8.7043
15760 1 60.9301 48.2693 10.2869
15761 1 62.5127 49.8519 11.8695
15762 1 60.9301 48.2693 13.4521
15763 1 62.5127 49.8519 15.0347
15764 1 60.9301 48.2693 16.6173
15765 1 62.5127 49.8519 18.1999
15766 1 60.9301 48.2693 19.7825
15767 1 62.5127 49.8519 21.3651
15768 1 60.9301 48.2693 22.9477
15769 1 62.5127 49.8519 24.5303
15770 1 60.9301 48.2693 26.1129
15771 1 62.5127 49.8519 27.6955
15772 1 60.9301 48.2693 29.2781
15773 1 62.5127 49.8519 30.8607
15774 1 60.9301 48.2693 32.4433
15775 1 62.5127 49.8519 34.0259
15776 1 60.9301 48.2693 35.6085
15777 1 62.5127 49.8519 37.1911
15778 1 60.9301 48.2693 38.7737
15779 1 62.5127 49.8519 40.3563
15780 1 60.9301 48.2693 41.9389
15781 1 62.5127 49.8519 43.5215
15782 1 60.9301 48.2693 45.1041
15783 1 62.5127 49.8519 46.6867
15784 1 60.9301 48.2693 48.2693
15785 1 62.5127 49.8519 49.8519
15786 1 60.9301 48.2693 51.4345
15787 1 62.5127 49.8519 53.0171
15788 1 60.9301 48.2693 54.5997
15789 1 62.5127 49.8519 56.1823
15790 1 60.9301 48.2693 57.7649
15791 1 62.5127 49.8519 59.3475
15792 1 60.9301 48.2693 60.9301
15793 1 62.5127 49.8519 62.5127
15794 1 60.9301 48.2693 64.0953
15795 1 62.5127 49.8519 65.6779
15796 1 60.9301 48.2693 67.2605
15797 1 62.5127 49.8519 68.8431
15798 1 60.9301 48.2693 70.4257
15799 1 62.5127 49.8519 72.0083
15800 1 60.9301 48.2693 73.5909
15801 1 62.5127 49.8519 75.1735
15802 1 60.9301 48.2693 76.7561
15803 1 62.5127 49.8519 78.3387
15804 1 60.9301 51.4345 0.7913
15805 1 62.5127 53.0171 2.3739
15806 1 60.9301 51.4345 3.9565
15807 1 62.5127 53.0171 5.5391
15808 1 60.9301 51.4345 7.1217
15809 1 62.5127 53.0171 8.7043
15810 1 60.9301 51.4345 10.2869
15811 1 62.5127 53.0171 11.8695
15812 1 60.9301 51.4345 13.4521
15813 1 62.5127 53.0171 15.0347
15814 1 60.9301 51.4345 16.6173
15815 1 62.5127 53.0171 18.1999
15816 1 60.9301 51.4345 19.7825
15817 1 62.5127 53.0171 21.3651
15818 1 60.9301 51.4345 22.9477
15819 1 62.5127 53.0171 24.5303
15820 1 60.9301 51.4345 26.1129
15821 1 62.5127 53.0171 27.6955
15822 1 60.9301 51.4345 29.2781
15823 1 62.5127 53.0171 30.8607
15824 1 60.9301 51.4345 32.4433
15825 1 62.5127 53.0171 34.0259
15826 1 60.9301 51.4345 35.6085
15827 1 62.5127 53.0171 37.1911
15828 1 60.9301 51.4345 38.7737
15829 1 62.5127 53.0171 40.3563
15830 1 60.9301 51.4345 41.9389
15831 1 62.5127 53.0171 43.5215
15832 1 60.9301 51.4345 45.1041
15833 1 62.5127 53.0171 46.6867
15834 1 60.9301 51.4345 48.2693
15835 1 62.5127 53.0171 49.8519
15836 1 60.9301 51.4345 51.4345
15837 1 62.5127 53.0171 53.0171
15838 1 60.9301 51.4345 54.5997
15839 1 62.5127 53.0171 56.1823
15840 1 60.9301 51.4345 57.7649
15841 1 62.5127 53.0171 59.3475
15842 1 60.9301 51.4345 60.9301
15843 1 62.5127 53.0171 62.5127
15844 1 60.9301 51.4345 64.0953
15845 1 62.5127 53.0171 65.6779
15846 1 60.9301 51.4345 67.2605
15847 1 62.5127 53.0171 68.8431
15848 1 60.9301 51.4345 70.4257
15849 1 62.5127 53.0171 72.0083
15850 1 60.9301 51.4345 73.5909
15851 1 62.5127 53.0171 75.1735
15852 1 60.9301 51.4345 76.7561
15853 1 62.5127 53.0171 78.3387
15854 1 60.9301 54.5997 0.7913
15855 1 62.5127 56.1823 2.3739
15856 1 60.9301 54.5997 3.9565
15857 1 62.5127 56.1823 5.5391
15858 1 60.9301 54.5997 7.1217
15859 1 62.5127 56.1823 8.7043
15860 1 60.9301 54.5997 10.2869
15861 1 62.5127 56.1823 11.8695
15862 1 60.9301 54.5997 13.4521
15863 1 62.5127 56.1823 15.0347
15864 1 60.9301 54.5997 16.6173
15865 1 62.5127 56.1823 18.1999
15866 1 60.9301 54.5997 19.7825
15867 1 62.5127 56.1823 21.3651
15868 1 60.9301 54.5997 22.9477
15869 1 62.5127 56.1823 24.5303
15870 1 60.9301 54.5997 26.1129
15871 1 62.5127 56.1823 27.6955
15872 1 60.9301 54.5997 29.2781
15873 1 62.5127 56.1823 30.8607
15874 1 60.9301 54.5997 32.4433
15875 1 62.5127 56.1823 34.0259
15876 1 60.9301 54.5997 35.6085
15877 1 62.5127 56.1823 37.1911
15878 1 60.9301 54.5997 38.7737
15879 1 62.5127 56.1823 40.3563
15880 1 60.9301 54.5997 41.9389
15881 1 62.5127 56.1823 43.5215
15882 1 60.9301 54.5997 45.1041
15883 1 62.5127 56.1823 46.6867
15884 1 60.9301 54.5997 48.2693
15885 1 62.5127 56.1823 49.8519
15886 1 60.9301 54.5997 51.4345
15887 1 62.5127 56.1823 53.0171
15888 1 60.9301 54.5997 54.5997
15889 1 62.5127 56.1823 56.1823
15890 1 60.9301 54.5997 57.7649
15891 1 62.5127 56.1823 59.3475
15892 1 60.9301 54.5997 60.9301
15893 1 62.5127 56.1823 62.5127
15894 1 60.9301 54.5997 64.0953
15895 1 62.5127 56.1823 65.6779
15896 1 60.9301 54.5997 67.2605
15897 1 62.5127 56.1823 68.8431
15898 1 60.9301 54.5997 70.4257
15899 1 62.5127 56.1823 72.0083
15900 1 60.9301 54.5997 73.5909
15901 1 62.5127 56.1823 75.1735
15902 1 60.9301 54.5997 76.7561
15903 1 62.5127 56.1823 78.3387
15904 1 60.9301 57.7649 0.7913
15905 1 62.5127 59.3475 2.3739
15906 1 60.9301 57.7649 3.9565
15907 1 62.5127 59.3475 5.5391
15908 1 60.9301 57.7649 7.1217
15909 1 62.5127 59.3475 8.7043
15910 1 60.9301 57.7649 10.2869
15911 1 62.5127 59.3475 11.8695
15912 1 60.9301 57.7649 13.4521
15913 1 62.5127 59.3475 15.0347
15914 1 60.9301 57.7649 16.6173
15915 1 62.5127 59.3475 18.1999
15916 1 60.9301 57.7649 19.7825
15917 1 62.5127 59.3475 21.3651
15918 1 60.9301 57.7649 22.9477
15919 1 62.5127 59.3475 24.5303
15920 1 60.9301 57.7649 26.1129
15921 1 62.5127 59.3475 27.6955
15922 1 60.9301 57.7649 29.2781
15923 1 62.5127 59.3475 30.8607
15924 1 60.9301 57.7649 32.4433
15925 1 62.5127 59.3475 34.0259
15926 1 60.9301 57.7649 35.6085
15927 1 62.5127 59.3475 37.1911
15928 1 60.9301 57.7649 38.7737
15929 1 62.5127 59.3475 40.3563
15930 1 60.9301 57.7649 41.9389
15931 1 62.5127 59.3475 43.5215
15932 1 60.9301 57.7649 45.1041
15933 1 62.5127 59.3475 46.6867
15934 1 60.9301 57.7649 48.2693
15935 1 62.5127 59.3475 49.8519
15936 1 60.9301 57.7649 51.4345
15937 1 62.5127 59.3475 53.0171
15938 1 60.9301 57.7649 54.5997
15939 1 62.5127 59.3475 56.1823
15940 1 60.9301 57.7649 57.7649
15941 1 62.5127 59.3475 59.3475
15942 1 60.9301 57.7649 60.9301
15943 1 62.5127 59.3475 62.5127
15944 1 60.9301 57.7649 64.0953
15945 1 62.5127 59.3475 65.6779
15946 1 60.9301 57.7649 67.2605
15947 1 62.5127 59.3475 68.8431
15948 1 60.9301 57.7649 70.4257
15949 1 62.5127 59.3475 72.0083
15950 1 60.9301 57.7649 73.5909
15951 1 62.5127 59.3475 75.1735
15952 1 60.9301 57.7649 76.7561
15953 1 62.5127 59.3475 78.3387
15954 1 60.9301 60.9301 0.7913
15955 1 62.5127 62.5127 2.3739
15956 1 60.9301 60.9301 3.9565
15957 1 62.5127 62.5127 5.5391
15958 1 60.9301 60.9301 7.1217
15959 1 62.5127 62.5127 8.7043
15960 1 60.9301 60.9301 10.2869
15961 1 62.5127 62.5127 11.8695
15962 1 60.9301 60.9301 13.4521
15963 1 62.5127 62.5127 15.0347
15964 1 60.9301 60.9301 16.6173
15965 1 62.5127 62.5127 18.1999
15966 1 60.9301 60.9301 19.7825
15967 1 62.5127 62.5127 21.3651
15968 1 60.9301 60.9301 22.9477
15969 1 62.5127 62.5127 24.5303
15970 1 60.9301 60.9301 26.1129
15971 1 62.5127 62.5127 27.6955
15972 1 60.9301 60.9301 29.2781
15973 1 62.5127 62.5127 30.8607
15974 1 60.9301 60.9301 32.4433
15975 1 62.5127 62.5127 34.0259
15976 1 60.9301 60.9301 35.6085
15977 1 62.5127 62.5127 37.1911
15978 1 60.9301 60.9301 38.7737
15979 1 62.5127 62.5127 40.3563
15980 1 60.9301 60.9301 41.9389
15981 1 62.5127 62.5127 43.5215
15982 1 60.9301 60.9301 45.1041
15983 1 62.5127 62.5127 46.6867
15984 1 60.9301 60.9301 48.2693
15985 1 62.5127 62.5127 49.8519
15986 1 60.9301 60.9301 51.4345
15987 1 62.5127 62.5127 53.0171
15988 1 60.9301 60.9301 54.5997
15989 1 62.5127 62.5127 56.1823
15990 1 60.9301 60.9301 57.7649
15991 1 62.5127 62.5127 59.3475
15992 1 60.9301 60.9301 60.9301
15993 1 62.5127 62.5127 62.5127
15994 1 60.9301 60.9301 64.0953
15995 1 62.5127 62.5127 65.6779
15996 1 60.9301 60.9301 67.2605
15997 1 62.5127 62.5127 68.8431
15998 1 60.9301 60.9301 70.4257
15999 1 62.5127 62.5127 72.0083
16000 1 60.9301 60.9301 73.5909
16001 1 62.5127 62.5127 75.1735
16002 1 60.9301 60.9301 76.7561
16003 1 62.5127 62.5127 78.3387
16004 1 60.9301 64.0953 0.7913
16005 1 62.5127 65.6779 2.3739
16006 1 60.9301 64.0953 3.9565
16007 1 62.5127 65.6779 5.5391
16008 1 60.9301 64.0953 7.1217
16009 1 62.5127 65.6779 8.7043
16010 1 60.9301 64.0953 10.2869
16011 1 62.5127 65.6779 11.8695
16012 1 60.9301 64.0953 13.4521
16013 1 62.5127 65.6779 15.0347
16014 1 60.9301 64.0953 16.6173
16015 1 62.5127 65.6779 18.1999
16016 1 60.9301 64.0953 19.7825
16017 1 62.5127 65.6779 21.3651
16018 1 60.9301 64.0953 22.9477
16019 1 62.5127 65.6779 24.5303
16020 1 60.9301 64.0953 26.1129
16021 1 62.5127 65.6779 27.6955
16022 1 60.9301 64.0953 29.2781
16023 1 62.5127 65.6779 30.8607
16024 1 60.9301 64.0953 32.4433
16025 1 62.5127 65.6779 34.0259
16026 1 60.9301 64.0953 35.6085
16027 1 62.5127 65.6779 37.1911
16028 1 60.9301 64.0953 38.7737
16029 1 62.5127 65.6779 40.3563
16030 1 60.9301 64.0953 41.9389
16031 1 62.5127 65.6779 43.5215
16032 1 60.9301 64.0953 45.1041
16033 1 62.5127 65.6779 46.6867
16034 1 60.9301 64.0953 48.2693
16035 1 62.5127 65.6779 49.8519
16036 1 60.9301 64.0953 51.4345
16037 1 62.5127 65.6779 53.0171
16038 1 60.9301 64.0953 54.5997
16039 1 62.5127 65.6779 56.1823
16040 1 60.9301 64.0953 57.7649
16041 1 62.5127 65.6779 59.3475
16042 1 60.9301 64.0953 60.9301
16043 1 62.5127 65.6779 62.5127
16044 1 60.9301 64.0953 64.0953
16045 1 62.5127 65.6779 65.6779
16046 1 60.9301 64.0953 67.2605
16047 1 62.5127 65.6779 68.8431
16048 1 60.9301 64.0953 70.4257
16049 1 62.5127 65.6779 72.0083
16050 1 60.9301 64.0953 73.5909
16051 1 62.5127 65.6779 75.1735
16052 1 60.9301 64.0953 76.7561
16053 1 62.5127 65.6779 78.3387
16054 1 60.9301 67.2605 0.7913
16055 1 62.5127 68.8431 2.3739
16056 1 60.9301 67.2605 3.9565
16057 1 62.5127 68.8431 5.5391
16058 1 60.9301 67.2605 7.1217
16059 1 62.5127 68.8431 8.7043
16060 1 60.9301 67.2605 10.2869
16061 1 62.5127 68.8431 11.8695
16062 1 60.9301 67.2605 13.4521
16063 1 62.5127 68.8431 15.0347
16064 1 60.9301 67.2605 16.6173
16065 1 62.5127 68.8431 18.1999
16066 1 60.9301 67.2605 19.7825
16067 1 62.5127 68.8431 21.3651
16068 1 60.9301 67.2605 22.9477
16069 1 62.5127 68.8431 24.5303
16070 1 60.9301 67.2605 26.1129
16071 1 62.5127 68.8431 27.6955
16072 1 60.9301 67.2605 29.2781
16073 1 62.5127 68.8431 30.8607
16074 1 60.9301 67.2605 32.4433
16075 1 62.5127 68.8431 34.0259
16076 1 60.9301 67.2605 35.6085
16077 1 62.5127 68.8431 37.1911
16078 1 60.9301 67.2605 38.7737
16079 1 62.5127 68.8431 40.3563
16080 1 60.9301 67.2605 41.9389
16081 1 62.5127 68.8431 43.5215
16082 1 60.9301 67.2605 45.1041
16083 1 62.5127 68.8431 46.6867
16084 1 60.9301 67.2605 48.2693
16085 1 62.5127 68.8431 49.8519
16086 1 60.9301 67.2605 51.4345
16087 1 62.5127 68.8431 53.0171
16088 1 60.9301 67.2605 54.5997
16089 1 62.5127 68.8431 56.1823
16090 1 60.9301 67.2605 57.7649
16091 1 62.5127 68.8431 59.3475
16092 1 60.9301 67.2605 60.9301
16093 1 62.5127 68.8431 62.5127
16094 1 60.9301 67.2605 64.0953
16095 1 62.5127 68.8431 65.6779
16096 1 60.9301 67.2605 67.2605
16097 1 62.5127 68.8431 68.8431
16098 1 60.9301 67.2605 70.4257
16099 1 62.5127 68.8431 72.0083
16100 1 60.9301 67.2605 73.5909
16101 1 62.5127 68.8431 75.1735
16102 1 60.9301 67.2605 76.7561
16103 1 62.5127 68.8431 78.3387
16104 1 60.9301 70.4257 0.7913
16105 1 62.5127 72.0083 2.3739
16106 1 60.9301 70.4257 3.9565
16107 1 62.5127 72.0083 5.5391
16108 1 60.9301 70.4257 7.1217
16109 1 62.5127 72.0083 8.7043
16110 1 60.9301 70.4257 10.2869
16111 1 62.5127 72.0083 11.8695
16112 1 60.9301 70.4257 13.4521
16113 1 62.5127 72.0083 15.0347
16114 1 60.9301 70.4257 16.6173
16115 1 62.5127 72.0083 18.1999
16116 1 60.9301 70.4257 19.7825
16117 1 62.5127 72.0083 21.3651
16118 1 60.9301 70.4257 22.9477
16119 1 62.5127 72.0083 24.5303
16120 1 60.9301 70.4257 26.1129
16121 1 62.5127 72.0083 27.6955
16122 1 60.9301 70.4257 29.2781
16123 1 62.5127 72.0083 30.8607
16124 1 60.9301 70.4257 32.4433
16125 1 62.5127 72.0083 34.0259
16126 1 60.9301 70.4257 35.6085
16127 1 62.5127 72.0083 37.1911
16128 1 60.9301 70.4257 38.7737
16129 1 62.5127 72.0083 40.3563
16130 1 60.9301 70.4257 41.9389
16131 1 62.5127 72.0083 43.5215
16132 1 60.9301 70.4257 45.1041
16133 1 62.5127 72.0083 46.6867
16134 1 60.9301 70.4257 48.2693
16135 1 62.5127 72.0083 49.8519
16136 1 60.9301 70.4257 51.4345
16137 1 62.5127 72.0083 53.0171
16138 1 60.9301 70.4257 54.5997
16139 1 62.5127 72.0083 56.1823
16140 1 60.9301 70.4257 57.7649
16141 1 62.5127 72.0083 59.3475
16142 1 60.9301 70.4257 60.9301
16143 1 62.5127 72.0083 62.5127
16144 1 60.9301 70.4257 64.0953
16145 1 62.5127 72.0083 65.6779
16146 1 60.9301 70.4257 67.2605
16147 1 62.5127 72.0083 68.8431
16148 1 60.9301 70.4257 70.4257
16149 1 62.5127 72.0083 72.0083
16150 1 60.9301 70.4257 73.5909
16151 1 62.5127 72.0083 75.1735
16152 1 60.9301 70.4257 76.7561
16153 1 62.5127 72.0083 78.3387
16154 1 60.9301 73.5909 0.7913
16155 1 62.5127 75.1735 2.3739
16156 1 60.9301 73.5909 3.9565
16157 1 62.5127 75.1735 5.5391
16158 1 60.9301 73.5909 7.1217
16159 1 62.5127 75.1735 8.7043
16160 1 60.9301 73.5909 10.2869
16161 1 62.5127 75.1735 11.8695
16162 1 60.9301 73.5909 13.4521
16163 1 62.5127 75.1735 15.0347
16164 1 60.9301 73.5909 16.6173
16165 1 62.5127 75.1735 18.1999
16166 1 60.9301 73.5909 19.7825
16167 1 62.5127 75.1735 21.3651
16168 1 60.9301 73.5909 22.9477
16169 1 62.5127 75.1735 24.5303
16170 1 60.9301 73.5909 26.1129
16171 1 62.5127 75.1735 27.6955
16172 1 60.9301 73.5909 29.2781
16173 1 62.5127 75.1735 30.8607
16174 1 60.9301 73.5909 32.4433
16175 1 62.5127 75.1735 34.0259
16176 1 60.9301 73.5909 35.6085
16177 1 62.5127 75.1735 37.1911
16178 1 60.9301 73.5909 38.7737
16179 1 62.5127 75.1735 40.3563
16180 1 60.9301 73.5909 41.9389
16181 1 62.5127 75.1735 43.5215
16182 1 60.9301 73.5909 45.1041
16183 1 62.5127 75.1735 46.6867
16184 1 60.9301 73.5909 48.2693
16185 1 62.5127 75.1735 49.8519
16186 1 60.9301 73.5909 51.4345
16187 1 62.5127 75.1735 53.0171
16188 1 60.9301 73.5909 54.5997
16189 1 62.5127 75.1735 56.1823
16190 1 60.9301 73.5909 57.7649
16191 1 62.5127 75.1735 59.3475
16192 1 60.9301 73.5909 60.9301
16193 1 62.5127 75.1735 62.5127
16194 1 60.9301 73.5909 64.0953
16195 1 62.5127 75.1735 65.6779
16196 1 60.9301 73.5909 67.2605
16197 1 62.5127 75.1735 68.8431
16198 1 60.9301 73.5909 70.4257
16199 1 62.5127 75.1735 72.0083
16200 1 60.9301 73.5909 73.5909
16201 1 62.5127 75.1735 75.1735
16202 1 60.9301 73.5909 76.7561
16203 1 62.5127 75.1735 78.3387
16204 1 60.9301 76.7561 0.7913
16205 1 62.5127 78.3387 2.3739
16206 1 60.9301 76.7561 3.9565
16207 1 62.5127 78.3387 5.5391
16208 1 60.9301 76.7561 7.1217
16209 1 62.5127 78.3387 8.7043
16210 1 60.9301 76.7561 10.2869
16211 1 62.5127 78.3387 11.8695
16212 1 60.9301 76.7561 13.4521
16213 1 62.5127 78.3387 15.0347
16214 1 60.9301 76.7561 16.6173
16215 1 62.5127 78.3387 18.1999
16216 1 60.9301 76.7561 19.7825
16217 1 62.5127 78.3387 21.3651
16218 1 60.9301 76.7561 22.9477
16219 1 62.5127 78.3387 24.5303
16220 1 60.9301 76.7561 26.1129
16221 1 62.5127 78.3387 27.6955
16222 1 60.9301 76.7561 29.2781
16223 1 62.5127 78.3387 30.8607
16224 1 60.9301 76.7561 32.4433
16225 1 62.5127 78.3387 34.0259
16226 1 60.9301 76.7561 35.6085
16227 1 62.5127 78.3387 37.1911
16228 1 60.9301 76.7561 38.7737
16229 1 62.5127 78.3387 40.3563
16230 1 60.9301 76.7561 41.9389
16231 1 62.5127 78.3387 43.5215
16232 1 60.9301 76.7561 45.1041
16233 1 62.5127 78.3387 46.6867
16234 1 60.9301 76.7561 48.2693
16235 1 62.5127 78.3387 49.8519
16236 1 60.9301 76.7561 51.4345
16237 1 62.5127 78.3387 53.0171
16238 1 60.9301 76.7561 54.5997
16239 1 62.5127 78.3387 56.1823
16240 1 60.9301 76.7561 57.7649
16241 1 62.5127 78.3387 59.3475
16242 1 60.9301 76.7561 60.9301
16243 1 62.5127 78.3387 62.5127
16244 1 60.9301 76.7561 64.0953
16245 1 62.5127 78.3387 65.6779
16246 1 60.9301 76.7561 67.2605
16247 1 62.5127 78.3387 68.8431
16248 1 60.9301 76.7561 70.4257
16249 1 62.5127 78.3387 72.0083
16250 1 60.9301 76.7561 73.5909
16251 1 62.5127 78.3387 75.1735
16252 1 60.9301 76.7561 76.7561
16253 1 62.5127 78.3387 78.3387
16254 1 64.0953 0.7913 0.7913
16255 1 65.6779 2.3739 2.3739
16256 1 64.0953 0.7913 3.9565
16257 1 65.6779 2.3739 5.5391
16258 1 64.0953 0.7913 7.1217
16259 1 65.6779 2.3739 8.7043
16260 1 64.0953 0.7913 10.2869
16261 1 65.6779 2.3739 11.8695
16262 1 64.0953 0.7913 13.4521
16263 1 65.6779 2.3739 15.0347
16264 1 64.0953 0.7913 16.6173
16265 1 65.6779 2.3739 18.1999
16266 1 64.0953 0.7913 19.7825
16267 1 65.6779 2.3739 21.3651
16268 1 64.0953 0.7913 22.9477
16269 1 65.6779 2.3739 24.5303
16270 1 64.0953 0.7913 26.1129
16271 1 65.6779 2.3739 27.6955
16272 1 64.0953 0.7913 29.2781
16273 1 65.6779 2.3739 30.8607
16274 1 64.0953 0.7913 32.4433
16275 1 65.6779 2.3739 34.0259
16276 1 64.0953 0.7913 35.6085
16277 1 65.6779 2.3739 37.1911
16278 1 64.0953 0.7913 38.7737
16279 1 65.6779 2.3739 40.3563
16280 1 64.0953 0.7913 41.9389
16281 1 65.6779 2.3739 43.5215
16282 1 64.0953 0.7913 45.1041
16283 1 65.6779 2.3739 46.6867
16284 1 64.0953 0.7913 48.2693
16285 1 65.6779 2.3739 49.8519
16286 1 64.0953 0.7913 51.4345
16287 1 65.6779 2.3739 53.0171
16288 1 64.0953 0.7913 54.5997
16289 1 65.6779 2.3739 56.1823
16290 1 64.0953 0.7913 57.7649
16291 1 65.6779 2.3739 59.3475
16292 1 64.0953 0.7913 60.9301
16293 1 65.6779 2.3739 62.5127
16294 1 64.0953 0.7913 64.0953
16295 1 65.6779 2.3739 65.6779
16296 1 64.0953 0.7913 67.2605
16297 1 65.6779 2.3739 68.8431
16298 1 64.0953 0.7913 70.4257
16299 1 65.6779 2.3739 72.0083
16300 1 64.0953 0.7913 73.5909
16301 1 65.6779 2.3739 75.1735
16302 1 64.0953 0.7913 76.7561
16303 1 65.6779 2.3739 78.3387
16304 1 64.0953 3.9565 0.7913
16305 1 65.6779 5.5391 2.3739
16306 1 64.0953 3.9565 3.9565
16307 1 65.6779 5.5391 5.5391
16308 1 64.0953 3.9565 7.1217
16309 1 65.6779 5.5391 8.7043
16310 1 64.0953 3.9565 10.2869
16311 1 65.6779 5.5391 11.8695
16312 1 64.0953 3.9565 13.4521
16313 1 65.6779 5.5391 15.0347
16314 1 64.0953 3.9565 16.6173
16315 1 65.6779 5.5391 18.1999
16316 1 64.0953 3.9565 19.7825
16317 1 65.6779 5.5391 21.3651
16318 1 64.0953 3.9565 22.9477
16319 1 65.6779 5.5391 24.5303
16320 1 64.0953 3.9565 26.1129
16321 1 65.6779 5.5391 27.6955
16322 1 64.0953 3.9565 29.2781
16323 1 65.6779 5.5391 30.8607
16324 1 64.0953 3.9565 32.4433
16325 1 65.6779 5.5391 34.0259
16326 1 64.0953 3.9565 35.6085
16327 1 65.6779 5.5391 37.1911
16328 1 64.0953 3.9565 38.7737
16329 1 65.6779 5.5391 40.3563
16330 1 64.0953 3.9565 41.9389
16331 1 65.6779 5.5391 43.5215
16332 1 64.0953 3.9565 45.1041
16333 1 65.6779 5.5391 46.6867
16334 1 64.0953 3.9565 48.2693
16335 1 65.6779 5.5391 49.8519
16336 1 64.0953 3.9565 51.4345
16337 1 65.6779 5.5391 53.0171
16338 1 64.0953 3.9565 54.5997
16339 1 65.6779 5.5391 56.1823
16340 1 64.0953 3.9565 57.7649
16341 1 65.6779 5.5391 59.3475
16342 1 64.0953 3.9565 60.9301
16343 1 65.6779 5.5391 62.5127
16344 1 64.0953 3.9565 64.0953
16345 1 65.6779 5.5391 65.6779
16346 1 64.0953 3.9565 67.2605
16347 1 65.6779 5.5391 68.8431
16348 1 64.0953 3.9565 70.4257
16349 1 65.6779 5.5391 72.0083
16350 1 64.0953 3.9565 73.5909
16351 1 65.6779 5.5391 75.1735
16352 1 64.0953 3.9565 76.7561
16353 1 65.6779 5.5391 78.3387
16354 1 64.0953 7.1217 0.7913
16355 1 65.6779 8.7043 2.3739
16356 1 64.0953 7.1217 3.9565
16357 1 65.6779 8.7043 5.5391
16358 1 64.0953 7.1217 7.1217
16359 1 65.6779 8.7043 8.7043
16360 1 64.0953 7.1217 10.2869
16361 1 65.6779 8.7043 11.8695
16362 1 64.0953 7.1217 13.4521
16363 1 65.6779 8.7043 15.0347
16364 1 64.0953 7.1217 16.6173
16365 1 65.6779 8.7043 18.1999
16366 1 64.0953 7.1217 19.7825
16367 1 65.6779 8.7043 21.3651
16368 1 64.0953 7.1217 22.9477
16369 1 65.6779 8.7043 24.5303
16370 1 64.0953 7.1217 26.1129
16371 1 65.6779 8.7043 27.6955
16372 1 64.0953 7.1217 29.2781
16373 1 65.6779 8.7043 30.8607
16374 1 64.0953 7.1217 32.4433
16375 1 65.6779 8.7043 34.0259
16376 1 64.0953 7.1217 35.6085
16377 1 65.6779 8.7043 37.1911
16378 1 64.0953 7.1217 38.7737
16379 1 65.6779 8.7043 40.3563
16380 1 64.0953 7.1217 41.9389
16381 1 65.6779 8.7043 43.5215
16382 1 64.0953 7.1217 45.1041
16383 1 65.6779 8.7043 46.6867
16384 1 64.0953 7.1217 48.2693
16385 1 65.6779 8.7043 49.8519
16386 1 64.0953 7.1217 51.4345
16387 1 65.6779 8.7043 53.0171
16388 1 64.0953 7.1217 54.5997
16389 1 65.6779 8.7043 56.1823
16390 1 64.0953 7.1217 57.7649
16391 1 65.6779 8.7043 59.3475
16392 1 64.0953 7.1217 60.9301
16393 1 65.6779 8.7043 62.5127
16394 1 64.0953 7.1217 64.0953
16395 1 65.6779 8.7043 65.6779
16396 1 64.0953 7.1217 67.2605
16397 1 65.6779 8.7043 68.8431
16398 1 64.0953 7.1217 70.4257
16399 1 65.6779 8.7043 72.0083
16400 1 64.0953 7.1217 73.5909
16401 1 65.6779 8.7043 75.1735
16402 1 64.0953 7.1217 76.7561
16403 1 65.6779 8.7043 78.3387
16404 1 64.0953 10.2869 0.7913
16405 1 65.6779 11.8695 2.3739
16406 1 64.0953 10.2869 3.9565
16407 1 65.6779 11.8695 5.5391
16408 1 64.0953 10.2869 7.1217
16409 1 65.6779 11.8695 8.7043
16410 1 64.0953 10.2869 10.2869
16411 1 65.6779 11.8695 11.8695
16412 1 64.0953 10.2869 13.4521
16413 1 65.6779 11.8695 15.0347
16414 1 64.0953 10.2869 16.6173
16415 1 65.6779 11.8695 18.1999
16416 1 64.0953 10.2869 19.7825
16417 1 65.6779 11.8695 21.3651
16418 1 64.0953 10.2869 22.9477
16419 1 65.6779 11.8695 24.5303
16420 1 64.0953 10.2869 26.1129
16421 1 65.6779 11.8695 27.6955
16422 1 64.0953 10.2869 29.2781
16423 1 65.6779 11.8695 30.8607
16424 1 64.0953 10.2869 32.4433
16425 1 65.6779 11.8695 34.0259
16426 1 64.0953 10.2869 35.6085
16427 1 65.6779 11.8695 37.1911
16428 1 64.0953 10.2869 38.7737
16429 1 65.6779 11.8695 40.3563
16430 1 64.0953 10.2869 41.9389
16431 1 65.6779 11.8695 43.5215
16432 1 64.0953 10.2869 45.1041
16433 1 65.6779 11.8695 46.6867
16434 1 64.0953 10.2869 48.2693
16435 1 65.6779 11.8695 49.8519
16436 1 64.0953 10.2869 51.4345
16437 1 65.6779 11.8695 53.0171
16438 1 64.0953 10.2869 54.5997
16439 1 65.6779 11.8695 56.1823
16440 1 64.0953 10.2869 57.7649
16441 1 65.6779 11.8695 59.3475
16442 1 64.0953 10.2869 60.9301
16443 1 65.6779 11.8695 62.5127
16444 1 64.0953 10.2869 64.0953
16445 1 65.6779 11.8695 65.6779
16446 1 64.0953 10.2869 67.2605
16447 1 65.6779 11.8695 68.8431
16448 1 64.0953 10.2869 70.4257
16449 1 65.6779 11.8695 72.0083
16450 1 64.0953 10.2869 73.5909
16451 1 65.6779 11.8695 75.1735
16452 1 64.0953 10.2869 76.7561
16453 1 65.6779 11.8695 78.3387
16454 1 64.0953 13.4521 0.7913
16455 1 65.6779 15.0347 2.3739
16456 1 64.0953 13.4521 3.9565
16457 1 65.6779 15.0347 5.5391
16458 1 64.0953 13.4521 7.1217
16459 1 65.6779 15.0347 8.7043
16460 1 64.0953 13.4521 10.2869
16461 1 65.6779 15.0347 11.8695
16462 1 64.0953 13.4521 13.4521
16463 1 65.6779 15.0347 15.0347
16464 1 64.0953 13.4521 16.6173
16465 1 65.6779 15.0347 18.1999
16466 1 64.0953 13.4521 19.7825
16467 1 65.6779 15.0347 21.3651
16468 1 64.0953 13.4521 22.9477
16469 1 65.6779 15.0347 24.5303
16470 1 64.0953 13.4521 26.1129
16471 1 65.6779 15.0347 27.6955
16472 1 64.0953 13.4521 29.2781
16473 1 65.6779 15.0347 30.8607
16474 1 64.0953 13.4521 32.4433
16475 1 65.6779 15.0347 34.0259
16476 1 64.0953 13.4521 35.6085
16477 1 65.6779 15.0347 37.1911
16478 1 64.0953 13.4521 38.7737
16479 1 65.6779 15.0347 40.3563
16480 1 64.0953 13.4521 41.9389
16481 1 65.6779 15.0347 43.5215
16482 1 64.0953 13.4521 45.1041
16483 1 65.6779 15.0347 46.6867
16484 1 64.0953 13.4521 48.2693
16485 1 65.6779 15.0347 49.8519
16486 1 64.0953 13.4521 51.4345
16487 1 65.6779 15.0347 53.0171
16488 1 64.0953 13.4521 54.5997
16489 1 65.6779 15.0347 56.1823
16490 1 64.0953 13.4521 57.7649
16491 1 65.6779 15.0347 59.3475
16492 1 64.0953 13.4521 60.9301
16493 1 65.6779 15.0347 62.5127
16494 1 64.0953 13.4521 64.0953
16495 1 65.6779 15.0347 65.6779
16496 1 64.0953 13.4521 67.2605
16497 1 65.6779 15.0347 68.8431
16498 1 64.0953 13.4521 70.4257
16499 1 65.6779 15.0347 72.0083
16500 1 64.0953 13.4521 73.5909
16501 1 65.6779 15.0347 75.1735
16502 1 64.0953 13.4521 76.7561
16503 1 65.6779 15.0347 78.3387
16504 1 64.0953 16.6173 0.7913
16505 1 65.6779 18.1999 2.3739
16506 1 64.0953 16.6173 3.9565
16507 1 65.6779 18.1999 5.5391
16508 1 64.0953 16.6173 7.1217
16509 1 65.6779 18.1999 8.7043
16510 1 64.0953 16.6173 10.2869
16511 1 65.6779 18.1999 11.8695
16512 1 64.0953 16.6173 13.4521
16513 1 65.6779 18.1999 15.0347
16514 1 64.0953 16.6173 16.6173
16515 1 65.6779 18.1999 18.1999
16516 1 64.0953 16.6173 19.7825
16517 1 65.6779 18.1999 21.3651
16518 1 64.0953 16.6173 22.9477
16519 1 65.6779 18.1999 24.5303
16520 1 64.0953 16.6173 26.1129
16521 1 65.6779 18.1999 27.6955
16522 1 64.0953 16.6173 29.2781
16523 1 65.6779 18.1999 30.8607
16524 1 64.0953 16.6173 32.4433
16525 1 65.6779 18.1999 34.0259
16526 1 64.0953 16.6173 35.6085
16527 1 65.6779 18.1999 37.1911
16528 1 64.0953 16.6173 38.7737
16529 1 65.6779 18.1999 40.3563
16530 1 64.0953 16.6173 41.9389
16531 1 65.6779 18.1999 43.5215
16532 1 64.0953 16.6173 45.1041
16533 1 65.6779 18.1999 46.6867
16534 1 64.0953 16.6173 48.2693
16535 1 65.6779 18.1999 49.8519
16536 1 64.0953 16.6173 51.4345
16537 1 65.6779 18.1999 53.0171
16538 1 64.0953 16.6173 54.5997
16539 1 65.6779 18.1999 56.1823
16540 1 64.0953 16.6173 57.7649
16541 1 65.6779 18.1999 59.3475
16542 1 64.0953 16.6173 60.9301
16543 1 65.6779 18.1999 62.5127
16544 1 64.0953 16.6173 64.0953
16545 1 65.6779 18.1999 65.6779
16546 1 64.0953 16.6173 67.2605
16547 1 65.6779 18.1999 68.8431
16548 1 64.0953 16.6173 70.4257
16549 1 65.6779 18.1999 72.0083
16550 1 64.0953 16.6173 73.5909
16551 1 65.6779 18.1999 75.1735
16552 1 64.0953 16.6173 76.7561
16553 1 65.6779 18.1999 78.3387
16554 1 64.0953 19.7825 0.7913
16555 1 65.6779 21.3651 2.3739
16556 1 64.0953 19.7825 3.9565
16557 1 65.6779 21.3651 5.5391
16558 1 64.0953 19.7825 7.1217
16559 1 65.6779 21.3651 8.7043
16560 1 64.0953 19.7825 10.2869
16561 1 65.6779 21.3651 11.8695
16562 1 64.0953 19.7825 13.4521
16563 1 65.6779 21.3651 15.0347
16564 1 64.0953 19.7825 16.6173
16565 1 65.6779 21.3651 18.1999
16566 1 64.0953 19.7825 19.7825
16567 1 65.6779 21.3651 21.3651
16568 1 64.0953 19.7825 22.9477
16569 1 65.6779 21.3651 24.5303
16570 1 64.0953 19.7825 26.1129
16571 1 65.6779 21.3651 27.6955
16572 1 64.0953 19.7825 29.2781
16573 1 65.6779 21.3651 30.8607
16574 1 64.0953 19.7825 32.4433
16575 1 65.6779 21.3651 34.0259
16576 1 64.0953 19.7825 35.6085
16577 1 65.6779 21.3651 37.1911
16578 1 64.0953 19.7825 38.7737
16579 1 65.6779 21.3651 40.3563
16580 1 64.0953 19.7825 41.9389
16581 1 65.6779 21.3651 43.5215
16582 1 64.0953 19.7825 45.1041
16583 1 65.6779 21.3651 46.6867
16584 1 64.0953 19.7825 48.2693
16585 1 65.6779 21.3651 49.8519
16586 1 64.0953 19.7825 51.4345
16587 1 65.6779 21.3651 53.0171
16588 1 64.0953 19.7825 54.5997
16589 1 65.6779 21.3651 56.1823
16590 1 64.0953 19.7825 57.7649
16591 1 65.6779 21.3651 59.3475
16592 1 64.0953 19.7825 60.9301
16593 1 65.6779 21.3651 62.5127
16594 1 64.0953 19.7825 64.0953
16595 1 65.6779 21.3651 65.6779
16596 1 64.0953 19.7825 67.2605
16597 1 65.6779 21.3651 68.8431
16598 1 64.0953 19.7825 70.4257
16599 1 65.6779 21.3651 72.0083
16600 1 64.0953 19.7825 73.5909
16601 1 65.6779 21.3651 75.1735
16602 1 64.0953 19.7825 76.7561
16603 1 65.6779 21.3651 78.3387
16604 1 64.0953 22.9477 0.7913
16605 1 65.6779 24.5303 2.3739
16606 1 64.0953 22.9477 3.9565
16607 1 65.6779 24.5303 5.5391
16608 1 64.0953 22.9477 7.1217
16609 1 65.6779 24.5303 8.7043
16610 1 64.0953 22.9477 10.2869
16611 1 65.6779 24.5303 11.8695
16612 1 64.0953 22.9477 13.4521
16613 1 65.6779 24.5303 15.0347
16614 1 64.0953 22.9477 16.6173
16615 1 65.6779 24.5303 18.1999
16616 1 64.0953 22.9477 19.7825
16617 1 65.6779 24.5303 21.3651
16618 1 64.0953 22.9477 22.9477
16619 1 65.6779 24.5303 24.5303
16620 1 64.0953 22.9477 26.1129
16621 1 65.6779 24.5303 27.6955
16622 1 64.0953 22.9477 29.2781
16623 1 65.6779 24.5303 30.8607
16624 1 64.0953 22.9477 32.4433
16625 1 65.6779 24.5303 34.0259
16626 1 64.0953 22.9477 35.6085
16627 1 65.6779 24.5303 37.1911
16628 1 64.0953 22.9477 38.7737
16629 1 65.6779 24.5303 40.3563
16630 1 64.0953 22.9477 41.9389
16631 1 65.6779 24.5303 43.5215
16632 1 64.0953 22.9477 45.1041
16633 1 65.6779 24.5303 46.6867
16634 1 64.0953 22.9477 48.2693
16635 1 65.6779 24.5303 49.8519
16636 1 64.0953 22.9477 51.4345
16637 1 65.6779 24.5303 53.0171
16638 1 64.0953 22.9477 54.5997
16639 1 65.6779 24.5303 56.1823
16640 1 64.0953 22.9477 57.7649
16641 1 65.6779 24.5303 59.3475
16642 1 64.0953 22.9477 60.9301
16643 1 65.6779 24.5303 62.5127
16644 1 64.0953 22.9477 64.0953
16645 1 65.6779 24.5303 65.6779
16646 1 64.0953 22.9477 67.2605
16647 1 65.6779 24.5303 68.8431
16648 1 64.0953 22.9477 70.4257
16649 1 65.6779 24.5303 72.0083
16650 1 64.0953 22.9477 73.5909
16651 1 65.6779 24.5303 75.1735
16652 1 64.0953 22.9477 76.7561
16653 1 65.6779 24.5303 78.3387
16654 1 64.0953 26.1129 0.7913
16655 1 65.6779 27.6955 2.3739
16656 1 64.0953 26.1129 3.9565
16657 1 65.6779 27.6955 5.5391
16658 1 64.0953 26.1129 7.1217
16659 1 65.6779 27.6955 8.7043
16660 1 64.0953 26.1129 10.2869
16661 1 65.6779 27.6955 11.8695
16662 1 64.0953 26.1129 13.4521
16663 1 65.6779 27.6955 15.0347
16664 1 64.0953 26.1129 16.6173
16665 1 65.6779 27.6955 18.1999
16666 1 64.0953 26.1129 19.7825
16667 1 65.6779 27.6955 21.3651
16668 1 64.0953 26.1129 22.9477
16669 1 65.6779 27.6955 24.5303
16670 1 64.0953 26.1129 26.1129
16671 1 65.6779 27.6955 27.6955
16672 1 64.0953 26.1129 29.2781
16673 1 65.6779 27.6955 30.8607
16674 1 64.0953 26.1129 32.4433
16675 1 65.6779 27.6955 34.0259
16676 1 64.0953 26.1129 35.6085
16677 1 65.6779 27.6955 37.1911
16678 1 64.0953 26.1129 38.7737
16679 1 65.6779 27.6955 40.3563
16680 1 64.0953 26.1129 41.9389
16681 1 65.6779 27.6955 43.5215
16682 1 64.0953 26.1129 45.1041
16683 1 65.6779 27.6955 46.6867
16684 1 64.0953 26.1129 48.2693
16685 1 65.6779 27.6955 49.8519
16686 1 64.0953 26.1129 51.4345
16687 1 65.6779 27.6955 53.0171
16688 1 64.0953 26.1129 54.5997
16689 1 65.6779 27.6955 56.1823
16690 1 64.0953 26.1129 57.7649
16691 1 65.6779 27.6955 59.3475
16692 1 64.0953 26.1129 60.9301
16693 1 65.6779 27.6955 62.5127
16694 1 64.0953 26.1129 64.0953
16695 1 65.6779 27.6955 65.6779
16696 1 64.0953 26.1129 67.2605
16697 1 65.6779 27.6955 68.8431
16698 1 64.0953 26.1129 70.4257
16699 1 65.6779 27.6955 72.0083
16700 1 64.0953 26.1129 73.5909
16701 1 65.6779 27.6955 75.1735
16702 1 64.0953 26.1129 76.7561
16703 1 65.6779 27.6955 78.3387
16704 1 64.0953 29.2781 0.7913
16705 1 65.6779 30.8607 2.3739
16706 1 64.0953 29.2781 3.9565
16707 1 65.6779 30.8607 5.5391
16708 1 64.0953 29.2781 7.1217
16709 1 65.6779 30.8607 8.7043
16710 1 64.0953 29.2781 10.2869
16711 1 65.6779 30.8607 11.8695
16712 1 64.0953 29.2781 13.4521
16713 1 65.6779 30.8607 15.0347
16714 1 64.0953 29.2781 16.6173
16715 1 65.6779 30.8607 18.1999
16716 1 64.0953 29.2781 19.7825
16717 1 65.6779 30.8607 21.3651
16718 1 64.0953 29.2781 22.9477
16719 1 65.6779 30.8607 24.5303
16720 1 64.0953 29.2781 26.1129
16721 1 65.6779 30.8607 27.6955
16722 1 64.0953 29.2781 29.2781
16723 1 65.6779 30.8607 30.8607
16724 1 64.0953 29.2781 32.4433
16725 1 65.6779 30.8607 34.0259
16726 1 64.0953 29.2781 35.6085
16727 1 65.6779 30.8607 37.1911
16728 1 64.0953 29.2781 38.7737
16729 1 65.6779 30.8607 40.3563
16730 1 64.0953 29.2781 41.9389
16731 1 65.6779 30.8607 43.5215
16732 1 64.0953 29.2781 45.1041
16733 1 65.6779 30.8607 46.6867
16734 1 64.0953 29.2781 48.2693
16735 1 65.6779 30.8607 49.8519
16736 1 64.0953 29.2781 51.4345
16737 1 65.6779 30.8607 53.0171
16738 1 64.0953 29.2781 54.5997
16739 1 65.6779 30.8607 56.1823
16740 1 64.0953 29.2781 57.7649
16741 1 65.6779 30.8607 59.3475
16742 1 64.0953 29.2781 60.9301
16743 1 65.6779 30.8607 62.5127
16744 1 64.0953 29.2781 64.0953
16745 1 65.6779 30.8607 65.6779
16746 1 64.0953 29.2781 67.2605
16747 1 65.6779 30.8607 68.8431
16748 1 64.0953 29.2781 70.4257
16749 1 65.6779 30.8607 72.0083
16750 1 64.0953 29.2781 73.5909
16751 1 65.6779 30.8607 75.1735
16752 1 64.0953 29.2781 76.7561
16753 1 65.6779 30.8607 78.3387
16754 1 64.0953 32.4433 0.7913
16755 1 65.6779 34.0259 2.3739
16756 1 64.0953 32.4433 3.9565
16757 1 65.6779 34.0259 5.5391
16758 1 64.0953 32.4433 7.1217
16759 1 65.6779 34.0259 8.7043
16760 1 64.0953 32.4433 10.2869
16761 1 65.6779 34.0259 11.8695
16762 1 64.0953 32.4433 13.4521
16763 1 65.6779 34.0259 15.0347
16764 1 64.0953 32.4433 16.6173
16765 1 65.6779 34.0259 18.1999
16766 1 64.0953 32.4433 19.7825
16767 1 65.6779 34.0259 21.3651
16768 1 64.0953 32.4433 22.9477
16769 1 65.6779 34.0259 24.5303
16770 1 64.0953 32.4433 26.1129
16771 1 65.6779 34.0259 27.6955
16772 1 64.0953 32.4433 29.2781
16773 1 65.6779 34.0259 30.8607
16774 1 64.0953 32.4433 32.4433
16775 1 65.6779 34.0259 34.0259
16776 1 64.0953 32.4433 35.6085
16777 1 65.6779 34.0259 37.1911
16778 1 64.0953 32.4433 38.7737
16779 1 65.6779 34.0259 40.3563
16780 1 64.0953 32.4433 41.9389
16781 1 65.6779 34.0259 43.5215
16782 1 64.0953 32.4433 45.1041
16783 1 65.6779 34.0259 46.6867
16784 1 64.0953 32.4433 48.2693
16785 1 65.6779 34.0259 49.8519
16786 1 64.0953 32.4433 51.4345
16787 1 65.6779 34.0259 53.0171
16788 1 64.0953 32.4433 54.5997
16789 1 65.6779 34.0259 56.1823
16790 1 64.0953 32.4433 57.7649
16791 1 65.6779 34.0259 59.3475
16792 1 64.0953 32.4433 60.9301
16793 1 65.6779 34.0259 62.5127
16794 1 64.0953 32.4433 64.0953
16795 1 65.6779 34.0259 65.6779
16796 1 64.0953 32.4433 67.2605
16797 1 65.6779 34.0259 68.8431
16798 1 64.0953 32.4433 70.4257
16799 1 65.6779 34.0259 72.0083
16800 1 64.0953 32.4433 73.5909
16801 1 65.6779 34.0259 75.1735
16802 1 64.0953 32.4433 76.7561
16803 1 65.6779 34.0259 78.3387
16804 1 64.0953 35.6085 0.7913
16805 1 65.6779 37.1911 2.3739
16806 1 64.0953 35.6085 3.9565
16807 1 65.6779 37.1911 5.5391
16808 1 64.0953 35.6085 7.1217
16809 1 65.6779 37.1911 8.7043
16810 1 64.0953 35.6085 10.2869
16811 1 65.6779 37.1911 11.8695
16812 1 64.0953 35.6085 13.4521
16813 1 65.6779 37.1911 15.0347
16814 1 64.0953 35.6085 16.6173
16815 1 65.6779 37.1911 18.1999
16816 1 64.0953 35.6085 19.7825
16817 1 65.6779 37.1911 21.3651
16818 1 64.0953 35.6085 22.9477
16819 1 65.6779 37.1911 24.5303
16820 1 64.0953 35.6085 26.1129
16821 1 65.6779 37.1911 27.6955
16822 1 64.0953 35.6085 29.2781
16823 1 65.6779 37.1911 30.8607
16824 1 64.0953 35.6085 32.4433
16825 1 65.6779 37.1911 34.0259
16826 1 64.0953 35.6085 35.6085
16827 1 65.6779 37.1911 37.1911
16828 1 64.0953 35.6085 38.7737
16829 1 65.6779 37.1911 40.3563
16830 1 64.0953 35.6085 41.9389
16831 1 65.6779 37.1911 43.5215
16832 1 64.0953 35.6085 45.1041
16833 1 65.6779 37.1911 46.6867
16834 1 64.0953 35.6085 48.2693
16835 1 65.6779 37.1911 49.8519
16836 1 64.0953 35.6085 51.4345
16837 1 65.6779 37.1911 53.0171
16838 1 64.0953 35.6085 54.5997
16839 1 65.6779 37.1911 56.1823
16840 1 64.0953 35.6085 57.7649
16841 1 65.6779 37.1911 59.3475
16842 1 64.0953 35.6085 60.9301
16843 1 65.6779 37.1911 62.5127
16844 1 64.0953 35.6085 64.0953
16845 1 65.6779 37.1911 65.6779
16846 1 64.0953 35.6085 67.2605
16847 1 65.6779 37.1911 68.8431
16848 1 64.0953 35.6085 70.4257
16849 1 65.6779 37.1911 72.0083
16850 1 64.0953 35.6085 73.5909
16851 1 65.6779 37.1911 75.1735
16852 1 64.0953 35.6085 76.7561
16853 1 65.6779 37.1911 78.3387
16854 1 64.0953 38.7737 0.7913
16855 1 65.6779 40.3563 2.3739
16856 1 64.0953 38.7737 3.9565
16857 1 65.6779 40.3563 5.5391
16858 1 64.0953 38.7737 7.1217
16859 1 65.6779 40.3563 8.7043
16860 1 64.0953 38.7737 10.2869
16861 1 65.6779 40.3563 11.8695
16862 1 64.0953 38.7737 13.4521
16863 1 65.6779 40.3563 15.0347
16864 1 64.0953 38.7737 16.6173
16865 1 65.6779 40.3563 18.1999
16866 1 64.0953 38.7737 19.7825
16867 1 65.6779 40.3563 21.3651
16868 1 64.0953 38.7737 22.9477
16869 1 65.6779 40.3563 24.5303
16870 1 64.0953 38.7737 26.1129
16871 1 65.6779 40.3563 27.6955
16872 1 64.0953 38.7737 29.2781
16873 1 65.6779 40.3563 30.8607
16874 1 64.0953 38.7737 32.4433
16875 1 65.6779 40.3563 34.0259
16876 1 64.0953 38.7737 35.6085
16877 1 65.6779 40.3563 37.1911
16878 1 64.0953 38.7737 38.7737
16879 1 65.6779 40.3563 40.3563
16880 1 64.0953 38.7737 41.9389
16881 1 65.6779 40.3563 43.5215
16882 1 64.0953 38.7737 45.1041
16883 1 65.6779 40.3563 46.6867
16884 1 64.0953 38.7737 48.2693
16885 1 65.6779 40.3563 49.8519
16886 1 64.0953 38.7737 51.4345
16887 1 65.6779 40.3563 53.0171
16888 1 64.0953 38.7737 54.5997
16889 1 65.6779 40.3563 56.1823
16890 1 64.0953 38.7737 57.7649
16891 1 65.6779 40.3563 59.3475
16892 1 64.0953 38.7737 60.9301
16893 1 65.6779 40.3563 62.5127
16894 1 64.0953 38.7737 64.0953
16895 1 65.6779 40.3563 65.6779
16896 1 64.0953 38.7737 67.2605
16897 1 65.6779 40.3563 68.8431
16898 1 64.0953 38.7737 70.4257
16899 1 65.6779 40.3563 72.0083
16900 1 64.0953 38.7737 73.5909
16901 1 65.6779 40.3563 75.1735
16902 1 64.0953 38.7737 76.7561
16903 1 65.6779 40.3563 78.3387
16904 1 64.0953 41.9389 0.7913
16905 1 65.6779 43.5215 2.3739
16906 1 64.0953 41.9389 3.9565
16907 1 65.6779 43.5215 5.5391
16908 1 64.0953 41.9389 7.1217
16909 1 65.6779 43.5215 8.7043
16910 1 64.0953 41.9389 10.2869
16911 1 65.6779 43.5215 11.8695
16912 1 64.0953 41.9389 13.4521
16913 1 65.6779 43.5215 15.0347
16914 1 64.0953 41.9389 16.6173
16915 1 65.6779 43.5215 18.1999
16916 1 64.0953 41.9389 19.7825
16917 1 65.6779 43.5215 21.3651
16918 1 64.0953 41.9389 22.9477
16919 1 65.6779 43.5215 24.5303
16920 1 64.0953 41.9389 26.1129
16921 1 65.6779 43.5215 27.6955
16922 1 64.0953 41.9389 29.2781
16923 1 65.6779 43.5215 30.8607
16924 1 64.0953 41.9389 32.4433
16925 1 65.6779 43.5215 34.0259
16926 1 64.0953 41.9389 35.6085
16927 1 65.6779 43.5215 37.1911
16928 1 64.0953 41.9389 38.7737
16929 1 65.6779 43.5215 40.3563
16930 1 64.0953 41.9389 41.9389
16931 1 65.6779 43.5215 43.5215
16932 1 64.0953 41.9389 45.1041
16933 1 65.6779 43.5215 46.6867
16934 1 64.0953 41.9389 48.2693
16935 1 65.6779 43.5215 49.8519
16936 1 64.0953 41.9389 51.4345
16937 1 65.6779 43.5215 53.0171
16938 1 64.0953 41.9389 54.5997
16939 1 65.6779 43.5215 56.1823
16940 1 64.0953 41.9389 57.7649
16941 1 65.6779 43.5215 59.3475
16942 1 64.0953 41.9389 60.9301
16943 1 65.6779 43.5215 62.5127
16944 1 64.0953 41.9389 64.0953
16945 1 65.6779 43.5215 65.6779
16946 1 64.0953 41.9389 67.2605
16947 1 65.6779 43.5215 68.8431
16948 1 64.0953 41.9389 70.4257
16949 1 65.6779 43.5215 72.0083
16950 1 64.0953 41.9389 73.5909
16951 1 65.6779 43.5215 75.1735
16952 1 64.0953 41.9389 76.7561
16953 1 65.6779 43.5215 78.3387
16954 1 64.0953 45.1041 0.7913
16955 1 65.6779 46.6867 2.3739
16956 1 64.0953 45.1041 3.9565
16957 1 65.6779 46.6867 5.5391
16958 1 64.0953 45.1041 7.1217
16959 1 65.6779 46.6867 8.7043
16960 1 64.0953 45.1041 10.2869
16961 1 65.6779 46.6867 11.8695
16962 1 64.0953 45.1041 13.4521
16963 1 65.6779 46.6867 15.0347
16964 1 64.0953 45.1041 16.6173
16965 1 65.6779 46.6867 18.1999
16966 1 64.0953 45.1041 19.7825
16967 1 65.6779 46.6867 21.3651
16968 1 64.0953 45.1041 22.9477
16969 1 65.6779 46.6867 24.5303
16970 1 64.0953 45.1041 26.1129
16971 1 65.6779 46.6867 27.6955
16972 1 64.0953 45.1041 29.2781
16973 1 65.6779 46.6867 30.8607
16974 1 64.0953 45.1041 32.4433
16975 1 65.6779 46.6867 34.0259
16976 1 64.0953 45.1041 35.6085
16977 1 65.6779 46.6867 37.1911
16978 1 64.0953 45.1041 38.7737
16979 1 65.6779 46.6867 40.3563
16980 1 64.0953 45.1041 41.9389
16981 1 65.6779 46.6867 43.5215
16982 1 64.0953 45.1041 45.1041
16983 1 65.6779 46.6867 46.6867
16984 1 64.0953 45.1041 48.2693
16985 1 65.6779 46.6867 49.8519
16986 1 64.0953 45.1041 51.4345
16987 1 65.6779 46.6867 53.0171
16988 1 64.0953 45.1041 54.5997
16989 1 65.6779 46.6867 56.1823
16990 1 64.0953 45.1041 57.7649
16991 1 65.6779 46.6867 59.3475
16992 1 64.0953 45.1041 60.9301
16993 1 65.6779 46.6867 62.5127
16994 1 64.0953 45.1041 64.0953
16995 1 65.6779 46.6867 65.6779
16996 1 64.0953 45.1041 67.2605
16997 1 65.6779 46.6867 68.8431
16998 1 64.0953 45.1041 70.4257
16999 1 65.6779 46.6867 72.0083
17000 1 64.0953 45.1041 73.5909
17001 1 65.6779 46.6867 75.1735
17002 1 64.0953 45.1041 76.7561
17003 1 65.6779 46.6867 78.3387
17004 1 64.0953 48.2693 0.7913
17005 1 65.6779 49.8519 2.3739
17006 1 64.0953 48.2693 3.9565
17007 1 65.6779 49.8519 5.5391
17008 1 64.0953 48.2693 7.1217
17009 1 65.6779 49.8519 8.7043
17010 1 64.0953 48.2693 10.2869
17011 1 65.6779 49.8519 11.8695
17012 1 64.0953 48.2693 13.4521
17013 1 65.6779 49.8519 15.0347
17014 1 64.0953 48.2693 16.6173
17015 1 65.6779 49.8519 18.1999
17016 1 64.0953 48.2693 19.7825
17017 1 65.6779 49.8519 21.3651
17018 1 64.0953 48.2693 22.9477
17019 1 65.6779 49.8519 24.5303
17020 1 64.0953 48.2693 26.1129
17021 1 65.6779 49.8519 27.6955
17022 1 64.0953 48.2693 29.2781
17023 1 65.6779 49.8519 30.8607
17024 1 64.0953 48.2693 32.4433
17025 1 65.6779 49.8519 34.0259
17026 1 64.0953 48.2693 35.6085
17027 1 65.6779 49.8519 37.1911
17028 1 64.0953 48.2693 38.7737
17029 1 65.6779 49.8519 40.3563
17030 1 64.0953 48.2693 41.9389
17031 1 65.6779 49.8519 43.5215
17032 1 64.0953 48.2693 45.1041
17033 1 65.6779 49.8519 46.6867
17034 1 64.0953 48.2693 48.2693
17035 1 65.6779 49.8519 49.8519
17036 1 64.0953 48.2693 51.4345
17037 1 65.6779 49.8519 53.0171
17038 1 64.0953 48.2693 54.5997
17039 1 65.6779 49.8519 56.1823
17040 1 64.0953 48.2693 57.7649
17041 1 65.6779 49.8519 59.3475
17042 1 64.0953 48.2693 60.9301
17043 1 65.6779 49.8519 62.5127
17044 1 64.0953 48.2693 64.0953
17045 1 65.6779 49.8519 65.6779
17046 1 64.0953 48.2693 67.2605
17047 1 65.6779 49.8519 68.8431
17048 1 64.0953 48.2693 70.4257
17049 1 65.6779 49.8519 72.0083
17050 1 64.0953 48.2693 73.5909
17051 1 65.6779 49.8519 75.1735
17052 1 64.0953 48.2693 76.7561
17053 1 65.6779 49.8519 78.3387
17054 1 64.0953 51.4345 0.7913
17055 1 65.6779 53.0171 2.3739
17056 1 64.0953 51.4345 3.9565
17057 1 65.6779 53.0171 5.5391
17058 1 64.0953 51.4345 7.1217
17059 1 65.6779 53.0171 8.7043
17060 1 64.0953 51.4345 10.2869
17061 1 65.6779 53.0171 11.8695
17062 1 64.0953 51.4345 13.4521
17063 1 65.6779 53.0171 15.0347
17064 1 64.0953 51.4345 16.6173
17065 1 65.6779 53.0171 18.1999
17066 1 64.0953 51.4345 19.7825
17067 1 65.6779 53.0171 21.3651
17068 1 64.0953 51.4345 22.9477
17069 1 65.6779 53.0171 24.5303
17070 1 64.0953 51.4345 26.1129
17071 1 65.6779 53.0171 27.6955
17072 1 64.0953 51.4345 29.2781
17073 1 65.6779 53.0171 30.8607
17074 1 64.0953 51.4345 32.4433
17075 1 65.6779 53.0171 34.0259
17076 1 64.0953 51.4345 35.6085
17077 1 65.6779 53.0171 37.1911
17078 1 64.0953 51.4345 38.7737
17079 1 65.6779 53.0171 40.3563
17080 1 64.0953 51.4345 41.9389
17081 1 65.6779 53.0171 43.5215
17082 1 64.0953 51.4345 45.1041
17083 1 65.6779 53.0171 46.6867
17084 1 64.0953 51.4345 48.2693
17085 1 65.6779 53.0171 49.8519
17086 1 64.0953 51.4345 51.4345
17087 1 65.6779 53.0171 53.0171
17088 1 64.0953 51.4345 54.5997
17089 1 65.6779 53.0171 56.1823
17090 1 64.0953 51.4345 57.7649
17091 1 65.6779 53.0171 59.3475
17092 1 64.0953 51.4345 60.9301
17093 1 65.6779 53.0171 62.5127
17094 1 64.0953 51.4345 64.0953
17095 1 65.6779 53.0171 65.6779
17096 1 64.0953 51.4345 67.2605
17097 1 65.6779 53.0171 68.8431
17098 1 64.0953 51.4345 70.4257
17099 1 65.6779 53.0171 72.0083
17100 1 64.0953 51.4345 73.5909
17101 1 65.6779 53.0171 75.1735
17102 1 64.0953 51.4345 76.7561
17103 1 65.6779 53.0171 78.3387
17104 1 64.0953 54.5997 0.7913
17105 1 65.6779 56.1823 2.3739
17106 1 64.0953 54.5997 3.9565
17107 1 65.6779 56.1823 5.5391
17108 1 64.0953 54.5997 7.1217
17109 1 65.6779 56.1823 8.7043
17110 1 64.0953 54.5997 10.2869
17111 1 65.6779 56.1823 11.8695
17112 1 64.0953 54.5997 13.4521
17113 1 65.6779 56.1823 15.0347
17114 1 64.0953 54.5997 16.6173
17115 1 65.6779 56.1823 18.1999
17116 1 64.0953 54.5997 19.7825
17117 1 65.6779 56.1823 21.3651
17118 1 64.0953 54.5997 22.9477
17119 1 65.6779 56.1823 24.5303
17120 1 64.0953 54.5997 26.1129
17121 1 65.6779 56.1823 27.6955
17122 1 64.0953 54.5997 29.2781
17123 1 65.6779 56.1823 30.8607
17124 1 64.0953 54.5997 32.4433
17125 1 65.6779 56.1823 34.0259
17126 1 64.0953 54.5997 35.6085
17127 1 65.6779 56.1823 37.1911
17128 1 64.0953 54.5997 38.7737
17129 1 65.6779 56.1823 40.3563
17130 1 64.0953 54.5997 41.9389
17131 1 65.6779 56.1823 43.5215
17132 1 64.0953 54.5997 45.1041
17133 1 65.6779 56.1823 46.6867
17134 1 64.0953 54.5997 48.2693
17135 1 65.6779 56.1823 49.8519
17136 1 64.0953 54.5997 51.4345
17137 1 65.6779 56.1823 53.0171
17138 1 64.0953 54.5997 54.5997
17139 1 65.6779 56.1823 56.1823
17140 1 64.0953 54.5997 57.7649
17141 1 65.6779 56.1823 59.3475
17142 1 64.0953 54.5997 60.9301
17143 1 65.6779 56.1823 62.5127
17144 1 64.0953 54.5997 64.0953
17145 1 65.6779 56.1823 65.6779
17146 1 64.0953 54.5997 67.2605
17147 1 65.6779 56.1823 68.8431
17148 1 64.0953 54.5997 70.4257
17149 1 65.6779 56.1823 72.0083
17150 1 64.0953 54.5997 73.5909
17151 1 65.6779 56.1823 75.1735
17152 1 64.0953 54.5997 76.7561
17153 1 65.6779 56.1823 78.3387
17154 1 64.0953 57.7649 0.7913
17155 1 65.6779 59.3475 2.3739
17156 1 64.0953 57.7649 3.9565
17157 1 65.6779 59.3475 5.5391
17158 1 64.0953 57.7649 7.1217
17159 1 65.6779 59.3475 8.7043
17160 1 64.0953 57.7649 10.2869
17161 1 65.6779 59.3475 11.8695
17162 1 64.0953 57.7649 13.4521
17163 1 65.6779 59.3475 15.0347
17164 1 64.0953 57.7649 16.6173
17165 1 65.6779 59.3475 18.1999
17166 1 64.0953 57.7649 19.7825
17167 1 65.6779 59.3475 21.3651
17168 1 64.0953 57.7649 22.9477
17169 1 65.6779 59.3475 24.5303
17170 1 64.0953 57.7649 26.1129
17171 1 65.6779 59.3475 27.6955
17172 1 64.0953 57.7649 29.2781
17173 1 65.6779 59.3475 30.8607
17174 1 64.0953 57.7649 32.4433
17175 1 65.6779 59.3475 34.0259
17176 1 64.0953 57.7649 35.6085
17177 1 65.6779 59.3475 37.1911
17178 1 64.0953 57.7649 38.7737
17179 1 65.6779 59.3475 40.3563
17180 1 64.0953 57.7649 41.9389
17181 1 65.6779 59.3475 43.5215
17182 1 64.0953 57.7649 45.1041
17183 1 65.6779 59.3475 46.6867
17184 1 64.0953 57.7649 48.2693
17185 1 65.6779 59.3475 49.8519
17186 1 64.0953 57.7649 51.4345
17187 1 65.6779 59.3475 53.0171
17188 1 64.0953 57.7649 54.5997
17189 1 65.6779 59.3475 56.1823
17190 1 64.0953 57.7649 57.7649
17191 1 65.6779 59.3475 59.3475
17192 1 64.0953 57.7649 60.9301
17193 1 65.6779 59.3475 62.5127
17194 1 64.0953 57.7649 64.0953
17195 1 65.6779 59.3475 65.6779
17196 1 64.0953 57.7649 67.2605
17197 1 65.6779 59.3475 68.8431
17198 1 64.0953 57.7649 70.4257
17199 1 65.6779 59.3475 72.0083
17200 1 64.0953 57.7649 73.5909
17201 1 65.6779 59.3475 75.1735
17202 1 64.0953 57.7649 76.7561
17203 1 65.6779 59.3475 78.3387
17204 1 64.0953 60.9301 0.7913
17205 1 65.6779 62.5127 2.3739
17206 1 64.0953 60.9301 3.9565
17207 1 65.6779 62.5127 5.5391
17208 1 64.0953 60.9301 7.1217
17209 1 65.6779 62.5127 8.7043
17210 1 64.0953 60.9301 10.2869
17211 1 65.6779 62.5127 11.8695
17212 1 64.0953 60.9301 13.4521
17213 1 65.6779 62.5127 15.0347
17214 1 64.0953 60.9301 16.6173
17215 1 65.6779 62.5127 18.1999
17216 1 64.0953 60.9301 19.7825
17217 1 65.6779 62.5127 21.3651
17218 1 64.0953 60.9301 22.9477
17219 1 65.6779 62.5127 24.5303
17220 1 64.0953 60.9301 26.1129
17221 1 65.6779 62.5127 27.6955
17222 1 64.0953 60.9301 29.2781
17223 1 65.6779 62.5127 30.8607
17224 1 64.0953 60.9301 32.4433
17225 1 65.6779 62.5127 34.0259
17226 1 64.0953 60.9301 35.6085
17227 1 65.6779 62.5127 37.1911
17228 1 64.0953 60.9301 38.7737
17229 1 65.6779 62.5127 40.3563
17230 1 64.0953 60.9301 41.9389
17231 1 65.6779 62.5127 43.5215
17232 1 64.0953 60.9301 45.1041
17233 1 65.6779 62.5127 46.6867
17234 1 64.0953 60.9301 48.2693
17235 1 65.6779 62.5127 49.8519
17236 1 64.0953 60.9301 51.4345
17237 1 65.6779 62.5127 53.0171
17238 1 64.0953 60.9301 54.5997
17239 1 65.6779 62.5127 56.1823
17240 1 64.0953 60.9301 57.7649
17241 1 65.6779 62.5127 59.3475
17242 1 64.0953 60.9301 60.9301
17243 1 65.6779 62.5127 62.5127
17244 1 64.0953 60.9301 64.0953
17245 1 65.6779 62.5127 65.6779
17246 1 64.0953 60.9301 67.2605
17247 1 65.6779 62.5127 68.8431
17248 1 64.0953 60.9301 70.4257
17249 1 65.6779 62.5127 72.0083
17250 1 64.0953 60.9301 73.5909
17251 1 65.6779 62.5127 75.1735
17252 1 64.0953 60.9301 76.7561
17253 1 65.6779 62.5127 78.3387
17254 1 64.0953 64.0953 0.7913
17255 1 65.6779 65.6779 2.3739
17256 1 64.0953 64.0953 3.9565
17257 1 65.6779 65.6779 5.5391
17258 1 64.0953 64.0953 7.1217
17259 1 65.6779 65.6779 8.7043
17260 1 64.0953 64.0953 10.2869
17261 1 65.6779 65.6779 11.8695
17262 1 64.0953 64.0953 13.4521
17263 1 65.6779 65.6779 15.0347
17264 1 64.0953 64.0953 16.6173
17265 1 65.6779 65.6779 18.1999
17266 1 64.0953 64.0953 19.7825
17267 1 65.6779 65.6779 21.3651
17268 1 64.0953 64.0953 22.9477
17269 1 65.6779 65.6779 24.5303
17270 1 64.0953 64.0953 26.1129
17271 1 65.6779 65.6779 27.6955
17272 1 64.0953 64.0953 29.2781
17273 1 65.6779 65.6779 30.8607
17274 1 64.0953 64.0953 32.4433
17275 1 65.6779 65.6779 34.0259
17276 1 64.0953 64.0953 35.6085
17277 1 65.6779 65.6779 37.1911
17278 1 64.0953 64.0953 38.7737
17279 1 65.6779 65.6779 40.3563
17280 1 64.0953 64.0953 41.9389
17281 1 65.6779 65.6779 43.5215
17282 1 64.0953 64.0953 45.1041
17283 1 65.6779 65.6779 46.6867
17284 1 64.0953 64.0953 48.2693
17285 1 65.6779 65.6779 49.8519
17286 1 64.0953 64.0953 51.4345
17287 1 65.6779 65.6779 53.0171
17288 1 64.0953 64.0953 54.5997
17289 1 65.6779 65.6779 56.1823
17290 1 64.0953 64.0953 57.7649
17291 1 65.6779 65.6779 59.3475
17292 1 64.0953 64.0953 60.9301
17293 1 65.6779 65.6779 62.5127
17294 1 64.0953 64.0953 64.0953
17295 1 65.6779 65.6779 65.6779
17296 1 64.0953 64.0953 67.2605
17297 1 65.6779 65.6779 68.8431
17298 1 64.0953 64.0953 70.4257
17299 1 65.6779 65.6779 72.0083
17300 1 64.0953 64.0953 73.5909
17301 1 65.6779 65.6779 75.1735
17302 1 64.0953 64.0953 76.7561
17303 1 65.6779 65.6779 78.3387
17304 1 64.0953 67.2605 0.7913
17305 1 65.6779 68.8431 2.3739
17306 1 64.0953 67.2605 3.9565
17307 1 65.6779 68.8431 5.5391
17308 1 64.0953 67.2605 7.1217
17309 1 65.6779 68.8431 8.7043
17310 1 64.0953 67.2605 10.2869
17311 1 65.6779 68.8431 11.8695
17312 1 64.0953 67.2605 13.4521
17313 1 65.6779 68.8431 15.0347
17314 1 64.0953 67.2605 16.6173
17315 1 65.6779 68.8431 18.1999
17316 1 64.0953 67.2605 19.7825
17317 1 65.6779 68.8431 21.3651
17318 1 64.0953 67.2605 22.9477
17319 1 65.6779 68.8431 24.5303
17320 1 64.0953 67.2605 26.1129
17321 1 65.6779 68.8431 27.6955
17322 1 64.0953 67.2605 29.2781
17323 1 65.6779 68.8431 30.8607
17324 1 64.0953 67.2605 32.4433
17325 1 65.6779 68.8431 34.0259
17326 1 64.0953 67.2605 35.6085
17327 1 65.6779 68.8431 37.1911
17328 1 64.0953 67.2605 38.7737
17329 1 65.6779 68.8431 40.3563
17330 1 64.0953 67.2605 41.9389
17331 1 65.6779 68.8431 43.5215
17332 1 64.0953 67.2605 45.1041
17333 1 65.6779 68.8431 46.6867
17334 1 64.0953 67.2605 48.2693
17335 1 65.6779 68.8431 49.8519
17336 1 64.0953 67.2605 51.4345
17337 1 65.6779 68.8431 53.0171
17338 1 64.0953 67.2605 54.5997
17339 1 65.6779 68.8431 56.1823
17340 1 64.0953 67.2605 57.7649
17341 1 65.6779 68.8431 59.3475
17342 1 64.0953 67.2605 60.9301
17343 1 65.6779 68.8431 62.5127
17344 1 64.0953 67.2605 64.0953
17345 1 65.6779 68.8431 65.6779
17346 1 64.0953 67.2605 67.2605
17347 1 65.6779 68.8431 68.8431
17348 1 64.0953 67.2605 70.4257
17349 1 65.6779 68.8431 72.0083
17350 1 64.0953 67.2605 73.5909
17351 1 65.6779 68.8431 75.1735
17352 1 64.0953 67.2605 76.7561
17353 1 65.6779 68.8431 78.3387
17354 1 64.0953 70.4257 0.7913
17355 1 65.6779 72.0083 2.3739
17356 1 64.0953 70.4257 3.9565
17357 1 65.6779 72.0083 5.5391
17358 1 64.0953 70.4257 7.1217
17359 1 65.6779 72.0083 8.7043
17360 1 64.0953 70.4257 10.2869
17361 1 65.6779 72.0083 11.8695
17362 1 64.0953 70.4257 13.4521
17363 1 65.6779 72.0083 15.0347
17364 1 64.0953 70.4257 16.6173
17365 1 65.6779 72.0083 18.1999
17366 1 64.0953 70.4257 19.7825
17367 1 65.6779 72.0083 21.3651
17368 1 64.0953 70.4257 22.9477
17369 1 65.6779 72.0083 24.5303
17370 1 64.0953 70.4257 26.1129
17371 1 65.6779 72.0083 27.6955
17372 1 64.0953 70.4257 29.2781
17373 1 65.6779 72.0083 30.8607
17374 1 64.0953 70.4257 32.4433
17375 1 65.6779 72.0083 34.0259
17376 1 64.0953 70.4257 35.6085
17377 1 65.6779 72.0083 37.1911
17378 1 64.0953 70.4257 38.7737
17379 1 65.6779 72.0083 40.3563
17380 1 64.0953 70.4257 41.9389
17381 1 65.6779 72.0083 43.5215
17382 1 64.0953 70.4257 45.1041
17383 1 65.6779 72.0083 46.6867
17384 1 64.0953 70.4257 48.2693
17385 1 65.6779 72.0083 49.8519
17386 1 64.0953 70.4257 51.4345
17387 1 65.6779 72.0083 53.0171
17388 1 64.0953 70.4257 54.5997
17389 1 65.6779 72.0083 56.1823
17390 1 64.0953 70.4257 57.7649
17391 1 65.6779 72.0083 59.3475
17392 1 64.0953 70.4257 60.9301
17393 1 65.6779 72.0083 62.5127
17394 1 64.0953 70.4257 64.0953
17395 1 65.6779 72.0083 65.6779
17396 1 64.0953 70.4257 67.2605
17397 1 65.6779 72.0083 68.8431
17398 1 64.0953 70.4257 70.4257
17399 1 65.6779 72.0083 72.0083
17400 1 64.0953 70.4257 73.5909
17401 1 65.6779 72.0083 75.1735
17402 1 64.0953 70.4257 76.7561
17403 1 65.6779 72.0083 78.3387
17404 1 64.0953 73.5909 0.7913
17405 1 65.6779 75.1735 2.3739
17406 1 64.0953 73.5909 3.9565
17407 1 65.6779 75.1735 5.5391
17408 1 64.0953 73.5909 7.1217
17409 1 65.6779 75.1735 8.7043
17410 1 64.0953 73.5909 10.2869
17411 1 65.6779 75.1735 11.8695
17412 1 64.0953 73.5909 13.4521
17413 1 65.6779 75.1735 15.0347
17414 1 64.0953 73.5909 16.6173
17415 1 65.6779 75.1735 18.1999
17416 1 64.0953 73.5909 19.7825
17417 1 65.6779 75.1735 21.3651
17418 1 64.0953 73.5909 22.9477
17419 1 65.6779 75.1735 24.5303
17420 1 64.0953 73.5909 26.1129
17421 1 65.6779 75.1735 27.6955
17422 1 64.0953 73.5909 29.2781
17423 1 65.6779 75.1735 30.8607
17424 1 64.0953 73.5909 32.4433
17425 1 65.6779 75.1735 34.0259
17426 1 64.0953 73.5909 35.6085
17427 1 65.6779 75.1735 37.1911
17428 1 64.0953 73.5909 38.7737
17429 1 65.6779 75.1735 40.3563
17430 1 64.0953 73.5909 41.9389
17431 1 65.6779 75.1735 43.5215
17432 1 64.0953 73.5909 45.1041
17433 1 65.6779 75.1735 46.6867
17434 1 64.0953 73.5909 48.2693
17435 1 65.6779 75.1735 49.8519
17436 1 64.0953 73.5909 51.4345
17437 1 65.6779 75.1735 53.0171
17438 1 64.0953 73.5909 54.5997
17439 1 65.6779 75.1735 56.1823
17440 1 64.0953 73.5909 57.7649
17441 1 65.6779 75.1735 59.3475
17442 1 64.0953 73.5909 60.9301
17443 1 65.6779 75.1735 62.5127
17444 1 64.0953 73.5909 64.0953
17445 1 65.6779 75.1735 65.6779
17446 1 64.0953 73.5909 67.2605
17447 1 65.6779 75.1735 68.8431
17448 1 64.0953 73.5909 70.4257
17449 1 65.6779 75.1735 72.0083
17450 1 64.0953 73.5909 73.5909
17451 1 65.6779 75.1735 75.1735
17452 1 64.0953 73.5909 76.7561
17453 1 65.6779 75.1735 78.3387
17454 1 64.0953 76.7561 0.7913
17455 1 65.6779 78.3387 2.3739
17456 1 64.0953 76.7561 3.9565
17457 1 65.6779 78.3387 5.5391
17458 1 64.0953 76.7561 7.1217
17459 1 65.6779 78.3387 8.7043
17460 1 64.0953 76.7561 10.2869
17461 1 65.6779 78.3387 11.8695
17462 1 64.0953 76.7561 13.4521
17463 1 65.6779 78.3387 15.0347
17464 1 64.0953 76.7561 16.6173
17465 1 65.6779 78.3387 18.1999
17466 1 64.0953 76.7561 19.7825
17467 1 65.6779 78.3387 21.3651
17468 1 64.0953 76.7561 22.9477
17469 1 65.6779 78.3387 24.5303
17470 1 64.0953 76.7561 26.1129
17471 1 65.6779 78.3387 27.6955
17472 1 64.0953 76.7561 29.2781
17473 1 65.6779 78.3387 30.8607
17474 1 64.0953 76.7561 32.4433
17475 1 65.6779 78.3387 34.0259
17476 1 64.0953 76.7561 35.6085
17477 1 65.6779 78.3387 37.1911
17478 1 64.0953 76.7561 38.7737
17479 1 65.6779 78.3387 40.3563
17480 1 64.0953 76.7561 41.9389
17481 1 65.6779 78.3387 43.5215
17482 1 64.0953 76.7561 45.1041
17483 1 65.6779 78.3387 46.6867
17484 1 64.0953 76.7561 48.2693
17485 1 65.6779 78.3387 49.8519
17486 1 64.0953 76.7561 51.4345
17487 1 65.6779 78.3387 53.0171
17488 1 64.0953 76.7561 54.5997
17489 1 65.6779 78.3387 56.1823
17490 1 64.0953 76.7561 57.7649
17491 1 65.6779 78.3387 59.3475
17492 1 64.0953 76.7561 60.9301
17493 1 65.6779 78.3387 62.5127
17494 1 64.0953 76.7561 64.0953
17495 1 65.6779 78.3387 65.6779
17496 1 64.0953 76.7561 67.2605
17497 1 65.6779 78.3387 68.8431
17498 1 64.0953 76.7561 70.4257
17499 1 65.6779 78.3387 72.0083
17500 1 64.0953 76.7561 73.5909
17501 1 65.6779 78.3387 75.1735
17502 1 64.0953 76.7561 76.7561
17503 1 65.6779 78.3387 78.3387
17504 1 67.2605 0.7913 0.7913
17505 1 68.8431 2.3739 2.3739
17506 1 67.2605 0.7913 3.9565
17507 1 68.8431 2.3739 5.5391
17508 1 67.2605 0.7913 7.1217
17509 1 68.8431 2.3739 8.7043
17510 1 67.2605 0.7913 10.2869
17511 1 68.8431 2.3739 11.8695
17512 1 67.2605 0.7913 13.4521
17513 1 68.8431 2.3739 15.0347
17514 1 67.2605 0.7913 16.6173
17515 1 68.8431 2.3739 18.1999
17516 1 67.2605 0.7913 19.7825
17517 1 68.8431 2.3739 21.3651
17518 1 67.2605 0.7913 22.9477
17519 1 68.8431 2.3739 24.5303
17520 1 67.2605 0.7913 26.1129
17521 1 68.8431 2.3739 27.6955
17522 1 67.2605 0.7913 29.2781
17523 1 68.8431 2.3739 30.8607
17524 1 67.2605 0.7913 32.4433
17525 1 68.8431 2.3739 34.0259
17526 1 67.2605 0.7913 35.6085
17527 1 68.8431 2.3739 37.1911
17528 1 67.2605 0.7913 38.7737
17529 1 68.8431 2.3739 40.3563
17530 1 67.2605 0.7913 41.9389
17531 1 68.8431 2.3739 43.5215
17532 1 67.2605 0.7913 45.1041
17533 1 68.8431 2.3739 46.6867
17534 1 67.2605 0.7913 48.2693
17535 1 68.8431 2.3739 49.8519
17536 1 67.2605 0.7913 51.4345
17537 1 68.8431 2.3739 53.0171
17538 1 67.2605 0.7913 54.5997
17539 1 68.8431 2.3739 56.1823
17540 1 67.2605 0.7913 57.7649
17541 1 68.8431 2.3739 59.3475
17542 1 67.2605 0.7913 60.9301
17543 1 68.8431 2.3739 62.5127
17544 1 67.2605 0.7913 64.0953
17545 1 68.8431 2.3739 65.6779
17546 1 67.2605 0.7913 67.2605
17547 1 68.8431 2.3739 68.8431
17548 1 67.2605 0.7913 70.4257
17549 1 68.8431 2.3739 72.0083
17550 1 67.2605 0.7913 73.5909
17551 1 68.8431 2.3739 75.1735
17552 1 67.2605 0.7913 76.7561
17553 1 68.8431 2.3739 78.3387
17554 1 67.2605 3.9565 0.7913
17555 1 68.8431 5.5391 2.3739
17556 1 67.2605 3.9565 3.9565
17557 1 68.8431 5.5391 5.5391
17558 1 67.2605 3.9565 7.1217
17559 1 68.8431 5.5391 8.7043
17560 1 67.2605 3.9565 10.2869
17561 1 68.8431 5.5391 11.8695
17562 1 67.2605 3.9565 13.4521
17563 1 68.8431 5.5391 15.0347
17564 1 67.2605 3.9565 16.6173
17565 1 68.8431 5.5391 18.1999
17566 1 67.2605 3.9565 19.7825
17567 1 68.8431 5.5391 21.3651
17568 1 67.2605 3.9565 22.9477
17569 1 68.8431 5.5391 24.5303
17570 1 67.2605 3.9565 26.1129
17571 1 68.8431 5.5391 27.6955
17572 1 67.2605 3.9565 29.2781
17573 1 68.8431 5.5391 30.8607
17574 1 67.2605 3.9565 32.4433
17575 1 68.8431 5.5391 34.0259
17576 1 67.2605 3.9565 35.6085
17577 1 68.8431 5.5391 37.1911
17578 1 67.2605 3.9565 38.7737
17579 1 68.8431 5.5391 40.3563
17580 1 67.2605 3.9565 41.9389
17581 1 68.8431 5.5391 43.5215
17582 1 67.2605 3.9565 45.1041
17583 1 68.8431 5.5391 46.6867
17584 1 67.2605 3.9565 48.2693
17585 1 68.8431 5.5391 49.8519
17586 1 67.2605 3.9565 51.4345
17587 1 68.8431 5.5391 53.0171
17588 1 67.2605 3.9565 54.5997
17589 1 68.8431 5.5391 56.1823
17590 1 67.2605 3.9565 57.7649
17591 1 68.8431 5.5391 59.3475
17592 1 67.2605 3.9565 60.9301
17593 1 68.8431 5.5391 62.5127
17594 1 67.2605 3.9565 64.0953
17595 1 68.8431 5.5391 65.6779
17596 1 67.2605 3.9565 67.2605
17597 1 68.8431 5.5391 68.8431
17598 1 67.2605 3.9565 70.4257
17599 1 68.8431 5.5391 72.0083
17600 1 67.2605 3.9565 73.5909
17601 1 68.8431 5.5391 75.1735
17602 1 67.2605 3.9565 76.7561
17603 1 68.8431 5.5391 78.3387
17604 1 67.2605 7.1217 0.7913
17605 1 68.8431 8.7043 2.3739
17606 1 67.2605 7.1217 3.9565
17607 1 68.8431 8.7043 5.5391
17608 1 67.2605 7.1217 7.1217
17609 1 68.8431 8.7043 8.7043
17610 1 67.2605 7.1217 10.2869
17611 1 68.8431 8.7043 11.8695
17612 1 67.2605 7.1217 13.4521
17613 1 68.8431 8.7043 15.0347
17614 1 67.2605 7.1217 16.6173
17615 1 68.8431 8.7043 18.1999
17616 1 67.2605 7.1217 19.7825
17617 1 68.8431 8.7043 21.3651
17618 1 67.2605 7.1217 22.9477
17619 1 68.8431 8.7043 24.5303
17620 1 67.2605 7.1217 26.1129
17621 1 68.8431 8.7043 27.6955
17622 1 67.2605 7.1217 29.2781
17623 1 68.8431 8.7043 30.8607
17624 1 67.2605 7.1217 32.4433
17625 1 68.8431 8.7043 34.0259
17626 1 67.2605 7.1217 35.6085
17627 1 68.8431 8.7043 37.1911
17628 1 67.2605 7.1217 38.7737
17629 1 68.8431 8.7043 40.3563
17630 1 67.2605 7.1217 41.9389
17631 1 68.8431 8.7043 43.5215
17632 1 67.2605 7.1217 45.1041
17633 1 68.8431 8.7043 46.6867
17634 1 67.2605 7.1217 48.2693
17635 1 68.8431 8.7043 49.8519
17636 1 67.2605 7.1217 51.4345
17637 1 68.8431 8.7043 53.0171
17638 1 67.2605 7.1217 54.5997
17639 1 68.8431 8.7043 56.1823
17640 1 67.2605 7.1217 57.7649
17641 1 68.8431 8.7043 59.3475
17642 1 67.2605 7.1217 60.9301
17643 1 68.8431 8.7043 62.5127
17644 1 67.2605 7.1217 64.0953
17645 1 68.8431 8.7043 65.6779
17646 1 67.2605 7.1217 67.2605
17647 1 68.8431 8.7043 68.8431
17648 1 67.2605 7.1217 70.4257
17649 1 68.8431 8.7043 72.0083
17650 1 67.2605 7.1217 73.5909
17651 1 68.8431 8.7043 75.1735
17652 1 67.2605 7.1217 76.7561
17653 1 68.8431 8.7043 78.3387
17654 1 67.2605 10.2869 0.7913
17655 1 68.8431 11.8695 2.3739
17656 1 67.2605 10.2869 3.9565
17657 1 68.8431 11.8695 5.5391
17658 1 67.2605 10.2869 7.1217
17659 1 68.8431 11.8695 8.7043
17660 1 67.2605 10.2869 10.2869
17661 1 68.8431 11.8695 11.8695
17662 1 67.2605 10.2869 13.4521
17663 1 68.8431 11.8695 15.0347
17664 1 67.2605 10.2869 16.6173
17665 1 68.8431 11.8695 18.1999
17666 1 67.2605 10.2869 19.7825
17667 1 68.8431 11.8695 21.3651
17668 1 67.2605 10.2869 22.9477
17669 1 68.8431 11.8695 24.5303
17670 1 67.2605 10.2869 26.1129
17671 1 68.8431 11.8695 27.6955
17672 1 67.2605 10.2869 29.2781
17673 1 68.8431 11.8695 30.8607
17674 1 67.2605 10.2869 32.4433
17675 1 68.8431 11.8695 34.0259
17676 1 67.2605 10.2869 35.6085
17677 1 68.8431 11.8695 37.1911
17678 1 67.2605 10.2869 38.7737
17679 1 68.8431 11.8695 40.3563
17680 1 67.2605 10.2869 41.9389
17681 1 68.8431 11.8695 43.5215
17682 1 67.2605 10.2869 45.1041
17683 1 68.8431 11.8695 46.6867
17684 1 67.2605 10.2869 48.2693
17685 1 68.8431 11.8695 49.8519
17686 1 67.2605 10.2869 51.4345
17687 1 68.8431 11.8695 53.0171
17688 1 67.2605 10.2869 54.5997
17689 1 68.8431 11.8695 56.1823
17690 1 67.2605 10.2869 57.7649
17691 1 68.8431 11.8695 59.3475
17692 1 67.2605 10.2869 60.9301
17693 1 68.8431 11.8695 62.5127
17694 1 67.2605 10.2869 64.0953
17695 1 68.8431 11.8695 65.6779
17696 1 67.2605 10.2869 67.2605
17697 1 68.8431 11.8695 68.8431
17698 1 67.2605 10.2869 70.4257
17699 1 68.8431 11.8695 72.0083
17700 1 67.2605 10.2869 73.5909
17701 1 68.8431 11.8695 75.1735
17702 1 67.2605 10.2869 76.7561
17703 1 68.8431 11.8695 78.3387
17704 1 67.2605 13.4521 0.7913
17705 1 68.8431 15.0347 2.3739
17706 1 67.2605 13.4521 3.9565
17707 1 68.8431 15.0347 5.5391
17708 1 67.2605 13.4521 7.1217
17709 1 68.8431 15.0347 8.7043
17710 1 67.2605 13.4521 10.2869
17711 1 68.8431 15.0347 11.8695
17712 1 67.2605 13.4521 13.4521
17713 1 68.8431 15.0347 15.0347
17714 1 67.2605 13.4521 16.6173
17715 1 68.8431 15.0347 18.1999
17716 1 67.2605 13.4521 19.7825
17717 1 68.8431 15.0347 21.3651
17718 1 67.2605 13.4521 22.9477
17719 1 68.8431 15.0347 24.5303
17720 1 67.2605 13.4521 26.1129
17721 1 68.8431 15.0347 27.6955
17722 1 67.2605 13.4521 29.2781
17723 1 68.8431 15.0347 30.8607
17724 1 67.2605 13.4521 32.4433
17725 1 68.8431 15.0347 34.0259
17726 1 67.2605 13.4521 35.6085
17727 1 68.8431 15.0347 37.1911
17728 1 67.2605 13.4521 38.7737
17729 1 68.8431 15.0347 40.3563
17730 1 67.2605 13.4521 41.9389
17731 1 68.8431 15.0347 43.5215
17732 1 67.2605 13.4521 45.1041
17733 1 68.8431 15.0347 46.6867
17734 1 67.2605 13.4521 48.2693
17735 1 68.8431 15.0347 49.8519
17736 1 67.2605 13.4521 51.4345
17737 1 68.8431 15.0347 53.0171
17738 1 67.2605 13.4521 54.5997
17739 1 68.8431 15.0347 56.1823
17740 1 67.2605 13.4521 57.7649
17741 1 68.8431 15.0347 59.3475
17742 1 67.2605 13.4521 60.9301
17743 1 68.8431 15.0347 62.5127
17744 1 67.2605 13.4521 64.0953
17745 1 68.8431 15.0347 65.6779
17746 1 67.2605 13.4521 67.2605
17747 1 68.8431 15.0347 68.8431
17748 1 67.2605 13.4521 70.4257
17749 1 68.8431 15.0347 72.0083
17750 1 67.2605 13.4521 73.5909
17751 1 68.8431 15.0347 75.1735
17752 1 67.2605 13.4521 76.7561
17753 1 68.8431 15.0347 78.3387
17754 1 67.2605 16.6173 0.7913
17755 1 68.8431 18.1999 2.3739
17756 1 67.2605 16.6173 3.9565
17757 1 68.8431 18.1999 5.5391
17758 1 67.2605 16.6173 7.1217
17759 1 68.8431 18.1999 8.7043
17760 1 67.2605 16.6173 10.2869
17761 1 68.8431 18.1999 11.8695
17762 1 67.2605 16.6173 13.4521
17763 1 68.8431 18.1999 15.0347
17764 1 67.2605 16.6173 16.6173
17765 1 68.8431 18.1999 18.1999
17766 1 67.2605 16.6173 19.7825
17767 1 68.8431 18.1999 21.3651
17768 1 67.2605 16.6173 22.9477
17769 1 68.8431 18.1999 24.5303
17770 1 67.2605 16.6173 26.1129
17771 1 68.8431 18.1999 27.6955
17772 1 67.2605 16.6173 29.2781
17773 1 68.8431 18.1999 30.8607
17774 1 67.2605 16.6173 32.4433
17775 1 68.8431 18.1999 34.0259
17776 1 67.2605 16.6173 35.6085
17777 1 68.8431 18.1999 37.1911
17778 1 67.2605 16.6173 38.7737
17779 1 68.8431 18.1999 40.3563
17780 1 67.2605 16.6173 41.9389
17781 1 68.8431 18.1999 43.5215
17782 1 67.2605 16.6173 45.1041
17783 1 68.8431 18.1999 46.6867
17784 1 67.2605 16.6173 48.2693
17785 1 68.8431 18.1999 49.8519
17786 1 67.2605 16.6173 51.4345
17787 1 68.8431 18.1999 53.0171
17788 1 67.2605 16.6173 54.5997
17789 1 68.8431 18.1999 56.1823
17790 1 67.2605 16.6173 57.7649
17791 1 68.8431 18.1999 59.3475
17792 1 67.2605 16.6173 60.9301
17793 1 68.8431 18.1999 62.5127
17794 1 67.2605 16.6173 64.0953
17795 1 68.8431 18.1999 65.6779
17796 1 67.2605 16.6173 67.2605
17797 1 68.8431 18.1999 68.8431
17798 1 67.2605 16.6173 70.4257
17799 1 68.8431 18.1999 72.0083
17800 1 67.2605 16.6173 73.5909
17801 1 68.8431 18.1999 75.1735
17802 1 67.2605 16.6173 76.7561
17803 1 68.8431 18.1999 78.3387
17804 1 67.2605 19.7825 0.7913
17805 1 68.8431 21.3651 2.3739
17806 1 67.2605 19.7825 3.9565
17807 1 68.8431 21.3651 5.5391
17808 1 67.2605 19.7825 7.1217
17809 1 68.8431 21.3651 8.7043
17810 1 67.2605 19.7825 10.2869
17811 1 68.8431 21.3651 11.8695
17812 1 67.2605 19.7825 13.4521
17813 1 68.8431 21.3651 15.0347
17814 1 67.2605 19.7825 16.6173
17815 1 68.8431 21.3651 18.1999
17816 1 67.2605 19.7825 19.7825
17817 1 68.8431 21.3651 21.3651
17818 1 67.2605 19.7825 22.9477
17819 1 68.8431 21.3651 24.5303
17820 1 67.2605 19.7825 26.1129
17821 1 68.8431 21.3651 27.6955
17822 1 67.2605 19.7825 29.2781
17823 1 68.8431 21.3651 30.8607
17824 1 67.2605 19.7825 32.4433
17825 1 68.8431 21.3651 34.0259
17826 1 67.2605 19.7825 35.6085
17827 1 68.8431 21.3651 37.1911
17828 1 67.2605 19.7825 38.7737
17829 1 68.8431 21.3651 40.3563
17830 1 67.2605 19.7825 41.9389
17831 1 68.8431 21.3651 43.5215
17832 1 67.2605 19.7825 45.1041
17833 1 68.8431 21.3651 46.6867
17834 1 67.2605 19.7825 48.2693
17835 1 68.8431 21.3651 49.8519
17836 1 67.2605 19.7825 51.4345
17837 1 68.8431 21.3651 53.0171
17838 1 67.2605 19.7825 54.5997
17839 1 68.8431 21.3651 56.1823
17840 1 67.2605 19.7825 57.7649
17841 1 68.8431 21.3651 59.3475
17842 1 67.2605 19.7825 60.9301
17843 1 68.8431 21.3651 62.5127
17844 1 67.2605 19.7825 64.0953
17845 1 68.8431 21.3651 65.6779
17846 1 67.2605 19.7825 67.2605
17847 1 68.8431 21.3651 68.8431
17848 1 67.2605 19.7825 70.4257
17849 1 68.8431 21.3651 72.0083
17850 1 67.2605 19.7825 73.5909
17851 1 68.8431 21.3651 75.1735
17852 1 67.2605 19.7825 76.7561
17853 1 68.8431 21.3651 78.3387
17854 1 67.2605 22.9477 0.7913
17855 1 68.8431 24.5303 2.3739
17856 1 67.2605 22.9477 3.9565
17857 1 68.8431 24.5303 5.5391
17858 1 67.2605 22.9477 7.1217
17859 1 68.8431 24.5303 8.7043
17860 1 67.2605 22.9477 10.2869
17861 1 68.8431 24.5303 11.8695
17862 1 67.2605 22.9477 13.4521
17863 1 68.8431 24.5303 15.0347
17864 1 67.2605 22.9477 16.6173
17865 1 68.8431 24.5303 18.1999
17866 1 67.2605 22.9477 19.7825
17867 1 68.8431 24.5303 21.3651
17868 1 67.2605 22.9477 22.9477
17869 1 68.8431 24.5303 24.5303
17870 1 67.2605 22.9477 26.1129
17871 1 68.8431 24.5303 27.6955
17872 1 67.2605 22.9477 29.2781
17873 1 68.8431 24.5303 30.8607
17874 1 67.2605 22.9477 32.4433
17875 1 68.8431 24.5303 34.0259
17876 1 67.2605 22.9477 35.6085
17877 1 68.8431 24.5303 37.1911
17878 1 67.2605 22.9477 38.7737
17879 1 68.8431 24.5303 40.3563
17880 1 67.2605 22.9477 41.9389
17881 1 68.8431 24.5303 43.5215
17882 1 67.2605 22.9477 45.1041
17883 1 68.8431 24.5303 46.6867
17884 1 67.2605 22.9477 48.2693
17885 1 68.8431 24.5303 49.8519
17886 1 67.2605 22.9477 51.4345
17887 1 68.8431 24.5303 53.0171
17888 1 67.2605 22.9477 54.5997
17889 1 68.8431 24.5303 56.1823
17890 1 67.2605 22.9477 57.7649
17891 1 68.8431 24.5303 59.3475
17892 1 67.2605 22.9477 60.9301
17893 1 68.8431 24.5303 62.5127
17894 1 67.2605 22.9477 64.0953
17895 1 68.8431 24.5303 65.6779
17896 1 67.2605 22.9477 67.2605
17897 1 68.8431 24.5303 68.8431
17898 1 67.2605 22.9477 70.4257
17899 1 68.8431 24.5303 72.0083
17900 1 67.2605 22.9477 73.5909
17901 1 68.8431 24.5303 75.1735
17902 1 67.2605 22.9477 76.7561
17903 1 68.8431 24.5303 78.3387
17904 1 67.2605 26.1129 0.7913
17905 1 68.8431 27.6955 2.3739
17906 1 67.2605 26.1129 3.9565
17907 1 68.8431 27.6955 5.5391
17908 1 67.2605 26.1129 7.1217
17909 1 68.8431 27.6955 8.7043
17910 1 67.2605 26.1129 10.2869
17911 1 68.8431 27.6955 11.8695
17912 1 67.2605 26.1129 13.4521
17913 1 68.8431 27.6955 15.0347
17914 1 67.2605 26.1129 16.6173
17915 1 68.8431 27.6955 18.1999
17916 1 67.2605 26.1129 19.7825
17917 1 68.8431 27.6955 21.3651
17918 1 67.2605 26.1129 22.9477
17919 1 68.8431 27.6955 24.5303
17920 1 67.2605 26.1129 26.1129
17921 1 68.8431 27.6955 27.6955
17922 1 67.2605 26.1129 29.2781
17923 1 68.8431 27.6955 30.8607
17924 1 67.2605 26.1129 32.4433
17925 1 68.8431 27.6955 34.0259
17926 1 67.2605 26.1129 35.6085
17927 1 68.8431 27.6955 37.1911
17928 1 67.2605 26.1129 38.7737
17929 1 68.8431 27.6955 40.3563
17930 1 67.2605 26.1129 41.9389
17931 1 68.8431 27.6955 43.5215
17932 1 67.2605 26.1129 45.1041
17933 1 68.8431 27.6955 46.6867
17934 1 67.2605 26.1129 48.2693
17935 1 68.8431 27.6955 49.8519
17936 1 67.2605 26.1129 51.4345
17937 1 68.8431 27.6955 53.0171
17938 1 67.2605 26.1129 54.5997
17939 1 68.8431 27.6955 56.1823
17940 1 67.2605 26.1129 57.7649
17941 1 68.8431 27.6955 59.3475
17942 1 67.2605 26.1129 60.9301
17943 1 68.8431 27.6955 62.5127
17944 1 67.2605 26.1129 64.0953
17945 1 68.8431 27.6955 65.6779
17946 1 67.2605 26.1129 67.2605
17947 1 68.8431 27.6955 68.8431
17948 1 67.2605 26.1129 70.4257
17949 1 68.8431 27.6955 72.0083
17950 1 67.2605 26.1129 73.5909
17951 1 68.8431 27.6955 75.1735
17952 1 67.2605 26.1129 76.7561
17953 1 68.8431 27.6955 78.3387
17954 1 67.2605 29.2781 0.7913
17955 1 68.8431 30.8607 2.3739
17956 1 67.2605 29.2781 3.9565
17957 1 68.8431 30.8607 5.5391
17958 1 67.2605 29.2781 7.1217
17959 1 68.8431 30.8607 8.7043
17960 1 67.2605 29.2781 10.2869
17961 1 68.8431 30.8607 11.8695
17962 1 67.2605 29.2781 13.4521
17963 1 68.8431 30.8607 15.0347
17964 1 67.2605 29.2781 16.6173
17965 1 68.8431 30.8607 18.1999
17966 1 67.2605 29.2781 19.7825
17967 1 68.8431 30.8607 21.3651
17968 1 67.2605 29.2781 22.9477
17969 1 68.8431 30.8607 24.5303
17970 1 67.2605 29.2781 26.1129
17971 1 68.8431 30.8607 27.6955
17972 1 67.2605 29.2781 29.2781
17973 1 68.8431 30.8607 30.8607
17974 1 67.2605 29.2781 32.4433
17975 1 68.8431 30.8607 34.0259
17976 1 67.2605 29.2781 35.6085
17977 1 68.8431 30.8607 37.1911
17978 1 67.2605 29.2781 38.7737
17979 1 68.8431 30.8607 40.3563
17980 1 67.2605 29.2781 41.9389
17981 1 68.8431 30.8607 43.5215
17982 1 67.2605 29.2781 45.1041
17983 1 68.8431 30.8607 46.6867
17984 1 67.2605 29.2781 48.2693
17985 1 68.8431 30.8607 49.8519
17986 1 67.2605 29.2781 51.4345
17987 1 68.8431 30.8607 53.0171
17988 1 67.2605 29.2781 54.5997
17989 1 68.8431 30.8607 56.1823
17990 1 67.2605 29.2781 57.7649
17991 1 68.8431 30.8607 59.3475
17992 1 67.2605 29.2781 60.9301
17993 1 68.8431 30.8607 62.5127
17994 1 67.2605 29.2781 64.0953
17995 1 68.8431 30.8607 65.6779
17996 1 67.2605 29.2781 67.2605
17997 1 68.8431 30.8607 68.8431
17998 1 67.2605 29.2781 70.4257
17999 1 68.8431 30.8607 72.0083
18000 1 67.2605 29.2781 73.5909
18001 1 68.8431 30.8607 75.1735
18002 1 67.2605 29.2781 76.7561
18003 1 68.8431 30.8607 78.3387
18004 1 67.2605 32.4433 0.7913
18005 1 68.8431 34.0259 2.3739
18006 1 67.2605 32.4433 3.9565
18007 1 68.8431 34.0259 5.5391
18008 1 67.2605 32.4433 7.1217
18009 1 68.8431 34.0259 8.7043
18010 1 67.2605 32.4433 10.2869
18011 1 68.8431 34.0259 11.8695
18012 1 67.2605 32.4433 13.4521
18013 1 68.8431 34.0259 15.0347
18014 1 67.2605 32.4433 16.6173
18015 1 68.8431 34.0259 18.1999
18016 1 67.2605 32.4433 19.7825
18017 1 68.8431 34.0259 21.3651
18018 1 67.2605 32.4433 22.9477
18019 1 68.8431 34.0259 24.5303
18020 1 67.2605 32.4433 26.1129
18021 1 68.8431 34.0259 27.6955
18022 1 67.2605 32.4433 29.2781
18023 1 68.8431 34.0259 30.8607
18024 1 67.2605 32.4433 32.4433
18025 1 68.8431 34.0259 34.0259
18026 1 67.2605 32.4433 35.6085
18027 1 68.8431 34.0259 37.1911
18028 1 67.2605 32.4433 38.7737
18029 1 68.8431 34.0259 40.3563
18030 1 67.2605 32.4433 41.9389
18031 1 68.8431 34.0259 43.5215
18032 1 67.2605 32.4433 45.1041
18033 1 68.8431 34.0259 46.6867
18034 1 67.2605 32.4433 48.2693
18035 1 68.8431 34.0259 49.8519
18036 1 67.2605 32.4433 51.4345
18037 1 68.8431 34.0259 53.0171
18038 1 67.2605 32.4433 54.5997
18039 1 68.8431 34.0259 56.1823
18040 1 67.2605 32.4433 57.7649
18041 1 68.8431 34.0259 59.3475
18042 1 67.2605 32.4433 60.9301
18043 1 68.8431 34.0259 62.5127
18044 1 67.2605 32.4433 64.0953
18045 1 68.8431 34.0259 65.6779
18046 1 67.2605 32.4433 67.2605
18047 1 68.8431 34.0259 68.8431
18048 1 67.2605 32.4433 70.4257
18049 1 68.8431 34.0259 72.0083
18050 1 67.2605 32.4433 73.5909
18051 1 68.8431 34.0259 75.1735
18052 1 67.2605 32.4433 76.7561
18053 1 68.8431 34.0259 78.3387
18054 1 67.2605 35.6085 0.7913
18055 1 68.8431 37.1911 2.3739
18056 1 67.2605 35.6085 3.9565
18057 1 68.8431 37.1911 5.5391
18058 1 67.2605 35.6085 7.1217
18059 1 68.8431 37.1911 8.7043
18060 1 67.2605 35.6085 10.2869
18061 1 68.8431 37.1911 11.8695
18062 1 67.2605 35.6085 13.4521
18063 1 68.8431 37.1911 15.0347
18064 1 67.2605 35.6085 16.6173
18065 1 68.8431 37.1911 18.1999
18066 1 67.2605 35.6085 19.7825
18067 1 68.8431 37.1911 21.3651
18068 1 67.2605 35.6085 22.9477
18069 1 68.8431 37.1911 24.5303
18070 1 67.2605 35.6085 26.1129
18071 1 68.8431 37.1911 27.6955
18072 1 67.2605 35.6085 29.2781
18073 1 68.8431 37.1911 30.8607
18074 1 67.2605 35.6085 32.4433
18075 1 68.8431 37.1911 34.0259
18076 1 67.2605 35.6085 35.6085
18077 1 68.8431 37.1911 37.1911
18078 1 67.2605 35.6085 38.7737
18079 1 68.8431 37.1911 40.3563
18080 1 67.2605 35.6085 41.9389
18081 1 68.8431 37.1911 43.5215
18082 1 67.2605 35.6085 45.1041
18083 1 68.8431 37.1911 46.6867
18084 1 67.2605 35.6085 48.2693
18085 1 68.8431 37.1911 49.8519
18086 1 67.2605 35.6085 51.4345
18087 1 68.8431 37.1911 53.0171
18088 1 67.2605 35.6085 54.5997
18089 1 68.8431 37.1911 56.1823
18090 1 67.2605 35.6085 57.7649
18091 1 68.8431 37.1911 59.3475
18092 1 67.2605 35.6085 60.9301
18093 1 68.8431 37.1911 62.5127
18094 1 67.2605 35.6085 64.0953
18095 1 68.8431 37.1911 65.6779
18096 1 67.2605 35.6085 67.2605
18097 1 68.8431 37.1911 68.8431
18098 1 67.2605 35.6085 70.4257
18099 1 68.8431 37.1911 72.0083
18100 1 67.2605 35.6085 73.5909
18101 1 68.8431 37.1911 75.1735
18102 1 67.2605 35.6085 76.7561
18103 1 68.8431 37.1911 78.3387
18104 1 67.2605 38.7737 0.7913
18105 1 68.8431 40.3563 2.3739
18106 1 67.2605 38.7737 3.9565
18107 1 68.8431 40.3563 5.5391
18108 1 67.2605 38.7737 7.1217
18109 1 68.8431 40.3563 8.7043
18110 1 67.2605 38.7737 10.2869
18111 1 68.8431 40.3563 11.8695
18112 1 67.2605 38.7737 13.4521
18113 1 68.8431 40.3563 15.0347
18114 1 67.2605 38.7737 16.6173
18115 1 68.8431 40.3563 18.1999
18116 1 67.2605 38.7737 19.7825
18117 1 68.8431 40.3563 21.3651
18118 1 67.2605 38.7737 22.9477
18119 1 68.8431 40.3563 24.5303
18120 1 67.2605 38.7737 26.1129
18121 1 68.8431 40.3563 27.6955
18122 1 67.2605 38.7737 29.2781
18123 1 68.8431 40.3563 30.8607
18124 1 67.2605 38.7737 32.4433
18125 1 68.8431 40.3563 34.0259
18126 1 67.2605 38.7737 35.6085
18127 1 68.8431 40.3563 37.1911
18128 1 67.2605 38.7737 38.7737
18129 1 68.8431 40.3563 40.3563
18130 1 67.2605 38.7737 41.9389
18131 1 68.8431 40.3563 43.5215
18132 1 67.2605 38.7737 45.1041
18133 1 68.8431 40.3563 46.6867
18134 1 67.2605 38.7737 48.2693
18135 1 68.8431 40.3563 49.8519
18136 1 67.2605 38.7737 51.4345
18137 1 68.8431 40.3563 53.0171
18138 1 67.2605 38.7737 54.5997
18139 1 68.8431 40.3563 56.1823
18140 1 67.2605 38.7737 57.7649
18141 1 68.8431 40.3563 59.3475
18142 1 67.2605 38.7737 60.9301
18143 1 68.8431 40.3563 62.5127
18144 1 67.2605 38.7737 64.0953
18145 1 68.8431 40.3563 65.6779
18146 1 67.2605 38.7737 67.2605
18147 1 68.8431 40.3563 68.8431
18148 1 67.2605 38.7737 70.4257
18149 1 68.8431 40.3563 72.0083
18150 1 67.2605 38.7737 73.5909
18151 1 68.8431 40.3563 75.1735
18152 1 67.2605 38.7737 76.7561
18153 1 68.8431 40.3563 78.3387
18154 1 67.2605 41.9389 0.7913
18155 1 68.8431 43.5215 2.3739
18156 1 67.2605 41.9389 3.9565
18157 1 68.8431 43.5215 5.5391
18158 1 67.2605 41.9389 7.1217
18159 1 68.8431 43.5215 8.7043
18160 1 67.2605 41.9389 10.2869
18161 1 68.8431 43.5215 11.8695
18162 1 67.2605 41.9389 13.4521
18163 1 68.8431 43.5215 15.0347
18164 1 67.2605 41.9389 16.6173
18165 1 68.8431 43.5215 18.1999
18166 1 67.2605 41.9389 19.7825
18167 1 68.8431 43.5215 21.3651
18168 1 67.2605 41.9389 22.9477
18169 1 68.8431 43.5215 24.5303
18170 1 67.2605 41.9389 26.1129
18171 1 68.8431 43.5215 27.6955
18172 1 67.2605 41.9389 29.2781
18173 1 68.8431 43.5215 30.8607
18174 1 67.2605 41.9389 32.4433
18175 1 68.8431 43.5215 34.0259
18176 1 67.2605 41.9389 35.6085
18177 1 68.8431 43.5215 37.1911
18178 1 67.2605 41.9389 38.7737
18179 1 68.8431 43.5215 40.3563
18180 1 67.2605 41.9389 41.9389
18181 1 68.8431 43.5215 43.5215
18182 1 67.2605 41.9389 45.1041
18183 1 68.8431 43.5215 46.6867
18184 1 67.2605 41.9389 48.2693
18185 1 68.8431 43.5215 49.8519
18186 1 67.2605 41.9389 51.4345
18187 1 68.8431 43.5215 53.0171
18188 1 67.2605 41.9389 54.5997
18189 1 68.8431 43.5215 56.1823
18190 1 67.2605 41.9389 57.7649
18191 1 68.8431 43.5215 59.3475
18192 1 67.2605 41.9389 60.9301
18193 1 68.8431 43.5215 62.5127
18194 1 67.2605 41.9389 64.0953
18195 1 68.8431 43.5215 65.6779
18196 1 67.2605 41.9389 67.2605
18197 1 68.8431 43.5215 68.8431
18198 1 67.2605 41.9389 70.4257
18199 1 68.8431 43.5215 72.0083
18200 1 67.2605 41.9389 73.5909
18201 1 68.8431 43.5215 75.1735
18202 1 67.2605 41.9389 76.7561
18203 1 68.8431 43.5215 78.3387
18204 1 67.2605 45.1041 0.7913
18205 1 68.8431 46.6867 2.3739
18206 1 67.2605 45.1041 3.9565
18207 1 68.8431 46.6867 5.5391
18208 1 67.2605 45.1041 7.1217
18209 1 68.8431 46.6867 8.7043
18210 1 67.2605 45.1041 10.2869
18211 1 68.8431 46.6867 11.8695
18212 1 67.2605 45.1041 13.4521
18213 1 68.8431 46.6867 15.0347
18214 1 67.2605 45.1041 16.6173
18215 1 68.8431 46.6867 18.1999
18216 1 67.2605 45.1041 19.7825
18217 1 68.8431 46.6867 21.3651
18218 1 67.2605 45.1041 22.9477
18219 1 68.8431 46.6867 24.5303
18220 1 67.2605 45.1041 26.1129
18221 1 68.8431 46.6867 27.6955
18222 1 67.2605 45.1041 29.2781
18223 1 68.8431 46.6867 30.8607
18224 1 67.2605 45.1041 32.4433
18225 1 68.8431 46.6867 34.0259
18226 1 67.2605 45.1041 35.6085
18227 1 68.8431 46.6867 37.1911
18228 1 67.2605 45.1041 38.7737
18229 1 68.8431 46.6867 40.3563
18230 1 67.2605 45.1041 41.9389
18231 1 68.8431 46.6867 43.5215
18232 1 67.2605 45.1041 45.1041
18233 1 68.8431 46.6867 46.6867
18234 1 67.2605 45.1041 48.2693
18235 1 68.8431 46.6867 49.8519
18236 1 67.2605 45.1041 51.4345
18237 1 68.8431 46.6867 53.0171
18238 1 67.2605 45.1041 54.5997
18239 1 68.8431 46.6867 56.1823
18240 1 67.2605 45.1041 57.7649
18241 1 68.8431 46.6867 59.3475
18242 1 67.2605 45.1041 60.9301
18243 1 68.8431 46.6867 62.5127
18244 1 67.2605 45.1041 64.0953
18245 1 68.8431 46.6867 65.6779
18246 1 67.2605 45.1041 67.2605
18247 1 68.8431 46.6867 68.8431
18248 1 67.2605 45.1041 70.4257
18249 1 68.8431 46.6867 72.0083
18250 1 67.2605 45.1041 73.5909
18251 1 68.8431 46.6867 75.1735
18252 1 67.2605 45.1041 76.7561
18253 1 68.8431 46.6867 78.3387
18254 1 67.2605 48.2693 0.7913
18255 1 68.8431 49.8519 2.3739
18256 1 67.2605 48.2693 3.9565
18257 1 68.8431 49.8519 5.5391
18258 1 67.2605 48.2693 7.1217
18259 1 68.8431 49.8519 8.7043
18260 1 67.2605 48.2693 10.2869
18261 1 68.8431 49.8519 11.8695
18262 1 67.2605 48.2693 13.4521
18263 1 68.8431 49.8519 15.0347
18264 1 67.2605 48.2693 16.6173
18265 1 68.8431 49.8519 18.1999
18266 1 67.2605 48.2693 19.7825
18267 1 68.8431 49.8519 21.3651
18268 1 67.2605 48.2693 22.9477
18269 1 68.8431 49.8519 24.5303
18270 1 67.2605 48.2693 26.1129
18271 1 68.8431 49.8519 27.6955
18272 1 67.2605 48.2693 29.2781
18273 1 68.8431 49.8519 30.8607
18274 1 67.2605 48.2693 32.4433
18275 1 68.8431 49.8519 34.0259
18276 1 67.2605 48.2693 35.6085
18277 1 68.8431 49.8519 37.1911
18278 1 67.2605 48.2693 38.7737
18279 1 68.8431 49.8519 40.3563
18280 1 67.2605 48.2693 41.9389
18281 1 68.8431 49.8519 43.5215
18282 1 67.2605 48.2693 45.1041
18283 1 68.8431 49.8519 46.6867
18284 1 67.2605 48.2693 48.2693
18285 1 68.8431 49.8519 49.8519
18286 1 67.2605 48.2693 51.4345
18287 1 68.8431 49.8519 53.0171
18288 1 67.2605 48.2693 54.5997
18289 1 68.8431 49.8519 56.1823
18290 1 67.2605 48.2693 57.7649
18291 1 68.8431 49.8519 59.3475
18292 1 67.2605 48.2693 60.9301
18293 1 68.8431 49.8519 62.5127
18294 1 67.2605 48.2693 64.0953
18295 1 68.8431 49.8519 65.6779
18296 1 67.2605 48.2693 67.2605
18297 1 68.8431 49.8519 68.8431
18298 1 67.2605 48.2693 70.4257
18299 1 68.8431 49.8519 72.0083
18300 1 67.2605 48.2693 73.5909
18301 1 68.8431 49.8519 75.1735
18302 1 67.2605 48.2693 76.7561
18303 1 68.8431 49.8519 78.3387
18304 1 67.2605 51.4345 0.7913
18305 1 68.8431 53.0171 2.3739
18306 1 67.2605 51.4345 3.9565
18307 1 68.8431 53.0171 5.5391
18308 1 67.2605 51.4345 7.1217
18309 1 68.8431 53.0171 8.7043
18310 1 67.2605 51.4345 10.2869
18311 1 68.8431 53.0171 11.8695
18312 1 67.2605 51.4345 13.4521
18313 1 68.8431 53.0171 15.0347
18314 1 67.2605 51.4345 16.6173
18315 1 68.8431 53.0171 18.1999
18316 1 67.2605 51.4345 19.7825
18317 1 68.8431 53.0171 21.3651
18318 1 67.2605 51.4345 22.9477
18319 1 68.8431 53.0171 24.5303
18320 1 67.2605 51.4345 26.1129
18321 1 68.8431 53.0171 27.6955
18322 1 67.2605 51.4345 29.2781
18323 1 68.8431 53.0171 30.8607
18324 1 67.2605 51.4345 32.4433
18325 1 68.8431 53.0171 34.0259
18326 1 67.2605 51.4345 35.6085
18327 1 68.8431 53.0171 37.1911
18328 1 67.2605 51.4345 38.7737
18329 1 68.8431 53.0171 40.3563
18330 1 67.2605 51.4345 41.9389
18331 1 68.8431 53.0171 43.5215
18332 1 67.2605 51.4345 45.1041
18333 1 68.8431 53.0171 46.6867
18334 1 67.2605 51.4345 48.2693
18335 1 68.8431 53.0171 49.8519
18336 1 67.2605 51.4345 51.4345
18337 1 68.8431 53.0171 53.0171
18338 1 67.2605 51.4345 54.5997
18339 1 68.8431 53.0171 56.1823
18340 1 67.2605 51.4345 57.7649
18341 1 68.8431 53.0171 59.3475
18342 1 67.2605 51.4345 60.9301
18343 1 68.8431 53.0171 62.5127
18344 1 67.2605 51.4345 64.0953
18345 1 68.8431 53.0171 65.6779
18346 1 67.2605 51.4345 67.2605
18347 1 68.8431 53.0171 68.8431
18348 1 67.2605 51.4345 70.4257
18349 1 68.8431 53.0171 72.0083
18350 1 67.2605 51.4345 73.5909
18351 1 68.8431 53.0171 75.1735
18352 1 67.2605 51.4345 76.7561
18353 1 68.8431 53.0171 78.3387
18354 1 67.2605 54.5997 0.7913
18355 1 68.8431 56.1823 2.3739
18356 1 67.2605 54.5997 3.9565
18357 1 68.8431 56.1823 5.5391
18358 1 67.2605 54.5997 7.1217
18359 1 68.8431 56.1823 8.7043
18360 1 67.2605 54.5997 10.2869
18361 1 68.8431 56.1823 11.8695
18362 1 67.2605 54.5997 13.4521
18363 1 68.8431 56.1823 15.0347
18364 1 67.2605 54.5997 16.6173
18365 1 68.8431 56.1823 18.1999
18366 1 67.2605 54.5997 19.7825
18367 1 68.8431 56.1823 21.3651
18368 1 67.2605 54.5997 22.9477
18369 1 68.8431 56.1823 24.5303
18370 1 67.2605 54.5997 26.1129
18371 1 68.8431 56.1823 27.6955
18372 1 67.2605 54.5997 29.2781
18373 1 68.8431 56.1823 30.8607
18374 1 67.2605 54.5997 32.4433
18375 1 68.8431 56.1823 34.0259
18376 1 67.2605 54.5997 35.6085
18377 1 68.8431 56.1823 37.1911
18378 1 67.2605 54.5997 38.7737
18379 1 68.8431 56.1823 40.3563
18380 1 67.2605 54.5997 41.9389
18381 1 68.8431 56.1823 43.5215
18382 1 67.2605 54.5997 45.1041
18383 1 68.8431 56.1823 46.6867
18384 1 67.2605 54.5997 48.2693
18385 1 68.8431 56.1823 49.8519
18386 1 67.2605 54.5997 51.4345
18387 1 68.8431 56.1823 53.0171
18388 1 67.2605 54.5997 54.5997
18389 1 68.8431 56.1823 56.1823
18390 1 67.2605 54.5997 57.7649
18391 1 68.8431 56.1823 59.3475
18392 1 67.2605 54.5997 60.9301
18393 1 68.8431 56.1823 62.5127
18394 1 67.2605 54.5997 64.0953
18395 1 68.8431 56.1823 65.6779
18396 1 67.2605 54.5997 67.2605
18397 1 68.8431 56.1823 68.8431
18398 1 67.2605 54.5997 70.4257
18399 1 68.8431 56.1823 72.0083
18400 1 67.2605 54.5997 73.5909
18401 1 68.8431 56.1823 75.1735
18402 1 67.2605 54.5997 76.7561
18403 1 68.8431 56.1823 78.3387
18404 1 67.2605 57.7649 0.7913
18405 1 68.8431 59.3475 2.3739
18406 1 67.2605 57.7649 3.9565
18407 1 68.8431 59.3475 5.5391
18408 1 67.2605 57.7649 7.1217
18409 1 68.8431 59.3475 8.7043
18410 1 67.2605 57.7649 10.2869
18411 1 68.8431 59.3475 11.8695
18412 1 67.2605 57.7649 13.4521
18413 1 68.8431 59.3475 15.0347
18414 1 67.2605 57.7649 16.6173
18415 1 68.8431 59.3475 18.1999
18416 1 67.2605 57.7649 19.7825
18417 1 68.8431 59.3475 21.3651
18418 1 67.2605 57.7649 22.9477
18419 1 68.8431 59.3475 24.5303
18420 1 67.2605 57.7649 26.1129
18421 1 68.8431 59.3475 27.6955
18422 1 67.2605 57.7649 29.2781
18423 1 68.8431 59.3475 30.8607
18424 1 67.2605 57.7649 32.4433
18425 1 68.8431 59.3475 34.0259
18426 1 67.2605 57.7649 35.6085
18427 1 68.8431 59.3475 37.1911
18428 1 67.2605 57.7649 38.7737
18429 1 68.8431 59.3475 40.3563
18430 1 67.2605 57.7649 41.9389
18431 1 68.8431 59.3475 43.5215
18432 1 67.2605 57.7649 45.1041
18433 1 68.8431 59.3475 46.6867
18434 1 67.2605 57.7649 48.2693
18435 1 68.8431 59.3475 49.8519
18436 1 67.2605 57.7649 51.4345
18437 1 68.8431 59.3475 53.0171
18438 1 67.2605 57.7649 54.5997
18439 1 68.8431 59.3475 56.1823
18440 1 67.2605 57.7649 57.7649
18441 1 68.8431 59.3475 59.3475
18442 1 67.2605 57.7649 60.9301
18443 1 68.8431 59.3475 62.5127
18444 1 67.2605 57.7649 64.0953
18445 1 68.8431 59.3475 65.6779
18446 1 67.2605 57.7649 67.2605
18447 1 68.8431 59.3475 68.8431
18448 1 67.2605 57.7649 70.4257
18449 1 68.8431 59.3475 72.0083
18450 1 67.2605 57.7649 73.5909
18451 1 68.8431 59.3475 75.1735
18452 1 67.2605 57.7649 76.7561
18453 1 68.8431 59.3475 78.3387
18454 1 67.2605 60.9301 0.7913
18455 1 68.8431 62.5127 2.3739
18456 1 67.2605 60.9301 3.9565
18457 1 68.8431 62.5127 5.5391
18458 1 67.2605 60.9301 7.1217
18459 1 68.8431 62.5127 8.7043
18460 1 67.2605 60.9301 10.2869
18461 1 68.8431 62.5127 11.8695
18462 1 67.2605 60.9301 13.4521
18463 1 68.8431 62.5127 15.0347
18464 1 67.2605 60.9301 16.6173
18465 1 68.8431 62.5127 18.1999
18466 1 67.2605 60.9301 19.7825
18467 1 68.8431 62.5127 21.3651
18468 1 67.2605 60.9301 22.9477
18469 1 68.8431 62.5127 24.5303
18470 1 67.2605 60.9301 26.1129
18471 1 68.8431 62.5127 27.6955
18472 1 67.2605 60.9301 29.2781
18473 1 68.8431 62.5127 30.8607
18474 1 67.2605 60.9301 32.4433
18475 1 68.8431 62.5127 34.0259
18476 1 67.2605 60.9301 35.6085
18477 1 68.8431 62.5127 37.1911
18478 1 67.2605 60.9301 38.7737
18479 1 68.8431 62.5127 40.3563
18480 1 67.2605 60.9301 41.9389
18481 1 68.8431 62.5127 43.5215
18482 1 67.2605 60.9301 45.1041
18483 1 68.8431 62.5127 46.6867
18484 1 67.2605 60.9301 48.2693
18485 1 68.8431 62.5127 49.8519
18486 1 67.2605 60.9301 51.4345
18487 1 68.8431 62.5127 53.0171
18488 1 67.2605 60.9301 54.5997
18489 1 68.8431 62.5127 56.1823
18490 1 67.2605 60.9301 57.7649
18491 1 68.8431 62.5127 59.3475
18492 1 67.2605 60.9301 60.9301
18493 1 68.8431 62.5127 62.5127
18494 1 67.2605 60.9301 64.0953
18495 1 68.8431 62.5127 65.6779
18496 1 67.2605 60.9301 67.2605
18497 1 68.8431 62.5127 68.8431
18498 1 67.2605 60.9301 70.4257
18499 1 68.8431 62.5127 72.0083
18500 1 67.2605 60.9301 73.5909
18501 1 68.8431 62.5127 75.1735
18502 1 67.2605 60.9301 76.7561
18503 1 68.8431 62.5127 78.3387
18504 1 67.2605 64.0953 0.7913
18505 1 68.8431 65.6779 2.3739
18506 1 67.2605 64.0953 3.9565
18507 1 68.8431 65.6779 5.5391
18508 1 67.2605 64.0953 7.1217
18509 1 68.8431 65.6779 8.7043
18510 1 67.2605 64.0953 10.2869
18511 1 68.8431 65.6779 11.8695
18512 1 67.2605 64.0953 13.4521
18513 1 68.8431 65.6779 15.0347
18514 1 67.2605 64.0953 16.6173
18515 1 68.8431 65.6779 18.1999
18516 1 67.2605 64.0953 19.7825
18517 1 68.8431 65.6779 21.3651
18518 1 67.2605 64.0953 22.9477
18519 1 68.8431 65.6779 24.5303
18520 1 67.2605 64.0953 26.1129
18521 1 68.8431 65.6779 27.6955
18522 1 67.2605 64.0953 29.2781
18523 1 68.8431 65.6779 30.8607
18524 1 67.2605 64.0953 32.4433
18525 1 68.8431 65.6779 34.0259
18526 1 67.2605 64.0953 35.6085
18527 1 68.8431 65.6779 37.1911
18528 1 67.2605 64.0953 38.7737
18529 1 68.8431 65.6779 40.3563
18530 1 67.2605 64.0953 41.9389
18531 1 68.8431 65.6779 43.5215
18532 1 67.2605 64.0953 45.1041
18533 1 68.8431 65.6779 46.6867
18534 1 67.2605 64.0953 48.2693
18535 1 68.8431 65.6779 49.8519
18536 1 67.2605 64.0953 51.4345
18537 1 68.8431 65.6779 53.0171
18538 1 67.2605 64.0953 54.5997
18539 1 68.8431 65.6779 56.1823
18540 1 67.2605 64.0953 57.7649
18541 1 68.8431 65.6779 59.3475
18542 1 67.2605 64.0953 60.9301
18543 1 68.8431 65.6779 62.5127
18544 1 67.2605 64.0953 64.0953
18545 1 68.8431 65.6779 65.6779
18546 1 67.2605 64.0953 67.2605
18547 1 68.8431 65.6779 68.8431
18548 1 67.2605 64.0953 70.4257
18549 1 68.8431 65.6779 72.0083
18550 1 67.2605 64.0953 73.5909
18551 1 68.8431 65.6779 75.1735
18552 1 67.2605 64.0953 76.7561
18553 1 68.8431 65.6779 78.3387
18554 1 67.2605 67.2605 0.7913
18555 1 68.8431 68.8431 2.3739
18556 1 67.2605 67.2605 3.9565
18557 1 68.8431 68.8431 5.5391
18558 1 67.2605 67.2605 7.1217
18559 1 68.8431 68.8431 8.7043
18560 1 67.2605 67.2605 10.2869
18561 1 68.8431 68.8431 11.8695
18562 1 67.2605 67.2605 13.4521
18563 1 68.8431 68.8431 15.0347
18564 1 67.2605 67.2605 16.6173
18565 1 68.8431 68.8431 18.1999
18566 1 67.2605 67.2605 19.7825
18567 1 68.8431 68.8431 21.3651
18568 1 67.2605 67.2605 22.9477
18569 1 68.8431 68.8431 24.5303
18570 1 67.2605 67.2605 26.1129
18571 1 68.8431 68.8431 27.6955
18572 1 67.2605 67.2605 29.2781
18573 1 68.8431 68.8431 30.8607
18574 1 67.2605 67.2605 32.4433
18575 1 68.8431 68.8431 34.0259
18576 1 67.2605 67.2605 35.6085
18577 1 68.8431 68.8431 37.1911
18578 1 67.2605 67.2605 38.7737
18579 1 68.8431 68.8431 40.3563
18580 1 67.2605 67.2605 41.9389
18581 1 68.8431 68.8431 43.5215
18582 1 67.2605 67.2605 45.1041
18583 1 68.8431 68.8431 46.6867
18584 1 67.2605 67.2605 48.2693
18585 1 68.8431 68.8431 49.8519
18586 1 67.2605 67.2605 51.4345
18587 1 68.8431 68.8431 53.0171
18588 1 67.2605 67.2605 54.5997
18589 1 68.8431 68.8431 56.1823
18590 1 67.2605 67.2605 57.7649
18591 1 68.8431 68.8431 59.3475
18592 1 67.2605 67.2605 60.9301
18593 1 68.8431 68.8431 62.5127
18594 1 67.2605 67.2605 64.0953
18595 1 68.8431 68.8431 65.6779
18596 1 67.2605 67.2605 67.2605
18597 1 68.8431 68.8431 68.8431
18598 1 67.2605 67.2605 70.4257
18599 1 68.8431 68.8431 72.0083
18600 1 67.2605 67.2605 73.5909
18601 1 68.8431 68.8431 75.1735
18602 1 67.2605 67.2605 76.7561
18603 1 68.8431 68.8431 78.3387
18604 1 67.2605 70.4257 0.7913
18605 1 68.8431 72.0083 2.3739
18606 1 67.2605 70.4257 3.9565
18607 1 68.8431 72.0083 5.5391
18608 1 67.2605 70.4257 7.1217
18609 1 68.8431 72.0083 8.7043
18610 1 67.2605 70.4257 10.2869
18611 1 68.8431 72.0083 11.8695
18612 1 67.2605 70.4257 13.4521
18613 1 68.8431 72.0083 15.0347
18614 1 67.2605 70.4257 16.6173
18615 1 68.8431 72.0083 18.1999
18616 1 67.2605 70.4257 19.7825
18617 1 68.8431 72.0083 21.3651
18618 1 67.2605 70.4257 22.9477
18619 1 68.8431 72.0083 24.5303
18620 1 67.2605 70.4257 26.1129
18621 1 68.8431 72.0083 27.6955
18622 1 67.2605 70.4257 29.2781
18623 1 68.8431 72.0083 30.8607
18624 1 67.2605 70.4257 32.4433
18625 1 68.8431 72.0083 34.0259
18626 1 67.2605 70.4257 35.6085
18627 1 68.8431 72.0083 37.1911
18628 1 67.2605 70.4257 38.7737
18629 1 68.8431 72.0083 40.3563
18630 1 67.2605 70.4257 41.9389
18631 1 68.8431 72.0083 43.5215
18632 1 67.2605 70.4257 45.1041
18633 1 68.8431 72.0083 46.6867
18634 1 67.2605 70.4257 48.2693
18635 1 68.8431 72.0083 49.8519
18636 1 67.2605 70.4257 51.4345
18637 1 68.8431 72.0083 53.0171
18638 1 67.2605 70.4257 54.5997
18639 1 68.8431 72.0083 56.1823
18640 1 67.2605 70.4257 57.7649
18641 1 68.8431 72.0083 59.3475
18642 1 67.2605 70.4257 60.9301
18643 1 68.8431 72.0083 62.5127
18644 1 67.2605 70.4257 64.0953
18645 1 68.8431 72.0083 65.6779
18646 1 67.2605 70.4257 67.2605
18647 1 68.8431 72.0083 68.8431
18648 1 67.2605 70.4257 70.4257
18649 1 68.8431 72.0083 72.0083
18650 1 67.2605 70.4257 73.5909
18651 1 68.8431 72.0083 75.1735
18652 1 67.2605 70.4257 76.7561
18653 1 68.8431 72.0083 78.3387
18654 1 67.2605 73.5909 0.7913
18655 1 68.8431 75.1735 2.3739
18656 1 67.2605 73.5909 3.9565
18657 1 68.8431 75.1735 5.5391
18658 1 67.2605 73.5909 7.1217
18659 1 68.8431 75.1735 8.7043
18660 1 67.2605 73.5909 10.2869
18661 1 68.8431 75.1735 11.8695
18662 1 67.2605 73.5909 13.4521
18663 1 68.8431 75.1735 15.0347
18664 1 67.2605 73.5909 16.6173
18665 1 68.8431 75.1735 18.1999
18666 1 67.2605 73.5909 19.7825
18667 1 68.8431 75.1735 21.3651
18668 1 67.2605 73.5909 22.9477
18669 1 68.8431 75.1735 24.5303
18670 1 67.2605 73.5909 26.1129
18671 1 68.8431 75.1735 27.6955
18672 1 67.2605 73.5909 29.2781
18673 1 68.8431 75.1735 30.8607
18674 1 67.2605 73.5909 32.4433
18675 1 68.8431 75.1735 34.0259
18676 1 67.2605 73.5909 35.6085
18677 1 68.8431 75.1735 37.1911
18678 1 67.2605 73.5909 38.7737
18679 1 68.8431 75.1735 40.3563
18680 1 67.2605 73.5909 41.9389
18681 1 68.8431 75.1735 43.5215
18682 1 67.2605 73.5909 45.1041
18683 1 68.8431 75.1735 46.6867
18684 1 67.2605 73.5909 48.2693
18685 1 68.8431 75.1735 49.8519
18686 1 67.2605 73.5909 51.4345
18687 1 68.8431 75.1735 53.0171
18688 1 67.2605 73.5909 54.5997
18689 1 68.8431 75.1735 56.1823
18690 1 67.2605 73.5909 57.7649
18691 1 68.8431 75.1735 59.3475
18692 1 67.2605 73.5909 60.9301
18693 1 68.8431 75.1735 62.5127
18694 1 67.2605 73.5909 64.0953
18695 1 68.8431 75.1735 65.6779
18696 1 67.2605 73.5909 67.2605
18697 1 68.8431 75.1735 68.8431
18698 1 67.2605 73.5909 70.4257
18699 1 68.8431 75.1735 72.0083
18700 1 67.2605 73.5909 73.5909
18701 1 68.8431 75.1735 75.1735
18702 1 67.2605 73.5909 76.7561
18703 1 68.8431 75.1735 78.3387
18704 1 67.2605 76.7561 0.7913
18705 1 68.8431 78.3387 2.3739
18706 1 67.2605 76.7561 3.9565
18707 1 68.8431 78.3387 5.5391
18708 1 67.2605 76.7561 7.1217
18709 1 68.8431 78.3387 8.7043
18710 1 67.2605 76.7561 10.2869
18711 1 68.8431 78.3387 11.8695
18712 1 67.2605 76.7561 13.4521
18713 1 68.8431 78.3387 15.0347
18714 1 67.2605 76.7561 16.6173
18715 1 68.8431 78.3387 18.1999
18716 1 67.2605 76.7561 19.7825
18717 1 68.8431 78.3387 21.3651
18718 1 67.2605 76.7561 22.9477
18719 1 68.8431 78.3387 24.5303
18720 1 67.2605 76.7561 26.1129
18721 1 68.8431 78.3387 27.6955
18722 1 67.2605 76.7561 29.2781
18723 1 68.8431 78.3387 30.8607
18724 1 67.2605 76.7561 32.4433
18725 1 68.8431 78.3387 34.0259
18726 1 67.2605 76.7561 35.6085
18727 1 68.8431 78.3387 37.1911
18728 1 67.2605 76.7561 38.7737
18729 1 68.8431 78.3387 40.3563
18730 1 67.2605 76.7561 41.9389
18731 1 68.8431 78.3387 43.5215
18732 1 67.2605 76.7561 45.1041
18733 1 68.8431 78.3387 46.6867
18734 1 67.2605 76.7561 48.2693
18735 1 68.8431 78.3387 49.8519
18736 1 67.2605 76.7561 51.4345
18737 1 68.8431 78.3387 53.0171
18738 1 67.2605 76.7561 54.5997
18739 1 68.8431 78.3387 56.1823
18740 1 67.2605 76.7561 57.7649
18741 1 68.8431 78.3387 59.3475
18742 1 67.2605 76.7561 60.9301
18743 1 68.8431 78.3387 62.5127
18744 1 67.2605 76.7561 64.0953
18745 1 68.8431 78.3387 65.6779
18746 1 67.2605 76.7561 67.2605
18747 1 68.8431 78.3387 68.8431
18748 1 67.2605 76.7561 70.4257
18749 1 68.8431 78.3387 72.0083
18750 1 67.2605 76.7561 73.5909
18751 1 68.8431 78.3387 75.1735
18752 1 67.2605 76.7561 76.7561
18753 1 68.8431 78.3387 78.3387
18754 1 70.4257 0.7913 0.7913
18755 1 72.0083 2.3739 2.3739
18756 1 70.4257 0.7913 3.9565
18757 1 72.0083 2.3739 5.5391
18758 1 70.4257 0.7913 7.1217
18759 1 72.0083 2.3739 8.7043
18760 1 70.4257 0.7913 10.2869
18761 1 72.0083 2.3739 11.8695
18762 1 70.4257 0.7913 13.4521
18763 1 72.0083 2.3739 15.0347
18764 1 70.4257 0.7913 16.6173
18765 1 72.0083 2.3739 18.1999
18766 1 70.4257 0.7913 19.7825
18767 1 72.0083 2.3739 21.3651
18768 1 70.4257 0.7913 22.9477
18769 1 72.0083 2.3739 24.5303
18770 1 70.4257 0.7913 26.1129
18771 1 72.0083 2.3739 27.6955
18772 1 70.4257 0.7913 29.2781
18773 1 72.0083 2.3739 30.8607
18774 1 70.4257 0.7913 32.4433
18775 1 72.0083 2.3739 34.0259
18776 1 70.4257 0.7913 35.6085
18777 1 72.0083 2.3739 37.1911
18778 1 70.4257 0.7913 38.7737
18779 1 72.0083 2.3739 40.3563
18780 1 70.4257 0.7913 41.9389
18781 1 72.0083 2.3739 43.5215
18782 1 70.4257 0.7913 45.1041
18783 1 72.0083 2.3739 46.6867
18784 1 70.4257 0.7913 48.2693
18785 1 72.0083 2.3739 49.8519
18786 1 70.4257 0.7913 51.4345
18787 1 72.0083 2.3739 53.0171
18788 1 70.4257 0.7913 54.5997
18789 1 72.0083 2.3739 56.1823
18790 1 70.4257 0.7913 57.7649
18791 1 72.0083 2.3739 59.3475
18792 1 70.4257 0.7913 60.9301
18793 1 72.0083 2.3739 62.5127
18794 1 70.4257 0.7913 64.0953
18795 1 72.0083 2.3739 65.6779
18796 1 70.4257 0.7913 67.2605
18797 1 72.0083 2.3739 68.8431
18798 1 70.4257 0.7913 70.4257
18799 1 72.0083 2.3739 72.0083
18800 1 70.4257 0.7913 73.5909
18801 1 72.0083 2.3739 75.1735
18802 1 70.4257 0.7913 76.7561
18803 1 72.0083 2.3739 78.3387
18804 1 70.4257 3.9565 0.7913
18805 1 72.0083 5.5391 2.3739
18806 1 70.4257 3.9565 3.9565
18807 1 72.0083 5.5391 5.5391
18808 1 70.4257 3.9565 7.1217
18809 1 72.0083 5.5391 8.7043
18810 1 70.4257 3.9565 10.2869
18811 1 72.0083 5.5391 11.8695
18812 1 70.4257 3.9565 13.4521
18813 1 72.0083 5.5391 15.0347
18814 1 70.4257 3.9565 16.6173
18815 1 72.0083 5.5391 18.1999
18816 1 70.4257 3.9565 19.7825
18817 1 72.0083 5.5391 21.3651
18818 1 70.4257 3.9565 22.9477
18819 1 72.0083 5.5391 24.5303
18820 1 70.4257 3.9565 26.1129
18821 1 72.0083 5.5391 27.6955
18822 1 70.4257 3.9565 29.2781
18823 1 72.0083 5.5391 30.8607
18824 1 70.4257 3.9565 32.4433
18825 1 72.0083 5.5391 34.0259
18826 1 70.4257 3.9565 35.6085
18827 1 72.0083 5.5391 37.1911
18828 1 70.4257 3.9565 38.7737
18829 1 72.0083 5.5391 40.3563
18830 1 70.4257 3.9565 41.9389
18831 1 72.0083 5.5391 43.5215
18832 1 70.4257 3.9565 45.1041
18833 1 72.0083 5.5391 46.6867
18834 1 70.4257 3.9565 48.2693
18835 1 72.0083 5.5391 49.8519
18836 1 70.4257 3.9565 51.4345
18837 1 72.0083 5.5391 53.0171
18838 1 70.4257 3.9565 54.5997
18839 1 72.0083 5.5391 56.1823
18840 1 70.4257 3.9565 57.7649
18841 1 72.0083 5.5391 59.3475
18842 1 70.4257 3.9565 60.9301
18843 1 72.0083 5.5391 62.5127
18844 1 70.4257 3.9565 64.0953
18845 1 72.0083 5.5391 65.6779
18846 1 70.4257 3.9565 67.2605
18847 1 72.0083 5.5391 68.8431
18848 1 70.4257 3.9565 70.4257
18849 1 72.0083 5.5391 72.0083
18850 1 70.4257 3.9565 73.5909
18851 1 72.0083 5.5391 75.1735
18852 1 70.4257 3.9565 76.7561
18853 1 72.0083 5.5391 78.3387
18854 1 70.4257 7.1217 0.7913
18855 1 72.0083 8.7043 2.3739
18856 1 70.4257 7.1217 3.9565
18857 1 72.0083 8.7043 5.5391
18858 1 70.4257 7.1217 7.1217
18859 1 72.0083 8.7043 8.7043
18860 1 70.4257 7.1217 10.2869
18861 1 72.0083 8.7043 11.8695
18862 1 70.4257 7.1217 13.4521
18863 1 72.0083 8.7043 15.0347
18864 1 70.4257 7.1217 16.6173
18865 1 72.0083 8.7043 18.1999
18866 1 70.4257 7.1217 19.7825
18867 1 72.0083 8.7043 21.3651
18868 1 70.4257 7.1217 22.9477
18869 1 72.0083 8.7043 24.5303
18870 1 70.4257 7.1217 26.1129
18871 1 72.0083 8.7043 27.6955
18872 1 70.4257 7.1217 29.2781
18873 1 72.0083 8.7043 30.8607
18874 1 70.4257 7.1217 32.4433
18875 1 72.0083 8.7043 34.0259
18876 1 70.4257 7.1217 35.6085
18877 1 72.0083 8.7043 37.1911
18878 1 70.4257 7.1217 38.7737
18879 1 72.0083 8.7043 40.3563
18880 1 70.4257 7.1217 41.9389
18881 1 72.0083 8.7043 43.5215
18882 1 70.4257 7.1217 45.1041
18883 1 72.0083 8.7043 46.6867
18884 1 70.4257 7.1217 48.2693
18885 1 72.0083 8.7043 49.8519
18886 1 70.4257 7.1217 51.4345
18887 1 72.0083 8.7043 53.0171
18888 1 70.4257 7.1217 54.5997
18889 1 72.0083 8.7043 56.1823
18890 1 70.4257 7.1217 57.7649
18891 1 72.0083 8.7043 59.3475
18892 1 70.4257 7.1217 60.9301
18893 1 72.0083 8.7043 62.5127
18894 1 70.4257 7.1217 64.0953
18895 1 72.0083 8.7043 65.6779
18896 1 70.4257 7.1217 67.2605
18897 1 72.0083 8.7043 68.8431
18898 1 70.4257 7.1217 70.4257
18899 1 72.0083 8.7043 72.0083
18900 1 70.4257 7.1217 73.5909
18901 1 72.0083 8.7043 75.1735
18902 1 70.4257 7.1217 76.7561
18903 1 72.0083 8.7043 78.3387
18904 1 70.4257 10.2869 0.7913
18905 1 72.0083 11.8695 2.3739
18906 1 70.4257 10.2869 3.9565
18907 1 72.0083 11.8695 5.5391
18908 1 70.4257 10.2869 7.1217
18909 1 72.0083 11.8695 8.7043
18910 1 70.4257 10.2869 10.2869
18911 1 72.0083 11.8695 11.8695
18912 1 70.4257 10.2869 13.4521
18913 1 72.0083 11.8695 15.0347
18914 1 70.4257 10.2869 16.6173
18915 1 72.0083 11.8695 18.1999
18916 1 70.4257 10.2869 19.7825
18917 1 72.0083 11.8695 21.3651
18918 1 70.4257 10.2869 22.9477
18919 1 72.0083 11.8695 24.5303
18920 1 70.4257 10.2869 26.1129
18921 1 72.0083 11.8695 27.6955
18922 1 70.4257 10.2869 29.2781
18923 1 72.0083 11.8695 30.8607
18924 1 70.4257 10.2869 32.4433
18925 1 72.0083 11.8695 34.0259
18926 1 70.4257 10.2869 35.6085
18927 1 72.0083 11.8695 37.1911
18928 1 70.4257 10.2869 38.7737
18929 1 72.0083 11.8695 40.3563
18930 1 70.4257 10.2869 41.9389
18931 1 72.0083 11.8695 43.5215
18932 1 70.4257 10.2869 45.1041
18933 1 72.0083 11.8695 46.6867
18934 1 70.4257 10.2869 48.2693
18935 1 72.0083 11.8695 49.8519
18936 1 70.4257 10.2869 51.4345
18937 1 72.0083 11.8695 53.0171
18938 1 70.4257 10.2869 54.5997
18939 1 72.0083 11.8695 56.1823
18940 1 70.4257 10.2869 57.7649
18941 1 72.0083 11.8695 59.3475
18942 1 70.4257 10.2869 60.9301
18943 1 72.0083 11.8695 62.5127
18944 1 70.4257 10.2869 64.0953
18945 1 72.0083 11.8695 65.6779
18946 1 70.4257 10.2869 67.2605
18947 1 72.0083 11.8695 68.8431
18948 1 70.4257 10.2869 70.4257
18949 1 72.0083 11.8695 72.0083
18950 1 70.4257 10.2869 73.5909
18951 1 72.0083 11.8695 75.1735
18952 1 70.4257 10.2869 76.7561
18953 1 72.0083 11.8695 78.3387
18954 1 70.4257 13.4521 0.7913
18955 1 72.0083 15.0347 2.3739
18956 1 70.4257 13.4521 3.9565
18957 1 72.0083 15.0347 5.5391
18958 1 70.4257 13.4521 7.1217
18959 1 72.0083 15.0347 8.7043
18960 1 70.4257 13.4521 10.2869
18961 1 72.0083 15.0347 11.8695
18962 1 70.4257 13.4521 13.4521
18963 1 72.0083 15.0347 15.0347
18964 1 70.4257 13.4521 16.6173
18965 1 72.0083 15.0347 18.1999
18966 1 70.4257 13.4521 19.7825
18967 1 72.0083 15.0347 21.3651
18968 1 70.4257 13.4521 22.9477
18969 1 72.0083 15.0347 24.5303
18970 1 70.4257 13.4521 26.1129
18971 1 72.0083 15.0347 27.6955
18972 1 70.4257 13.4521 29.2781
18973 1 72.0083 15.0347 30.8607
18974 1 70.4257 13.4521 32.4433
18975 1 72.0083 15.0347 34.0259
18976 1 70.4257 13.4521 35.6085
18977 1 72.0083 15.0347 37.1911
18978 1 70.4257 13.4521 38.7737
18979 1 72.0083 15.0347 40.3563
18980 1 70.4257 13.4521 41.9389
18981 1 72.0083 15.0347 43.5215
18982 1 70.4257 13.4521 45.1041
18983 1 72.0083 15.0347 46.6867
18984 1 70.4257 13.4521 48.2693
18985 1 72.0083 15.0347 49.8519
18986 1 70.4257 13.4521 51.4345
18987 1 72.0083 15.0347 53.0171
18988 1 70.4257 13.4521 54.5997
18989 1 72.0083 15.0347 56.1823
18990 1 70.4257 13.4521 57.7649
18991 1 72.0083 15.0347 59.3475
18992 1 70.4257 13.4521 60.9301
18993 1 72.0083 15.0347 62.5127
18994 1 70.4257 13.4521 64.0953
18995 1 72.0083 15.0347 65.6779
18996 1 70.4257 13.4521 67.2605
18997 1 72.0083 15.0347 68.8431
18998 1 70.4257 13.4521 70.4257
18999 1 72.0083 15.0347 72.0083
19000 1 70.4257 13.4521 73.5909
19001 1 72.0083 15.0347 75.1735
19002 1 70.4257 13.4521 76.7561
19003 1 72.0083 15.0347 78.3387
19004 1 70.4257 16.6173 0.7913
19005 1 72.0083 18.1999 2.3739
19006 1 70.4257 16.6173 3.9565
19007 1 72.0083 18.1999 5.5391
19008 1 70.4257 16.6173 7.1217
19009 1 72.0083 18.1999 8.7043
19010 1 70.4257 16.6173 10.2869
19011 1 72.0083 18.1999 11.8695
19012 1 70.4257 16.6173 13.4521
19013 1 72.0083 18.1999 15.0347
19014 1 70.4257 16.6173 16.6173
19015 1 72.0083 18.1999 18.1999
19016 1 70.4257 16.6173 19.7825
19017 1 72.0083 18.1999 21.3651
19018 1 70.4257 16.6173 22.9477
19019 1 72.0083 18.1999 24.5303
19020 1 70.4257 16.6173 26.1129
19021 1 72.0083 18.1999 27.6955
19022 1 70.4257 16.6173 29.2781
19023 1 72.0083 18.1999 30.8607
19024 1 70.4257 16.6173 32.4433
19025 1 72.0083 18.1999 34.0259
19026 1 70.4257 16.6173 35.6085
19027 1 72.0083 18.1999 37.1911
19028 1 70.4257 16.6173 38.7737
19029 1 72.0083 18.1999 40.3563
19030 1 70.4257 16.6173 41.9389
19031 1 72.0083 18.1999 43.5215
19032 1 70.4257 16.6173 45.1041
19033 1 72.0083 18.1999 46.6867
19034 1 70.4257 16.6173 48.2693
19035 1 72.0083 18.1999 49.8519
19036 1 70.4257 16.6173 51.4345
19037 1 72.0083 18.1999 53.0171
19038 1 70.4257 16.6173 54.5997
19039 1 72.0083 18.1999 56.1823
19040 1 70.4257 16.6173 57.7649
19041 1 72.0083 18.1999 59.3475
19042 1 70.4257 16.6173 60.9301
19043 1 72.0083 18.1999 62.5127
19044 1 70.4257 16.6173 64.0953
19045 1 72.0083 18.1999 65.6779
19046 1 70.4257 16.6173 67.2605
19047 1 72.0083 18.1999 68.8431
19048 1 70.4257 16.6173 70.4257
19049 1 72.0083 18.1999 72.0083
19050 1 70.4257 16.6173 73.5909
19051 1 72.0083 18.1999 75.1735
19052 1 70.4257 16.6173 76.7561
19053 1 72.0083 18.1999 78.3387
19054 1 70.4257 19.7825 0.7913
19055 1 72.0083 21.3651 2.3739
19056 1 70.4257 19.7825 3.9565
19057 1 72.0083 21.3651 5.5391
19058 1 70.4257 19.7825 7.1217
19059 1 72.0083 21.3651 8.7043
19060 1 70.4257 19.7825 10.2869
19061 1 72.0083 21.3651 11.8695
19062 1 70.4257 19.7825 13.4521
19063 1 72.0083 21.3651 15.0347
19064 1 70.4257 19.7825 16.6173
19065 1 72.0083 21.3651 18.1999
19066 1 70.4257 19.7825 19.7825
19067 1 72.0083 21.3651 21.3651
19068 1 70.4257 19.7825 22.9477
19069 1 72.0083 21.3651 24.5303
19070 1 70.4257 19.7825 26.1129
19071 1 72.0083 21.3651 27.6955
19072 1 70.4257 19.7825 29.2781
19073 1 72.0083 21.3651 30.8607
19074 1 70.4257 19.7825 32.4433
19075 1 72.0083 21.3651 34.0259
19076 1 70.4257 19.7825 35.6085
19077 1 72.0083 21.3651 37.1911
19078 1 70.4257 19.7825 38.7737
19079 1 72.0083 21.3651 40.3563
19080 1 70.4257 19.7825 41.9389
19081 1 72.0083 21.3651 43.5215
19082 1 70.4257 19.7825 45.1041
19083 1 72.0083 21.3651 46.6867
19084 1 70.4257 19.7825 48.2693
19085 1 72.0083 21.3651 49.8519
19086 1 70.4257 19.7825 51.4345
19087 1 72.0083 21.3651 53.0171
19088 1 70.4257 19.7825 54.5997
19089 1 72.0083 21.3651 56.1823
19090 1 70.4257 19.7825 57.7649
19091 1 72.0083 21.3651 59.3475
19092 1 70.4257 19.7825 60.9301
19093 1 72.0083 21.3651 62.5127
19094 1 70.4257 19.7825 64.0953
19095 1 72.0083 21.3651 65.6779
19096 1 70.4257 19.7825 67.2605
19097 1 72.0083 21.3651 68.8431
19098 1 70.4257 19.7825 70.4257
19099 1 72.0083 21.3651 72.0083
19100 1 70.4257 19.7825 73.5909
19101 1 72.0083 21.3651 75.1735
19102 1 70.4257 19.7825 76.7561
19103 1 72.0083 21.3651 78.3387
19104 1 70.4257 22.9477 0.7913
19105 1 72.0083 24.5303 2.3739
19106 1 70.4257 22.9477 3.9565
19107 1 72.0083 24.5303 5.5391
19108 1 70.4257 22.9477 7.1217
19109 1 72.0083 24.5303 8.7043
19110 1 70.4257 22.9477 10.2869
19111 1 72.0083 24.5303 11.8695
19112 1 70.4257 22.9477 13.4521
19113 1 72.0083 24.5303 15.0347
19114 1 70.4257 22.9477 16.6173
19115 1 72.0083 24.5303 18.1999
19116 1 70.4257 22.9477 19.7825
19117 1 72.0083 24.5303 21.3651
19118 1 70.4257 22.9477 22.9477
19119 1 72.0083 24.5303 24.5303
19120 1 70.4257 22.9477 26.1129
19121 1 72.0083 24.5303 27.6955
19122 1 70.4257 22.9477 29.2781
19123 1 72.0083 24.5303 30.8607
19124 1 70.4257 22.9477 32.4433
19125 1 72.0083 24.5303 34.0259
19126 1 70.4257 22.9477 35.6085
19127 1 72.0083 24.5303 37.1911
19128 1 70.4257 22.9477 38.7737
19129 1 72.0083 24.5303 40.3563
19130 1 70.4257 22.9477 41.9389
19131 1 72.0083 24.5303 43.5215
19132 1 70.4257 22.9477 45.1041
19133 1 72.0083 24.5303 46.6867
19134 1 70.4257 22.9477 48.2693
19135 1 72.0083 24.5303 49.8519
19136 1 70.4257 22.9477 51.4345
19137 1 72.0083 24.5303 53.0171
19138 1 70.4257 22.9477 54.5997
19139 1 72.0083 24.5303 56.1823
19140 1 70.4257 22.9477 57.7649
19141 1 72.0083 24.5303 59.3475
19142 1 70.4257 22.9477 60.9301
19143 1 72.0083 24.5303 62.5127
19144 1 70.4257 22.9477 64.0953
19145 1 72.0083 24.5303 65.6779
19146 1 70.4257 22.9477 67.2605
19147 1 72.0083 24.5303 68.8431
19148 1 70.4257 22.9477 70.4257
19149 1 72.0083 24.5303 72.0083
19150 1 70.4257 22.9477 73.5909
19151 1 72.0083 24.5303 75.1735
19152 1 70.4257 22.9477 76.7561
19153 1 72.0083 24.5303 78.3387
19154 1 70.4257 26.1129 0.7913
19155 1 72.0083 27.6955 2.3739
19156 1 70.4257 26.1129 3.9565
19157 1 72.0083 27.6955 5.5391
19158 1 70.4257 26.1129 7.1217
19159 1 72.0083 27.6955 8.7043
19160 1 70.4257 26.1129 10.2869
19161 1 72.0083 27.6955 11.8695
19162 1 70.4257 26.1129 13.4521
19163 1 72.0083 27.6955 15.0347
19164 1 70.4257 26.1129 16.6173
19165 1 72.0083 27.6955 18.1999
19166 1 70.4257 26.1129 19.7825
19167 1 72.0083 27.6955 21.3651
19168 1 70.4257 26.1129 22.9477
19169 1 72.0083 27.6955 24.5303
19170 1 70.4257 26.1129 26.1129
19171 1 72.0083 27.6955 27.6955
19172 1 70.4257 26.1129 29.2781
19173 1 72.0083 27.6955 30.8607
19174 1 70.4257 26.1129 32.4433
19175 1 72.0083 27.6955 34.0259
19176 1 70.4257 26.1129 35.6085
19177 1 72.0083 27.6955 37.1911
19178 1 70.4257 26.1129 38.7737
19179 1 72.0083 27.6955 40.3563
19180 1 70.4257 26.1129 41.9389
19181 1 72.0083 27.6955 43.5215
19182 1 70.4257 26.1129 45.1041
19183 1 72.0083 27.6955 46.6867
19184 1 70.4257 26.1129 48.2693
19185 1 72.0083 27.6955 49.8519
19186 1 70.4257 26.1129 51.4345
19187 1 72.0083 27.6955 53.0171
19188 1 70.4257 26.1129 54.5997
19189 1 72.0083 27.6955 56.1823
19190 1 70.4257 26.1129 57.7649
19191 1 72.0083 27.6955 59.3475
19192 1 70.4257 26.1129 60.9301
19193 1 72.0083 27.6955 62.5127
19194 1 70.4257 26.1129 64.0953
19195 1 72.0083 27.6955 65.6779
19196 1 70.4257 26.1129 67.2605
19197 1 72.0083 27.6955 68.8431
19198 1 70.4257 26.1129 70.4257
19199 1 72.0083 27.6955 72.0083
19200 1 70.4257 26.1129 73.5909
19201 1 72.0083 27.6955 75.1735
19202 1 70.4257 26.1129 76.7561
19203 1 72.0083 27.6955 78.3387
19204 1 70.4257 29.2781 0.7913
19205 1 72.0083 30.8607 2.3739
19206 1 70.4257 29.2781 3.9565
19207 1 72.0083 30.8607 5.5391
19208 1 70.4257 29.2781 7.1217
19209 1 72.0083 30.8607 8.7043
19210 1 70.4257 29.2781 10.2869
19211 1 72.0083 30.8607 11.8695
19212 1 70.4257 29.2781 13.4521
19213 1 72.0083 30.8607 15.0347
19214 1 70.4257 29.2781 16.6173
19215 1 72.0083 30.8607 18.1999
19216 1 70.4257 29.2781 19.7825
19217 1 72.0083 30.8607 21.3651
19218 1 70.4257 29.2781 22.9477
19219 1 72.0083 30.8607 24.5303
19220 1 70.4257 29.2781 26.1129
19221 1 72.0083 30.8607 27.6955
19222 1 70.4257 29.2781 29.2781
19223 1 72.0083 30.8607 30.8607
19224 1 70.4257 29.2781 32.4433
19225 1 72.0083 30.8607 34.0259
19226 1 70.4257 29.2781 35.6085
19227 1 72.0083 30.8607 37.1911
19228 1 70.4257 29.2781 38.7737
19229 1 72.0083 30.8607 40.3563
19230 1 70.4257 29.2781 41.9389
19231 1 72.0083 30.8607 43.5215
19232 1 70.4257 29.2781 45.1041
19233 1 72.0083 30.8607 46.6867
19234 1 70.4257 29.2781 48.2693
19235 1 72.0083 30.8607 49.8519
19236 1 70.4257 29.2781 51.4345
19237 1 72.0083 30.8607 53.0171
19238 1 70.4257 29.2781 54.5997
19239 1 72.0083 30.8607 56.1823
19240 1 70.4257 29.2781 57.7649
19241 1 72.0083 30.8607 59.3475
19242 1 70.4257 29.2781 60.9301
19243 1 72.0083 30.8607 62.5127
19244 1 70.4257 29.2781 64.0953
19245 1 72.0083 30.8607 65.6779
19246 1 70.4257 29.2781 67.2605
19247 1 72.0083 30.8607 68.8431
19248 1 70.4257 29.2781 70.4257
19249 1 72.0083 30.8607 72.0083
19250 1 70.4257 29.2781 73.5909
19251 1 72.0083 30.8607 75.1735
19252 1 70.4257 29.2781 76.7561
19253 1 72.0083 30.8607 78.3387
19254 1 70.4257 32.4433 0.7913
19255 1 72.0083 34.0259 2.3739
19256 1 70.4257 32.4433 3.9565
19257 1 72.0083 34.0259 5.5391
19258 1 70.4257 32.4433 7.1217
19259 1 72.0083 34.0259 8.7043
19260 1 70.4257 32.4433 10.2869
19261 1 72.0083 34.0259 11.8695
19262 1 70.4257 32.4433 13.4521
19263 1 72.0083 34.0259 15.0347
19264 1 70.4257 32.4433 16.6173
19265 1 72.0083 34.0259 18.1999
19266 1 70.4257 32.4433 19.7825
19267 1 72.0083 34.0259 21.3651
19268 1 70.4257 32.4433 22.9477
19269 1 72.0083 34.0259 24.5303
19270 1 70.4257 32.4433 26.1129
19271 1 72.0083 34.0259 27.6955
19272 1 70.4257 32.4433 29.2781
19273 1 72.0083 34.0259 30.8607
19274 1 70.4257 32.4433 32.4433
19275 1 72.0083 34.0259 34.0259
19276 1 70.4257 32.4433 35.6085
19277 1 72.0083 34.0259 37.1911
19278 1 70.4257 32.4433 38.7737
19279 1 72.0083 34.0259 40.3563
19280 1 70.4257 32.4433 41.9389
19281 1 72.0083 34.0259 43.5215
19282 1 70.4257 32.4433 45.1041
19283 1 72.0083 34.0259 46.6867
19284 1 70.4257 32.4433 48.2693
19285 1 72.0083 34.0259 49.8519
19286 1 70.4257 32.4433 51.4345
19287 1 72.0083 34.0259 53.0171
19288 1 70.4257 32.4433 54.5997
19289 1 72.0083 34.0259 56.1823
19290 1 70.4257 32.4433 57.7649
19291 1 72.0083 34.0259 59.3475
19292 1 70.4257 32.4433 60.9301
19293 1 72.0083 34.0259 62.5127
19294 1 70.4257 32.4433 64.0953
19295 1 72.0083 34.0259 65.6779
19296 1 70.4257 32.4433 67.2605
19297 1 72.0083 34.0259 68.8431
19298 1 70.4257 32.4433 70.4257
19299 1 72.0083 34.0259 72.0083
19300 1 70.4257 32.4433 73.5909
19301 1 72.0083 34.0259 75.1735
19302 1 70.4257 32.4433 76.7561
19303 1 72.0083 34.0259 78.3387
19304 1 70.4257 35.6085 0.7913
19305 1 72.0083 37.1911 2.3739
19306 1 70.4257 35.6085 3.9565
19307 1 72.0083 37.1911 5.5391
19308 1 70.4257 35.6085 7.1217
19309 1 72.0083 37.1911 8.7043
19310 1 70.4257 35.6085 10.2869
19311 1 72.0083 37.1911 11.8695
19312 1 70.4257 35.6085 13.4521
19313 1 72.0083 37.1911 15.0347
19314 1 70.4257 35.6085 16.6173
19315 1 72.0083 37.1911 18.1999
19316 1 70.4257 35.6085 19.7825
19317 1 72.0083 37.1911 21.3651
19318 1 70.4257 35.6085 22.9477
19319 1 72.0083 37.1911 24.5303
19320 1 70.4257 35.6085 26.1129
19321 1 72.0083 37.1911 27.6955
19322 1 70.4257 35.6085 29.2781
19323 1 72.0083 37.1911 30.8607
19324 1 70.4257 35.6085 32.4433
19325 1 72.0083 37.1911 34.0259
19326 1 70.4257 35.6085 35.6085
19327 1 72.0083 37.1911 37.1911
19328 1 70.4257 35.6085 38.7737
19329 1 72.0083 37.1911 40.3563
19330 1 70.4257 35.6085 41.9389
19331 1 72.0083 37.1911 43.5215
19332 1 70.4257 35.6085 45.1041
19333 1 72.0083 37.1911 46.6867
19334 1 70.4257 35.6085 48.2693
19335 1 72.0083 37.1911 49.8519
19336 1 70.4257 35.6085 51.4345
19337 1 72.0083 37.1911 53.0171
19338 1 70.4257 35.6085 54.5997
19339 1 72.0083 37.1911 56.1823
19340 1 70.4257 35.6085 57.7649
19341 1 72.0083 37.1911 59.3475
19342 1 70.4257 35.6085 60.9301
19343 1 72.0083 37.1911 62.5127
19344 1 70.4257 35.6085 64.0953
19345 1 72.0083 37.1911 65.6779
19346 1 70.4257 35.6085 67.2605
19347 1 72.0083 37.1911 68.8431
19348 1 70.4257 35.6085 70.4257
19349 1 72.0083 37.1911 72.0083
19350 1 70.4257 35.6085 73.5909
19351 1 72.0083 37.1911 75.1735
19352 1 70.4257 35.6085 76.7561
19353 1 72.0083 37.1911 78.3387
19354 1 70.4257 38.7737 0.7913
19355 1 72.0083 40.3563 2.3739
19356 1 70.4257 38.7737 3.9565
19357 1 72.0083 40.3563 5.5391
19358 1 70.4257 38.7737 7.1217
19359 1 72.0083 40.3563 8.7043
19360 1 70.4257 38.7737 10.2869
19361 1 72.0083 40.3563 11.8695
19362 1 70.4257 38.7737 13.4521
19363 1 72.0083 40.3563 15.0347
19364 1 70.4257 38.7737 16.6173
19365 1 72.0083 40.3563 18.1999
19366 1 70.4257 38.7737 19.7825
19367 1 72.0083 40.3563 21.3651
19368 1 70.4257 38.7737 22.9477
19369 1 72.0083 40.3563 24.5303
19370 1 70.4257 38.7737 26.1129
19371 1 72.0083 40.3563 27.6955
19372 1 70.4257 38.7737 29.2781
19373 1 72.0083 40.3563 30.8607
19374 1 70.4257 38.7737 32.4433
19375 1 72.0083 40.3563 34.0259
19376 1 70.4257 38.7737 35.6085
19377 1 72.0083 40.3563 37.1911
19378 1 70.4257 38.7737 38.7737
19379 1 72.0083 40.3563 40.3563
19380 1 70.4257 38.7737 41.9389
19381 1 72.0083 40.3563 43.5215
19382 1 70.4257 38.7737 45.1041
19383 1 72.0083 40.3563 46.6867
19384 1 70.4257 38.7737 48.2693
19385 1 72.0083 40.3563 49.8519
19386 1 70.4257 38.7737 51.4345
19387 1 72.0083 40.3563 53.0171
19388 1 70.4257 38.7737 54.5997
19389 1 72.0083 40.3563 56.1823
19390 1 70.4257 38.7737 57.7649
19391 1 72.0083 40.3563 59.3475
19392 1 70.4257 38.7737 60.9301
19393 1 72.0083 40.3563 62.5127
19394 1 70.4257 38.7737 64.0953
19395 1 72.0083 40.3563 65.6779
19396 1 70.4257 38.7737 67.2605
19397 1 72.0083 40.3563 68.8431
19398 1 70.4257 38.7737 70.4257
19399 1 72.0083 40.3563 72.0083
19400 1 70.4257 38.7737 73.5909
19401 1 72.0083 40.3563 75.1735
19402 1 70.4257 38.7737 76.7561
19403 1 72.0083 40.3563 78.3387
19404 1 70.4257 41.9389 0.7913
19405 1 72.0083 43.5215 2.3739
19406 1 70.4257 41.9389 3.9565
19407 1 72.0083 43.5215 5.5391
19408 1 70.4257 41.9389 7.1217
19409 1 72.0083 43.5215 8.7043
19410 1 70.4257 41.9389 10.2869
19411 1 72.0083 43.5215 11.8695
19412 1 70.4257 41.9389 13.4521
19413 1 72.0083 43.5215 15.0347
19414 1 70.4257 41.9389 16.6173
19415 1 72.0083 43.5215 18.1999
19416 1 70.4257 41.9389 19.7825
19417 1 72.0083 43.5215 21.3651
19418 1 70.4257 41.9389 22.9477
19419 1 72.0083 43.5215 24.5303
19420 1 70.4257 41.9389 26.1129
19421 1 72.0083 43.5215 27.6955
19422 1 70.4257 41.9389 29.2781
19423 1 72.0083 43.5215 30.8607
19424 1 70.4257 41.9389 32.4433
19425 1 72.0083 43.5215 34.0259
19426 1 70.4257 41.9389 35.6085
19427 1 72.0083 43.5215 37.1911
19428 1 70.4257 41.9389 38.7737
19429 1 72.0083 43.5215 40.3563
19430 1 70.4257 41.9389 41.9389
19431 1 72.0083 43.5215 43.5215
19432 1 70.4257 41.9389 45.1041
19433 1 72.0083 43.5215 46.6867
19434 1 70.4257 41.9389 48.2693
19435 1 72.0083 43.5215 49.8519
19436 1 70.4257 41.9389 51.4345
19437 1 72.0083 43.5215 53.0171
19438 1 70.4257 41.9389 54.5997
19439 1 72.0083 43.5215 56.1823
19440 1 70.4257 41.9389 57.7649
19441 1 72.0083 43.5215 59.3475
19442 1 70.4257 41.9389 60.9301
19443 1 72.0083 43.5215 62.5127
19444 1 70.4257 41.9389 64.0953
19445 1 72.0083 43.5215 65.6779
19446 1 70.4257 41.9389 67.2605
19447 1 72.0083 43.5215 68.8431
19448 1 70.4257 41.9389 70.4257
19449 1 72.0083 43.5215 72.0083
19450 1 70.4257 41.9389 73.5909
19451 1 72.0083 43.5215 75.1735
19452 1 70.4257 41.9389 76.7561
19453 1 72.0083 43.5215 78.3387
19454 1 70.4257 45.1041 0.7913
19455 1 72.0083 46.6867 2.3739
19456 1 70.4257 45.1041 3.9565
19457 1 72.0083 46.6867 5.5391
19458 1 70.4257 45.1041 7.1217
19459 1 72.0083 46.6867 8.7043
19460 1 70.4257 45.1041 10.2869
19461 1 72.0083 46.6867 11.8695
19462 1 70.4257 45.1041 13.4521
19463 1 72.0083 46.6867 15.0347
19464 1 70.4257 45.1041 16.6173
19465 1 72.0083 46.6867 18.1999
19466 1 70.4257 45.1041 19.7825
19467 1 72.0083 46.6867 21.3651
19468 1 70.4257 45.1041 22.9477
19469 1 72.0083 46.6867 24.5303
19470 1 70.4257 45.1041 26.1129
19471 1 72.0083 46.6867 27.6955
19472 1 70.4257 45.1041 29.2781
19473 1 72.0083 46.6867 30.8607
19474 1 70.4257 45.1041 32.4433
19475 1 72.0083 46.6867 34.0259
19476 1 70.4257 45.1041 35.6085
19477 1 72.0083 46.6867 37.1911
19478 1 70.4257 45.1041 38.7737
19479 1 72.0083 46.6867 40.3563
19480 1 70.4257 45.1041 41.9389
19481 1 72.0083 46.6867 43.5215
19482 1 70.4257 45.1041 45.1041
19483 1 72.0083 46.6867 46.6867
19484 1 70.4257 45.1041 48.2693
19485 1 72.0083 46.6867 49.8519
19486 1 70.4257 45.1041 51.4345
19487 1 72.0083 46.6867 53.0171
19488 1 70.4257 45.1041 54.5997
19489 1 72.0083 46.6867 56.1823
19490 1 70.4257 45.1041 57.7649
19491 1 72.0083 46.6867 59.3475
19492 1 70.4257 45.1041 60.9301
19493 1 72.0083 46.6867 62.5127
19494 1 70.4257 45.1041 64.0953
19495 1 72.0083 46.6867 65.6779
19496 1 70.4257 45.1041 67.2605
19497 1 72.0083 46.6867 68.8431
19498 1 70.4257 45.1041 70.4257
19499 1 72.0083 46.6867 72.0083
19500 1 70.4257 45.1041 73.5909
19501 1 72.0083 46.6867 75.1735
19502 1 70.4257 45.1041 76.7561
19503 1 72.0083 46.6867 78.3387
19504 1 70.4257 48.2693 0.7913
19505 1 72.0083 49.8519 2.3739
19506 1 70.4257 48.2693 3.9565
19507 1 72.0083 49.8519 5.5391
19508 1 70.4257 48.2693 7.1217
19509 1 72.0083 49.8519 8.7043
19510 1 70.4257 48.2693 10.2869
19511 1 72.0083 49.8519 11.8695
19512 1 70.4257 48.2693 13.4521
19513 1 72.0083 49.8519 15.0347
19514 1 70.4257 48.2693 16.6173
19515 1 72.0083 49.8519 18.1999
19516 1 70.4257 48.2693 19.7825
19517 1 72.0083 49.8519 21.3651
19518 1 70.4257 48.2693 22.9477
19519 1 72.0083 49.8519 24.5303
19520 1 70.4257 48.2693 26.1129
19521 1 72.0083 49.8519 27.6955
19522 1 70.4257 48.2693 29.2781
19523 1 72.0083 49.8519 30.8607
19524 1 70.4257 48.2693 32.4433
19525 1 72.0083 49.8519 34.0259
19526 1 70.4257 48.2693 35.6085
19527 1 72.0083 49.8519 37.1911
19528 1 70.4257 48.2693 38.7737
19529 1 72.0083 49.8519 40.3563
19530 1 70.4257 48.2693 41.9389
19531 1 72.0083 49.8519 43.5215
19532 1 70.4257 48.2693 45.1041
19533 1 72.0083 49.8519 46.6867
19534 1 70.4257 48.2693 48.2693
19535 1 72.0083 49.8519 49.8519
19536 1 70.4257 48.2693 51.4345
19537 1 72.0083 49.8519 53.0171
19538 1 70.4257 48.2693 54.5997
19539 1 72.0083 49.8519 56.1823
19540 1 70.4257 48.2693 57.7649
19541 1 72.0083 49.8519 59.3475
19542 1 70.4257 48.2693 60.9301
19543 1 72.0083 49.8519 62.5127
19544 1 70.4257 48.2693 64.0953
19545 1 72.0083 49.8519 65.6779
19546 1 70.4257 48.2693 67.2605
19547 1 72.0083 49.8519 68.8431
19548 1 70.4257 48.2693 70.4257
19549 1 72.0083 49.8519 72.0083
19550 1 70.4257 48.2693 73.5909
19551 1 72.0083 49.8519 75.1735
19552 1 70.4257 48.2693 76.7561
19553 1 72.0083 49.8519 78.3387
19554 1 70.4257 51.4345 0.7913
19555 1 72.0083 53.0171 2.3739
19556 1 70.4257 51.4345 3.9565
19557 1 72.0083 53.0171 5.5391
19558 1 70.4257 51.4345 7.1217
19559 1 72.0083 53.0171 8.7043
19560 1 70.4257 51.4345 10.2869
19561 1 72.0083 53.0171 11.8695
19562 1 70.4257 51.4345 13.4521
19563 1 72.0083 53.0171 15.0347
19564 1 70.4257 51.4345 16.6173
19565 1 72.0083 53.0171 18.1999
19566 1 70.4257 51.4345 19.7825
19567 1 72.0083 53.0171 21.3651
19568 1 70.4257 51.4345 22.9477
19569 1 72.0083 53.0171 24.5303
19570 1 70.4257 51.4345 26.1129
19571 1 72.0083 53.0171 27.6955
19572 1 70.4257 51.4345 29.2781
19573 1 72.0083 53.0171 30.8607
19574 1 70.4257 51.4345 32.4433
19575 1 72.0083 53.0171 34.0259
19576 1 70.4257 51.4345 35.6085
19577 1 72.0083 53.0171 37.1911
19578 1 70.4257 51.4345 38.7737
19579 1 72.0083 53.0171 40.3563
19580 1 70.4257 51.4345 41.9389
19581 1 72.0083 53.0171 43.5215
19582 1 70.4257 51.4345 45.1041
19583 1 72.0083 53.0171 46.6867
19584 1 70.4257 51.4345 48.2693
19585 1 72.0083 53.0171 49.8519
19586 1 70.4257 51.4345 51.4345
19587 1 72.0083 53.0171 53.0171
19588 1 70.4257 51.4345 54.5997
19589 1 72.0083 53.0171 56.1823
19590 1 70.4257 51.4345 57.7649
19591 1 72.0083 53.0171 59.3475
19592 1 70.4257 51.4345 60.9301
19593 1 72.0083 53.0171 62.5127
19594 1 70.4257 51.4345 64.0953
19595 1 72.0083 53.0171 65.6779
19596 1 70.4257 51.4345 67.2605
19597 1 72.0083 53.0171 68.8431
19598 1 70.4257 51.4345 70.4257
19599 1 72.0083 53.0171 72.0083
19600 1 70.4257 51.4345 73.5909
19601 1 72.0083 53.0171 75.1735
19602 1 70.4257 51.4345 76.7561
19603 1 72.0083 53.0171 78.3387
19604 1 70.4257 54.5997 0.7913
19605 1 72.0083 56.1823 2.3739
19606 1 70.4257 54.5997 3.9565
19607 1 72.0083 56.1823 5.5391
19608 1 70.4257 54.5997 7.1217
19609 1 72.0083 56.1823 8.7043
19610 1 70.4257 54.5997 10.2869
19611 1 72.0083 56.1823 11.8695
19612 1 70.4257 54.5997 13.4521
19613 1 72.0083 56.1823 15.0347
19614 1 70.4257 54.5997 16.6173
19615 1 72.0083 56.1823 18.1999
19616 1 70.4257 54.5997 19.7825
19617 1 72.0083 56.1823 21.3651
19618 1 70.4257 54.5997 22.9477
19619 1 72.0083 56.1823 24.5303
19620 1 70.4257 54.5997 26.1129
19621 1 72.0083 56.1823 27.6955
19622 1 70.4257 54.5997 29.2781
19623 1 72.0083 56.1823 30.8607
19624 1 70.4257 54.5997 32.4433
19625 1 72.0083 56.1823 34.0259
19626 1 70.4257 54.5997 35.6085
19627 1 72.0083 56.1823 37.1911
19628 1 70.4257 54.5997 38.7737
19629 1 72.0083 56.1823 40.3563
19630 1 70.4257 54.5997 41.9389
19631 1 72.0083 56.1823 43.5215
19632 1 70.4257 54.5997 45.1041
19633 1 72.0083 56.1823 46.6867
19634 1 70.4257 54.5997 48.2693
19635 1 72.0083 56.1823 49.8519
19636 1 70.4257 54.5997 51.4345
19637 1 72.0083 56.1823 53.0171
19638 1 70.4257 54.5997 54.5997
19639 1 72.0083 56.1823 56.1823
19640 1 70.4257 54.5997 57.7649
19641 1 72.0083 56.1823 59.3475
19642 1 70.4257 54.5997 60.9301
19643 1 72.0083 56.1823 62.5127
19644 1 70.4257 54.5997 64.0953
19645 1 72.0083 56.1823 65.6779
19646 1 70.4257 54.5997 67.2605
19647 1 72.0083 56.1823 68.8431
19648 1 70.4257 54.5997 70.4257
19649 1 72.0083 56.1823 72.0083
19650 1 70.4257 54.5997 73.5909
19651 1 72.0083 56.1823 75.1735
19652 1 70.4257 54.5997 76.7561
19653 1 72.0083 56.1823 78.3387
19654 1 70.4257 57.7649 0.7913
19655 1 72.0083 59.3475 2.3739
19656 1 70.4257 57.7649 3.9565
19657 1 72.0083 59.3475 5.5391
19658 1 70.4257 57.7649 7.1217
19659 1 72.0083 59.3475 8.7043
19660 1 70.4257 57.7649 10.2869
19661 1 72.0083 59.3475 11.8695
19662 1 70.4257 57.7649 13.4521
19663 1 72.0083 59.3475 15.0347
19664 1 70.4257 57.7649 16.6173
19665 1 72.0083 59.3475 18.1999
19666 1 70.4257 57.7649 19.7825
19667 1 72.0083 59.3475 21.3651
19668 1 70.4257 57.7649 22.9477
19669 1 72.0083 59.3475 24.5303
19670 1 70.4257 57.7649 26.1129
19671 1 72.0083 59.3475 27.6955
19672 1 70.4257 57.7649 29.2781
19673 1 72.0083 59.3475 30.8607
19674 1 70.4257 57.7649 32.4433
19675 1 72.0083 59.3475 34.0259
19676 1 70.4257 57.7649 35.6085
19677 1 72.0083 59.3475 37.1911
19678 1 70.4257 57.7649 38.7737
19679 1 72.0083 59.3475 40.3563
19680 1 70.4257 57.7649 41.9389
19681 1 72.0083 59.3475 43.5215
19682 1 70.4257 57.7649 45.1041
19683 1 72.0083 59.3475 46.6867
19684 1 70.4257 57.7649 48.2693
19685 1 72.0083 59.3475 49.8519
19686 1 70.4257 57.7649 51.4345
19687 1 72.0083 59.3475 53.0171
19688 1 70.4257 57.7649 54.5997
19689 1 72.0083 59.3475 56.1823
19690 1 70.4257 57.7649 57.7649
19691 1 72.0083 59.3475 59.3475
19692 1 70.4257 57.7649 60.9301
19693 1 72.0083 59.3475 62.5127
19694 1 70.4257 57.7649 64.0953
19695 1 72.0083 59.3475 65.6779
19696 1 70.4257 57.7649 67.2605
19697 1 72.0083 59.3475 68.8431
19698 1 70.4257 57.7649 70.4257
19699 1 72.0083 59.3475 72.0083
19700 1 70.4257 57.7649 73.5909
19701 1 72.0083 59.3475 75.1735
19702 1 70.4257 57.7649 76.7561
19703 1 72.0083 59.3475 78.3387
19704 1 70.4257 60.9301 0.7913
19705 1 72.0083 62.5127 2.3739
19706 1 70.4257 60.9301 3.9565
19707 1 72.0083 62.5127 5.5391
19708 1 70.4257 60.9301 7.1217
19709 1 72.0083 62.5127 8.7043
19710 1 70.4257 60.9301 10.2869
19711 1 72.0083 62.5127 11.8695
19712 1 70.4257 60.9301 13.4521
19713 1 72.0083 62.5127 15.0347
19714 1 70.4257 60.9301 16.6173
19715 1 72.0083 62.5127 18.1999
19716 1 70.4257 60.9301 19.7825
19717 1 72.0083 62.5127 21.3651
19718 1 70.4257 60.9301 22.9477
19719 1 72.0083 62.5127 24.5303
19720 1 70.4257 60.9301 26.1129
19721 1 72.0083 62.5127 27.6955
19722 1 70.4257 60.9301 29.2781
19723 1 72.0083 62.5127 30.8607
19724 1 70.4257 60.9301 32.4433
19725 1 72.0083 62.5127 34.0259
19726 1 70.4257 60.9301 35.6085
19727 1 72.0083 62.5127 37.1911
19728 1 70.4257 60.9301 38.7737
19729 1 72.0083 62.5127 40.3563
19730 1 70.4257 60.9301 41.9389
19731 1 72.0083 62.5127 43.5215
19732 1 70.4257 60.9301 45.1041
19733 1 72.0083 62.5127 46.6867
19734 1 70.4257 60.9301 48.2693
19735 1 72.0083 62.5127 49.8519
19736 1 70.4257 60.9301 51.4345
19737 1 72.0083 62.5127 53.0171
19738 1 70.4257 60.9301 54.5997
19739 1 72.0083 62.5127 56.1823
19740 1 70.4257 60.9301 57.7649
19741 1 72.0083 62.5127 59.3475
19742 1 70.4257 60.9301 60.9301
19743 1 72.0083 62.5127 62.5127
19744 1 70.4257 60.9301 64.0953
19745 1 72.0083 62.5127 65.6779
19746 1 70.4257 60.9301 67.2605
19747 1 72.0083 62.5127 68.8431
19748 1 70.4257 60.9301 70.4257
19749 1 72.0083 62.5127 72.0083
19750 1 70.4257 60.9301 73.5909
19751 1 72.0083 62.5127 75.1735
19752 1 70.4257 60.9301 76.7561
19753 1 72.0083 62.5127 78.3387
19754 1 70.4257 64.0953 0.7913
19755 1 72.0083 65.6779 2.3739
19756 1 70.4257 64.0953 3.9565
19757 1 72.0083 65.6779 5.5391
19758 1 70.4257 64.0953 7.1217
19759 1 72.0083 65.6779 8.7043
19760 1 70.4257 64.0953 10.2869
19761 1 72.0083 65.6779 11.8695
19762 1 70.4257 64.0953 13.4521
19763 1 72.0083 65.6779 15.0347
19764 1 70.4257 64.0953 16.6173
19765 1 72.0083 65.6779 18.1999
19766 1 70.4257 64.0953 19.7825
19767 1 72.0083 65.6779 21.3651
19768 1 70.4257 64.0953 22.9477
19769 1 72.0083 65.6779 24.5303
19770 1 70.4257 64.0953 26.1129
19771 1 72.0083 65.6779 27.6955
19772 1 70.4257 64.0953 29.2781
19773 1 72.0083 65.6779 30.8607
19774 1 70.4257 64.0953 32.4433
19775 1 72.0083 65.6779 34.0259
19776 1 70.4257 64.0953 35.6085
19777 1 72.0083 65.6779 37.1911
19778 1 70.4257 64.0953 38.7737
19779 1 72.0083 65.6779 40.3563
19780 1 70.4257 64.0953 41.9389
19781 1 72.0083 65.6779 43.5215
19782 1 70.4257 64.0953 45.1041
19783 1 72.0083 65.6779 46.6867
19784 1 70.4257 64.0953 48.2693
19785 1 72.0083 65.6779 49.8519
19786 1 70.4257 64.0953 51.4345
19787 1 72.0083 65.6779 53.0171
19788 1 70.4257 64.0953 54.5997
19789 1 72.0083 65.6779 56.1823
19790 1 70.4257 64.0953 57.7649
19791 1 72.0083 65.6779 59.3475
19792 1 70.4257 64.0953 60.9301
19793 1 72.0083 65.6779 62.5127
19794 1 70.4257 64.0953 64.0953
19795 1 72.0083 65.6779 65.6779
19796 1 70.4257 64.0953 67.2605
19797 1 72.0083 65.6779 68.8431
19798 1 70.4257 64.0953 70.4257
19799 1 72.0083 65.6779 72.0083
19800 1 70.4257 64.0953 73.5909
19801 1 72.0083 65.6779 75.1735
19802 1 70.4257 64.0953 76.7561
19803 1 72.0083 65.6779 78.3387
19804 1 70.4257 67.2605 0.7913
19805 1 72.0083 68.8431 2.3739
19806 1 70.4257 67.2605 3.9565
19807 1 72.0083 68.8431 5.5391
19808 1 70.4257 67.2605 7.1217
19809 1 72.0083 68.8431 8.7043
19810 1 70.4257 67.2605 10.2869
19811 1 72.0083 68.8431 11.8695
19812 1 70.4257 67.2605 13.4521
19813 1 72.0083 68.8431 15.0347
19814 1 70.4257 67.2605 16.6173
19815 1 72.0083 68.8431 18.1999
19816 1 70.4257 67.2605 19.7825
19817 1 72.0083 68.8431 21.3651
19818 1 70.4257 67.2605 22.9477
19819 1 72.0083 68.8431 24.5303
19820 1 70.4257 67.2605 26.1129
19821 1 72.0083 68.8431 27.6955
19822 1 70.4257 67.2605 29.2781
19823 1 72.0083 68.8431 30.8607
19824 1 70.4257 67.2605 32.4433
19825 1 72.0083 68.8431 34.0259
19826 1 70.4257 67.2605 35.6085
19827 1 72.0083 68.8431 37.1911
19828 1 70.4257 67.2605 38.7737
19829 1 72.0083 68.8431 40.3563
19830 1 70.4257 67.2605 41.9389
19831 1 72.0083 68.8431 43.5215
19832 1 70.4257 67.2605 45.1041
19833 1 72.0083 68.8431 46.6867
19834 1 70.4257 67.2605 48.2693
19835 1 72.0083 68.8431 49.8519
19836 1 70.4257 67.2605 51.4345
19837 1 72.0083 68.8431 53.0171
19838 1 70.4257 67.2605 54.5997
19839 1 72.0083 68.8431 56.1823
19840 1 70.4257 67.2605 57.7649
19841 1 72.0083 68.8431 59.3475
19842 1 70.4257 67.2605 60.9301
19843 1 72.0083 68.8431 62.5127
19844 1 70.4257 67.2605 64.0953
19845 1 72.0083 68.8431 65.6779
19846 1 70.4257 67.2605 67.2605
19847 1 72.0083 68.8431 68.8431
19848 1 70.4257 67.2605 70.4257
19849 1 72.0083 68.8431 72.0083
19850 1 70.4257 67.2605 73.5909
19851 1 72.0083 68.8431 75.1735
19852 1 70.4257 67.2605 76.7561
19853 1 72.0083 68.8431 78.3387
19854 1 70.4257 70.4257 0.7913
19855 1 72.0083 72.0083 2.3739
19856 1 70.4257 70.4257 3.9565
19857 1 72.0083 72.0083 5.5391
19858 1 70.4257 70.4257 7.1217
19859 1 72.0083 72.0083 8.7043
19860 1 70.4257 70.4257 10.2869
19861 1 72.0083 72.0083 11.8695
19862 1 70.4257 70.4257 13.4521
19863 1 72.0083 72.0083 15.0347
19864 1 70.4257 70.4257 16.6173
19865 1 72.0083 72.0083 18.1999
19866 1 70.4257 70.4257 19.7825
19867 1 72.0083 72.0083 21.3651
19868 1 70.4257 70.4257 22.9477
19869 1 72.0083 72.0083 24.5303
19870 1 70.4257 70.4257 26.1129
19871 1 72.0083 72.0083 27.6955
19872 1 70.4257 70.4257 29.2781
19873 1 72.0083 72.0083 30.8607
19874 1 70.4257 70.4257 32.4433
19875 1 72.0083 72.0083 34.0259
19876 1 70.4257 70.4257 35.6085
19877 1 72.0083 72.0083 37.1911
19878 1 70.4257 70.4257 38.7737
19879 1 72.0083 72.0083 40.3563
19880 1 70.4257 70.4257 41.9389
19881 1 72.0083 72.0083 43.5215
19882 1 70.4257 70.4257 45.1041
19883 1 72.0083 72.0083 46.6867
19884 1 70.4257 70.4257 48.2693
19885 1 72.0083 72.0083 49.8519
19886 1 70.4257 70.4257 51.4345
19887 1 72.0083 72.0083 53.0171
19888 1 70.4257 70.4257 54.5997
19889 1 72.0083 72.0083 56.1823
19890 1 70.4257 70.4257 57.7649
19891 1 72.0083 72.0083 59.3475
19892 1 70.4257 70.4257 60.9301
19893 1 72.0083 72.0083 62.5127
19894 1 70.4257 70.4257 64.0953
19895 1 72.0083 72.0083 65.6779
19896 1 70.4257 70.4257 67.2605
19897 1 72.0083 72.0083 68.8431
19898 1 70.4257 70.4257 70.4257
19899 1 72.0083 72.0083 72.0083
19900 1 70.4257 70.4257 73.5909
19901 1 72.0083 72.0083 75.1735
19902 1 70.4257 70.4257 76.7561
19903 1 72.0083 72.0083 78.3387
19904 1 70.4257 73.5909 0.7913
19905 1 72.0083 75.1735 2.3739
19906 1 70.4257 73.5909 3.9565
19907 1 72.0083 75.1735 5.5391
19908 1 70.4257 73.5909 7.1217
19909 1 72.0083 75.1735 8.7043
19910 1 70.4257 73.5909 10.2869
19911 1 72.0083 75.1735 11.8695
19912 1 70.4257 73.5909 13.4521
19913 1 72.0083 75.1735 15.0347
19914 1 70.4257 73.5909 16.6173
19915 1 72.0083 75.1735 18.1999
19916 1 70.4257 73.5909 19.7825
19917 1 72.0083 75.1735 21.3651
19918 1 70.4257 73.5909 22.9477
19919 1 72.0083 75.1735 24.5303
19920 1 70.4257 73.5909 26.1129
19921 1 72.0083 75.1735 27.6955
19922 1 70.4257 73.5909 29.2781
19923 1 72.0083 75.1735 30.8607
19924 1 70.4257 73.5909 32.4433
19925 1 72.0083 75.1735 34.0259
19926 1 70.4257 73.5909 35.6085
19927 1 72.0083 75.1735 37.1911
19928 1 70.4257 73.5909 38.7737
19929 1 72.0083 75.1735 40.3563
19930 1 70.4257 73.5909 41.9389
19931 1 72.0083 75.1735 43.5215
19932 1 70.4257 73.5909 45.1041
19933 1 72.0083 75.1735 46.6867
19934 1 70.4257 73.5909 48.2693
19935 1 72.0083 75.1735 49.8519
19936 1 70.4257 73.5909 51.4345
19937 1 72.0083 75.1735 53.0171
19938 1 70.4257 73.5909 54.5997
19939 1 72.0083 75.1735 56.1823
19940 1 70.4257 73.5909 57.7649
19941 1 72.0083 75.1735 59.3475
19942 1 70.4257 73.5909 60.9301
19943 1 72.0083 75.1735 62.5127
19944 1 70.4257 73.5909 64.0953
19945 1 72.0083 75.1735 65.6779
19946 1 70.4257 73.5909 67.2605
19947 1 72.0083 75.1735 68.8431
19948 1 70.4257 73.5909 70.4257
19949 1 72.0083 75.1735 72.0083
19950 1 70.4257 73.5909 73.5909
19951 1 72.0083 75.1735 75.1735
19952 1 70.4257 73.5909 76.7561
19953 1 72.0083 75.1735 78.3387
19954 1 70.4257 76.7561 0.7913
19955 1 72.0083 78.3387 2.3739
19956 1 70.4257 76.7561 3.9565
19957 1 72.0083 78.3387 5.5391
19958 1 70.4257 76.7561 7.1217
19959 1 72.0083 78.3387 8.7043
19960 1 70.4257 76.7561 10.2869
19961 1 72.0083 78.3387 11.8695
19962 1 70.4257 76.7561 13.4521
19963 1 72.0083 78.3387 15.0347
19964 1 70.4257 76.7561 16.6173
19965 1 72.0083 78.3387 18.1999
19966 1 70.4257 76.7561 19.7825
19967 1 72.0083 78.3387 21.3651
19968 1 70.4257 76.7561 22.9477
19969 1 72.0083 78.3387 24.5303
19970 1 70.4257 76.7561 26.1129
19971 1 72.0083 78.3387 27.6955
19972 1 70.4257 76.7561 29.2781
19973 1 72.0083 78.3387 30.8607
19974 1 70.4257 76.7561 32.4433
19975 1 72.0083 78.3387 34.0259
19976 1 70.4257 76.7561 35.6085
19977 1 72.0083 78.3387 37.1911
19978 1 70.4257 76.7561 38.7737
19979 1 72.0083 78.3387 40.3563
19980 1 70.4257 76.7561 41.9389
19981 1 72.0083 78.3387 43.5215
19982 1 70.4257 76.7561 45.1041
19983 1 72.0083 78.3387 46.6867
19984 1 70.4257 76.7561 48.2693
19985 1 72.0083 78.3387 49.8519
19986 1 70.4257 76.7561 51.4345
19987 1 72.0083 78.3387 53.0171
19988 1 70.4257 76.7561 54.5997
19989 1 72.0083 78.3387 56.1823
19990 1 70.4257 76.7561 57.7649
19991 1 72.0083 78.3387 59.3475
19992 1 70.4257 76.7561 60.9301
19993 1 72.0083 78.3387 62.5127
19994 1 70.4257 76.7561 64.0953
19995 1 72.0083 78.3387 65.6779
19996 1 70.4257 76.7561 67.2605
19997 1 72.0083 78.3387 68.8431
19998 1 70.4257 76.7561 70.4257
19999 1 72.0083 78.3387 72.0083
20000 1 70.4257 76.7561 73.5909
20001 1 72.0083 78.3387 75.1735
20002 1 70.4257 76.7561 76.7561
20003 1 72.0083 78.3387 78.3387
20004 1 73.5909 0.7913 0.7913
20005 1 75.1735 2.3739 2.3739
20006 1 73.5909 0.7913 3.9565
20007 1 75.1735 2.3739 5.5391
20008 1 73.5909 0.7913 7.1217
20009 1 75.1735 2.3739 8.7043
20010 1 73.5909 0.7913 10.2869
20011 1 75.1735 2.3739 11.8695
20012 1 73.5909 0.7913 13.4521
20013 1 75.1735 2.3739 15.0347
20014 1 73.5909 0.7913 16.6173
20015 1 75.1735 2.3739 18.1999
20016 1 73.5909 0.7913 19.7825
20017 1 75.1735 2.3739 21.3651
20018 1 73.5909 0.7913 22.9477
20019 1 75.1735 2.3739 24.5303
20020 1 73.5909 0.7913 26.1129
20021 1 75.1735 2.3739 27.6955
20022 1 73.5909 0.7913 29.2781
20023 1 75.1735 2.3739 30.8607
20024 1 73.5909 0.7913 32.4433
20025 1 75.1735 2.3739 34.0259
20026 1 73.5909 0.7913 35.6085
20027 1 75.1735 2.3739 37.1911
20028 1 73.5909 0.7913 38.7737
20029 1 75.1735 2.3739 40.3563
20030 1 73.5909 0.7913 41.9389
20031 1 75.1735 2.3739 43.5215
20032 1 73.5909 0.7913 45.1041
20033 1 75.1735 2.3739 46.6867
20034 1 73.5909 0.7913 48.2693
20035 1 75.1735 2.3739 49.8519
20036 1 73.5909 0.7913 51.4345
20037 1 75.1735 2.3739 53.0171
20038 1 73.5909 0.7913 54.5997
20039 1 75.1735 2.3739 56.1823
20040 1 73.5909 0.7913 57.7649
20041 1 75.1735 2.3739 59.3475
20042 1 73.5909 0.7913 60.9301
20043 1 75.1735 2.3739 62.5127
20044 1 73.5909 0.7913 64.0953
20045 1 75.1735 2.3739 65.6779
20046 1 73.5909 0.7913 67.2605
20047 1 75.1735 2.3739 68.8431
20048 1 73.5909 0.7913 70.4257
20049 1 75.1735 2.3739 72.0083
20050 1 73.5909 0.7913 73.5909
20051 1 75.1735 2.3739 75.1735
20052 1 73.5909 0.7913 76.7561
20053 1 75.1735 2.3739 78.3387
20054 1 73.5909 3.9565 0.7913
20055 1 75.1735 5.5391 2.3739
20056 1 73.5909 3.9565 3.9565
20057 1 75.1735 5.5391 5.5391
20058 1 73.5909 3.9565 7.1217
20059 1 75.1735 5.5391 8.7043
20060 1 73.5909 3.9565 10.2869
20061 1 75.1735 5.5391 11.8695
20062 1 73.5909 3.9565 13.4521
20063 1 75.1735 5.5391 15.0347
20064 1 73.5909 3.9565 16.6173
20065 1 75.1735 5.5391 18.1999
20066 1 73.5909 3.9565 19.7825
20067 1 75.1735 5.5391 21.3651
20068 1 73.5909 3.9565 22.9477
20069 1 75.1735 5.5391 24.5303
20070 1 73.5909 3.9565 26.1129
20071 1 75.1735 5.5391 27.6955
20072 1 73.5909 3.9565 29.2781
20073 1 75.1735 5.5391 30.8607
20074 1 73.5909 3.9565 32.4433
20075 1 75.1735 5.5391 34.0259
20076 1 73.5909 3.9565 35.6085
20077 1 75.1735 5.5391 37.1911
20078 1 73.5909 3.9565 38.7737
20079 1 75.1735 5.5391 40.3563
20080 1 73.5909 3.9565 41.9389
20081 1 75.1735 5.5391 43.5215
20082 1 73.5909 3.9565 45.1041
20083 1 75.1735 5.5391 46.6867
20084 1 73.5909 3.9565 48.2693
20085 1 75.1735 5.5391 49.8519
20086 1 73.5909 3.9565 51.4345
20087 1 75.1735 5.5391 53.0171
20088 1 73.5909 3.9565 54.5997
20089 1 75.1735 5.5391 56.1823
20090 1 73.5909 3.9565 57.7649
20091 1 75.1735 5.5391 59.3475
20092 1 73.5909 3.9565 60.9301
20093 1 75.1735 5.5391 62.5127
20094 1 73.5909 3.9565 64.0953
20095 1 75.1735 5.5391 65.6779
20096 1 73.5909 3.9565 67.2605
20097 1 75.1735 5.5391 68.8431
20098 1 73.5909 3.9565 70.4257
20099 1 75.1735 5.5391 72.0083
20100 1 73.5909 3.9565 73.5909
20101 1 75.1735 5.5391 75.1735
20102 1 73.5909 3.9565 76.7561
20103 1 75.1735 5.5391 78.3387
20104 1 73.5909 7.1217 0.7913
20105 1 75.1735 8.7043 2.3739
20106 1 73.5909 7.1217 3.9565
20107 1 75.1735 8.7043 5.5391
20108 1 73.5909 7.1217 7.1217
20109 1 75.1735 8.7043 8.7043
20110 1 73.5909 7.1217 10.2869
20111 1 75.1735 8.7043 11.8695
20112 1 73.5909 7.1217 13.4521
20113 1 75.1735 8.7043 15.0347
20114 1 73.5909 7.1217 16.6173
20115 1 75.1735 8.7043 18.1999
20116 1 73.5909 7.1217 19.7825
20117 1 75.1735 8.7043 21.3651
20118 1 73.5909 7.1217 22.9477
20119 1 75.1735 8.7043 24.5303
20120 1 73.5909 7.1217 26.1129
20121 1 75.1735 8.7043 27.6955
20122 1 73.5909 7.1217 29.2781
20123 1 75.1735 8.7043 30.8607
20124 1 73.5909 7.1217 32.4433
20125 1 75.1735 8.7043 34.0259
20126 1 73.5909 7.1217 35.6085
20127 1 75.1735 8.7043 37.1911
20128 1 73.5909 7.1217 38.7737
20129 1 75.1735 8.7043 40.3563
20130 1 73.5909 7.1217 41.9389
20131 1 75.1735 8.7043 43.5215
20132 1 73.5909 7.1217 45.1041
20133 1 75.1735 8.7043 46.6867
20134 1 73.5909 7.1217 48.2693
20135 1 75.1735 8.7043 49.8519
20136 1 73.5909 7.1217 51.4345
20137 1 75.1735 8.7043 53.0171
20138 1 73.5909 7.1217 54.5997
20139 1 75.1735 8.7043 56.1823
20140 1 73.5909 7.1217 57.7649
20141 1 75.1735 8.7043 59.3475
20142 1 73.5909 7.1217 60.9301
20143 1 75.1735 8.7043 62.5127
20144 1 73.5909 7.1217 64.0953
20145 1 75.1735 8.7043 65.6779
20146 1 73.5909 7.1217 67.2605
20147 1 75.1735 8.7043 68.8431
20148 1 73.5909 7.1217 70.4257
20149 1 75.1735 8.7043 72.0083
20150 1 73.5909 7.1217 73.5909
20151 1 75.1735 8.7043 75.1735
20152 1 73.5909 7.1217 76.7561
20153 1 75.1735 8.7043 78.3387
20154 1 73.5909 10.2869 0.7913
20155 1 75.1735 11.8695 2.3739
20156 1 73.5909 10.2869 3.9565
20157 1 75.1735 11.8695 5.5391
20158 1 73.5909 10.2869 7.1217
20159 1 75.1735 11.8695 8.7043
20160 1 73.5909 10.2869 10.2869
20161 1 75.1735 11.8695 11.8695
20162 1 73.5909 10.2869 13.4521
20163 1 75.1735 11.8695 15.0347
20164 1 73.5909 10.2869 16.6173
20165 1 75.1735 11.8695 18.1999
20166 1 73.5909 10.2869 19.7825
20167 1 75.1735 11.8695 21.3651
20168 1 73.5909 10.2869 22.9477
20169 1 75.1735 11.8695 24.5303
20170 1 73.5909 10.2869 26.1129
20171 1 75.1735 11.8695 27.6955
20172 1 73.5909 10.2869 29.2781
20173 1 75.1735 11.8695 30.8607
20174 1 73.5909 10.2869 32.4433
20175 1 75.1735 11.8695 34.0259
20176 1 73.5909 10.2869 35.6085
20177 1 75.1735 11.8695 37.1911
20178 1 73.5909 10.2869 38.7737
20179 1 75.1735 11.8695 40.3563
20180 1 73.5909 10.2869 41.9389
20181 1 75.1735 11.8695 43.5215
20182 1 73.5909 10.2869 45.1041
20183 1 75.1735 11.8695 46.6867
20184 1 73.5909 10.2869 48.2693
20185 1 75.1735 11.8695 49.8519
20186 1 73.5909 10.2869 51.4345
20187 1 75.1735 11.8695 53.0171
20188 1 73.5909 10.2869 54.5997
20189 1 75.1735 11.8695 56.1823
20190 1 73.5909 10.2869 57.7649
20191 1 75.1735 11.8695 59.3475
20192 1 73.5909 10.2869 60.9301
20193 1 75.1735 11.8695 62.5127
20194 1 73.5909 10.2869 64.0953
20195 1 75.1735 11.8695 65.6779
20196 1 73.5909 10.2869 67.2605
20197 1 75.1735 11.8695 68.8431
20198 1 73.5909 10.2869 70.4257
20199 1 75.1735 11.8695 72.0083
20200 1 73.5909 10.2869 73.5909
20201 1 75.1735 11.8695 75.1735
20202 1 73.5909 10.2869 76.7561
20203 1 75.1735 11.8695 78.3387
20204 1 73.5909 13.4521 0.7913
20205 1 75.1735 15.0347 2.3739
20206 1 73.5909 13.4521 3.9565
20207 1 75.1735 15.0347 5.5391
20208 1 73.5909 13.4521 7.1217
20209 1 75.1735 15.0347 8.7043
20210 1 73.5909 13.4521 10.2869
20211 1 75.1735 15.0347 11.8695
20212 1 73.5909 13.4521 13.4521
20213 1 75.1735 15.0347 15.0347
20214 1 73.5909 13.4521 16.6173
20215 1 75.1735 15.0347 18.1999
20216 1 73.5909 13.4521 19.7825
20217 1 75.1735 15.0347 21.3651
20218 1 73.5909 13.4521 22.9477
20219 1 75.1735 15.0347 24.5303
20220 1 73.5909 13.4521 26.1129
20221 1 75.1735 15.0347 27.6955
20222 1 73.5909 13.4521 29.2781
20223 1 75.1735 15.0347 30.8607
20224 1 73.5909 13.4521 32.4433
20225 1 75.1735 15.0347 34.0259
20226 1 73.5909 13.4521 35.6085
20227 1 75.1735 15.0347 37.1911
20228 1 73.5909 13.4521 38.7737
20229 1 75.1735 15.0347 40.3563
20230 1 73.5909 13.4521 41.9389
20231 1 75.1735 15.0347 43.5215
20232 1 73.5909 13.4521 45.1041
20233 1 75.1735 15.0347 46.6867
20234 1 73.5909 13.4521 48.2693
20235 1 75.1735 15.0347 49.8519
20236 1 73.5909 13.4521 51.4345
20237 1 75.1735 15.0347 53.0171
20238 1 73.5909 13.4521 54.5997
20239 1 75.1735 15.0347 56.1823
20240 1 73.5909 13.4521 57.7649
20241 1 75.1735 15.0347 59.3475
20242 1 73.5909 13.4521 60.9301
20243 1 75.1735 15.0347 62.5127
20244 1 73.5909 13.4521 64.0953
20245 1 75.1735 15.0347 65.6779
20246 1 73.5909 13.4521 67.2605
20247 1 75.1735 15.0347 68.8431
20248 1 73.5909 13.4521 70.4257
20249 1 75.1735 15.0347 72.0083
20250 1 73.5909 13.4521 73.5909
20251 1 75.1735 15.0347 75.1735
20252 1 73.5909 13.4521 76.7561
20253 1 75.1735 15.0347 78.3387
20254 1 73.5909 16.6173 0.7913
20255 1 75.1735 18.1999 2.3739
20256 1 73.5909 16.6173 3.9565
20257 1 75.1735 18.1999 5.5391
20258 1 73.5909 16.6173 7.1217
20259 1 75.1735 18.1999 8.7043
20260 1 73.5909 16.6173 10.2869
20261 1 75.1735 18.1999 11.8695
20262 1 73.5909 16.6173 13.4521
20263 1 75.1735 18.1999 15.0347
20264 1 73.5909 16.6173 16.6173
20265 1 75.1735 18.1999 18.1999
20266 1 73.5909 16.6173 19.7825
20267 1 75.1735 18.1999 21.3651
20268 1 73.5909 16.6173 22.9477
20269 1 75.1735 18.1999 24.5303
20270 1 73.5909 16.6173 26.1129
20271 1 75.1735 18.1999 27.6955
20272 1 73.5909 16.6173 29.2781
20273 1 75.1735 18.1999 30.8607
20274 1 73.5909 16.6173 32.4433
20275 1 75.1735 18.1999 34.0259
20276 1 73.5909 16.6173 35.6085
20277 1 75.1735 18.1999 37.1911
20278 1 73.5909 16.6173 38.7737
20279 1 75.1735 18.1999 40.3563
20280 1 73.5909 16.6173 41.9389
20281 1 75.1735 18.1999 43.5215
20282 1 73.5909 16.6173 45.1041
20283 1 75.1735 18.1999 46.6867
20284 1 73.5909 16.6173 48.2693
20285 1 75.1735 18.1999 49.8519
20286 1 73.5909 16.6173 51.4345
20287 1 75.1735 18.1999 53.0171
20288 1 73.5909 16.6173 54.5997
20289 1 75.1735 18.1999 56.1823
20290 1 73.5909 16.6173 57.7649
20291 1 75.1735 18.1999 59.3475
20292 1 73.5909 16.6173 60.9301
20293 1 75.1735 18.1999 62.5127
20294 1 73.5909 16.6173 64.0953
20295 1 75.1735 18.1999 65.6779
20296 1 73.5909 16.6173 67.2605
20297 1 75.1735 18.1999 68.8431
20298 1 73.5909 16.6173 70.4257
20299 1 75.1735 18.1999 72.0083
20300 1 73.5909 16.6173 73.5909
20301 1 75.1735 18.1999 75.1735
20302 1 73.5909 16.6173 76.7561
20303 1 75.1735 18.1999 78.3387
20304 1 73.5909 19.7825 0.7913
20305 1 75.1735 21.3651 2.3739
20306 1 73.5909 19.7825 3.9565
20307 1 75.1735 21.3651 5.5391
20308 1 73.5909 19.7825 7.1217
20309 1 75.1735 21.3651 8.7043
20310 1 73.5909 19.7825 10.2869
20311 1 75.1735 21.3651 11.8695
20312 1 73.5909 19.7825 13.4521
20313 1 75.1735 21.3651 15.0347
20314 1 73.5909 19.7825 16.6173
20315 1 75.1735 21.3651 18.1999
20316 1 73.5909 19.7825 19.7825
20317 1 75.1735 21.3651 21.3651
20318 1 73.5909 19.7825 22.9477
20319 1 75.1735 21.3651 24.5303
20320 1 73.5909 19.7825 26.1129
20321 1 75.1735 21.3651 27.6955
20322 1 73.5909 19.7825 29.2781
20323 1 75.1735 21.3651 30.8607
20324 1 73.5909 19.7825 32.4433
20325 1 75.1735 21.3651 34.0259
20326 1 73.5909 19.7825 35.6085
20327 1 75.1735 21.3651 37.1911
20328 1 73.5909 19.7825 38.7737
20329 1 75.1735 21.3651 40.3563
20330 1 73.5909 19.7825 41.9389
20331 1 75.1735 21.3651 43.5215
20332 1 73.5909 19.7825 45.1041
20333 1 75.1735 21.3651 46.6867
20334 1 73.5909 19.7825 48.2693
20335 1 75.1735 21.3651 49.8519
20336 1 73.5909 19.7825 51.4345
20337 1 75.1735 21.3651 53.0171
20338 1 73.5909 19.7825 54.5997
20339 1 75.1735 21.3651 56.1823
20340 1 73.5909 19.7825 57.7649
20341 1 75.1735 21.3651 59.3475
20342 1 73.5909 19.7825 60.9301
20343 1 75.1735 21.3651 62.5127
20344 1 73.5909 19.7825 64.0953
20345 1 75.1735 21.3651 65.6779
20346 1 73.5909 19.7825 67.2605
20347 1 75.1735 21.3651 68.8431
20348 1 73.5909 19.7825 70.4257
20349 1 75.1735 21.3651 72.0083
20350 1 73.5909 19.7825 73.5909
20351 1 75.1735 21.3651 75.1735
20352 1 73.5909 19.7825 76.7561
20353 1 75.1735 21.3651 78.3387
20354 1 73.5909 22.9477 0.7913
20355 1 75.1735 24.5303 2.3739
20356 1 73.5909 22.9477 3.9565
20357 1 75.1735 24.5303 5.5391
20358 1 73.5909 22.9477 7.1217
20359 1 75.1735 24.5303 8.7043
20360 1 73.5909 22.9477 10.2869
20361 1 75.1735 24.5303 11.8695
20362 1 73.5909 22.9477 13.4521
20363 1 75.1735 24.5303 15.0347
20364 1 73.5909 22.9477 16.6173
20365 1 75.1735 24.5303 18.1999
20366 1 73.5909 22.9477 19.7825
20367 1 75.1735 24.5303 21.3651
20368 1 73.5909 22.9477 22.9477
20369 1 75.1735 24.5303 24.5303
20370 1 73.5909 22.9477 26.1129
20371 1 75.1735 24.5303 27.6955
20372 1 73.5909 22.9477 29.2781
20373 1 75.1735 24.5303 30.8607
20374 1 73.5909 22.9477 32.4433
20375 1 75.1735 24.5303 34.0259
20376 1 73.5909 22.9477 35.6085
20377 1 75.1735 24.5303 37.1911
20378 1 73.5909 22.9477 38.7737
20379 1 75.1735 24.5303 40.3563
20380 1 73.5909 22.9477 41.9389
20381 1 75.1735 24.5303 43.5215
20382 1 73.5909 22.9477 45.1041
20383 1 75.1735 24.5303 46.6867
20384 1 73.5909 22.9477 48.2693
20385 1 75.1735 24.5303 49.8519
20386 1 73.5909 22.9477 51.4345
20387 1 75.1735 24.5303 53.0171
20388 1 73.5909 22.9477 54.5997
20389 1 75.1735 24.5303 56.1823
20390 1 73.5909 22.9477 57.7649
20391 1 75.1735 24.5303 59.3475
20392 1 73.5909 22.9477 60.9301
20393 1 75.1735 24.5303 62.5127
20394 1 73.5909 22.9477 64.0953
20395 1 75.1735 24.5303 65.6779
20396 1 73.5909 22.9477 67.2605
20397 1 75.1735 24.5303 68.8431
20398 1 73.5909 22.9477 70.4257
20399 1 75.1735 24.5303 72.0083
20400 1 73.5909 22.9477 73.5909
20401 1 75.1735 24.5303 75.1735
20402 1 73.5909 22.9477 76.7561
20403 1 75.1735 24.5303 78.3387
20404 1 73.5909 26.1129 0.7913
20405 1 75.1735 27.6955 2.3739
20406 1 73.5909 26.1129 3.9565
20407 1 75.1735 27.6955 5.5391
20408 1 73.5909 26.1129 7.1217
20409 1 75.1735 27.6955 8.7043
20410 1 73.5909 26.1129 10.2869
20411 1 75.1735 27.6955 11.8695
20412 1 73.5909 26.1129 13.4521
20413 1 75.1735 27.6955 15.0347
20414 1 73.5909 26.1129 16.6173
20415 1 75.1735 27.6955 18.1999
20416 1 73.5909 26.1129 19.7825
20417 1 75.1735 27.6955 21.3651
20418 1 73.5909 26.1129 22.9477
20419 1 75.1735 27.6955 24.5303
20420 1 73.5909 26.1129 26.1129
20421 1 75.1735 27.6955 27.6955
20422 1 73.5909 26.1129 29.2781
20423 1 75.1735 27.6955 30.8607
20424 1 73.5909 26.1129 32.4433
20425 1 75.1735 27.6955 34.0259
20426 1 73.5909 26.1129 35.6085
20427 1 75.1735 27.6955 37.1911
20428 1 73.5909 26.1129 38.7737
20429 1 75.1735 27.6955 40.3563
20430 1 73.5909 26.1129 41.9389
20431 1 75.1735 27.6955 43.5215
20432 1 73.5909 26.1129 45.1041
20433 1 75.1735 27.6955 46.6867
20434 1 73.5909 26.1129 48.2693
20435 1 75.1735 27.6955 49.8519
20436 1 73.5909 26.1129 51.4345
20437 1 75.1735 27.6955 53.0171
20438 1 73.5909 26.1129 54.5997
20439 1 75.1735 27.6955 56.1823
20440 1 73.5909 26.1129 57.7649
20441 1 75.1735 27.6955 59.3475
20442 1 73.5909 26.1129 60.9301
20443 1 75.1735 27.6955 62.5127
20444 1 73.5909 26.1129 64.0953
20445 1 75.1735 27.6955 65.6779
20446 1 73.5909 26.1129 67.2605
20447 1 75.1735 27.6955 68.8431
20448 1 73.5909 26.1129 70.4257
20449 1 75.1735 27.6955 72.0083
20450 1 73.5909 26.1129 73.5909
20451 1 75.1735 27.6955 75.1735
20452 1 73.5909 26.1129 76.7561
20453 1 75.1735 27.6955 78.3387
20454 1 73.5909 29.2781 0.7913
20455 1 75.1735 30.8607 2.3739
20456 1 73.5909 29.2781 3.9565
20457 1 75.1735 30.8607 5.5391
20458 1 73.5909 29.2781 7.1217
20459 1 75.1735 30.8607 8.7043
20460 1 73.5909 29.2781 10.2869
20461 1 75.1735 30.8607 11.8695
20462 1 73.5909 29.2781 13.4521
20463 1 75.1735 30.8607 15.0347
20464 1 73.5909 29.2781 16.6173
20465 1 75.1735 30.8607 18.1999
20466 1 73.5909 29.2781 19.7825
20467 1 75.1735 30.8607 21.3651
20468 1 73.5909 29.2781 22.9477
20469 1 75.1735 30.8607 24.5303
20470 1 73.5909 29.2781 26.1129
20471 1 75.1735 30.8607 27.6955
20472 1 73.5909 29.2781 29.2781
20473 1 75.1735 30.8607 30.8607
20474 1 73.5909 29.2781 32.4433
20475 1 75.1735 30.8607 34.0259
20476 1 73.5909 29.2781 35.6085
20477 1 75.1735 30.8607 37.1911
20478 1 73.5909 29.2781 38.7737
20479 1 75.1735 30.8607 40.3563
20480 1 73.5909 29.2781 41.9389
20481 1 75.1735 30.8607 43.5215
20482 1 73.5909 29.2781 45.1041
20483 1 75.1735 30.8607 46.6867
20484 1 73.5909 29.2781 48.2693
20485 1 75.1735 30.8607 49.8519
20486 1 73.5909 29.2781 51.4345
20487 1 75.1735 30.8607 53.0171
20488 1 73.5909 29.2781 54.5997
20489 1 75.1735 30.8607 56.1823
20490 1 73.5909 29.2781 57.7649
20491 1 75.1735 30.8607 59.3475
20492 1 73.5909 29.2781 60.9301
20493 1 75.1735 30.8607 62.5127
20494 1 73.5909 29.2781 64.0953
20495 1 75.1735 30.8607 65.6779
20496 1 73.5909 29.2781 67.2605
20497 1 75.1735 30.8607 68.8431
20498 1 73.5909 29.2781 70.4257
20499 1 75.1735 30.8607 72.0083
20500 1 73.5909 29.2781 73.5909
20501 1 75.1735 30.8607 75.1735
20502 1 73.5909 29.2781 76.7561
20503 1 75.1735 30.8607 78.3387
20504 1 73.5909 32.4433 0.7913
20505 1 75.1735 34.0259 2.3739
20506 1 73.5909 32.4433 3.9565
20507 1 75.1735 34.0259 5.5391
20508 1 73.5909 32.4433 7.1217
20509 1 75.1735 34.0259 8.7043
20510 1 73.5909 32.4433 10.2869
20511 1 75.1735 34.0259 11.8695
20512 1 73.5909 32.4433 13.4521
20513 1 75.1735 34.0259 15.0347
20514 1 73.5909 32.4433 16.6173
20515 1 75.1735 34.0259 18.1999
20516 1 73.5909 32.4433 19.7825
20517 1 75.1735 34.0259 21.3651
20518 1 73.5909 32.4433 22.9477
20519 1 75.1735 34.0259 24.5303
20520 1 73.5909 32.4433 26.1129
20521 1 75.1735 34.0259 27.6955
20522 1 73.5909 32.4433 29.2781
20523 1 75.1735 34.0259 30.8607
20524 1 73.5909 32.4433 32.4433
20525 1 75.1735 34.0259 34.0259
20526 1 73.5909 32.4433 35.6085
20527 1 75.1735 34.0259 37.1911
20528 1 73.5909 32.4433 38.7737
20529 1 75.1735 34.0259 40.3563
20530 1 73.5909 32.4433 41.9389
20531 1 75.1735 34.0259 43.5215
20532 1 73.5909 32.4433 45.1041
20533 1 75.1735 34.0259 46.6867
20534 1 73.5909 32.4433 48.2693
20535 1 75.1735 34.0259 49.8519
20536 1 73.5909 32.4433 51.4345
20537 1 75.1735 34.0259 53.0171
20538 1 73.5909 32.4433 54.5997
20539 1 75.1735 34.0259 56.1823
20540 1 73.5909 32.4433 57.7649
20541 1 75.1735 34.0259 59.3475
20542 1 73.5909 32.4433 60.9301
20543 1 75.1735 34.0259 62.5127
20544 1 73.5909 32.4433 64.0953
20545 1 75.1735 34.0259 65.6779
20546 1 73.5909 32.4433 67.2605
20547 1 75.1735 34.0259 68.8431
20548 1 73.5909 32.4433 70.4257
20549 1 75.1735 34.0259 72.0083
20550 1 73.5909 32.4433 73.5909
20551 1 75.1735 34.0259 75.1735
20552 1 73.5909 32.4433 76.7561
20553 1 75.1735 34.0259 78.3387
20554 1 73.5909 35.6085 0.7913
20555 1 75.1735 37.1911 2.3739
20556 1 73.5909 35.6085 3.9565
20557 1 75.1735 37.1911 5.5391
20558 1 73.5909 35.6085 7.1217
20559 1 75.1735 37.1911 8.7043
20560 1 73.5909 35.6085 10.2869
20561 1 75.1735 37.1911 11.8695
20562 1 73.5909 35.6085 13.4521
20563 1 75.1735 37.1911 15.0347
20564 1 73.5909 35.6085 16.6173
20565 1 75.1735 37.1911 18.1999
20566 1 73.5909 35.6085 19.7825
20567 1 75.1735 37.1911 21.3651
20568 1 73.5909 35.6085 22.9477
20569 1 75.1735 37.1911 24.5303
20570 1 73.5909 35.6085 26.1129
20571 1 75.1735 37.1911 27.6955
20572 1 73.5909 35.6085 29.2781
20573 1 75.1735 37.1911 30.8607
20574 1 73.5909 35.6085 32.4433
20575 1 75.1735 37.1911 34.0259
20576 1 73.5909 35.6085 35.6085
20577 1 75.1735 37.1911 37.1911
20578 1 73.5909 35.6085 38.7737
20579 1 75.1735 37.1911 40.3563
20580 1 73.5909 35.6085 41.9389
20581 1 75.1735 37.1911 43.5215
20582 1 73.5909 35.6085 45.1041
20583 1 75.1735 37.1911 46.6867
20584 1 73.5909 35.6085 48.2693
20585 1 75.1735 37.1911 49.8519
20586 1 73.5909 35.6085 51.4345
20587 1 75.1735 37.1911 53.0171
20588 1 73.5909 35.6085 54.5997
20589 1 75.1735 37.1911 56.1823
20590 1 73.5909 35.6085 57.7649
20591 1 75.1735 37.1911 59.3475
20592 1 73.5909 35.6085 60.9301
20593 1 75.1735 37.1911 62.5127
20594 1 73.5909 35.6085 64.0953
20595 1 75.1735 37.1911 65.6779
20596 1 73.5909 35.6085 67.2605
20597 1 75.1735 37.1911 68.8431
20598 1 73.5909 35.6085 70.4257
20599 1 75.1735 37.1911 72.0083
20600 1 73.5909 35.6085 73.5909
20601 1 75.1735 37.1911 75.1735
20602 1 73.5909 35.6085 76.7561
20603 1 75.1735 37.1911 78.3387
20604 1 73.5909 38.7737 0.7913
20605 1 75.1735 40.3563 2.3739
20606 1 73.5909 38.7737 3.9565
20607 1 75.1735 40.3563 5.5391
20608 1 73.5909 38.7737 7.1217
20609 1 75.1735 40.3563 8.7043
20610 1 73.5909 38.7737 10.2869
20611 1 75.1735 40.3563 11.8695
20612 1 73.5909 38.7737 13.4521
20613 1 75.1735 40.3563 15.0347
20614 1 73.5909 38.7737 16.6173
20615 1 75.1735 40.3563 18.1999
20616 1 73.5909 38.7737 19.7825
20617 1 75.1735 40.3563 21.3651
20618 1 73.5909 38.7737 22.9477
20619 1 75.1735 40.3563 24.5303
20620 1 73.5909 38.7737 26.1129
20621 1 75.1735 40.3563 27.6955
20622 1 73.5909 38.7737 29.2781
20623 1 75.1735 40.3563 30.8607
20624 1 73.5909 38.7737 32.4433
20625 1 75.1735 40.3563 34.0259
20626 1 73.5909 38.7737 35.6085
20627 1 75.1735 40.3563 37.1911
20628 1 73.5909 38.7737 38.7737
20629 1 75.1735 40.3563 40.3563
20630 1 73.5909 38.7737 41.9389
20631 1 75.1735 40.3563 43.5215
20632 1 73.5909 38.7737 45.1041
20633 1 75.1735 40.3563 46.6867
20634 1 73.5909 38.7737 48.2693
20635 1 75.1735 40.3563 49.8519
20636 1 73.5909 38.7737 51.4345
20637 1 75.1735 40.3563 53.0171
20638 1 73.5909 38.7737 54.5997
20639 1 75.1735 40.3563 56.1823
20640 1 73.5909 38.7737 57.7649
20641 1 75.1735 40.3563 59.3475
20642 1 73.5909 38.7737 60.9301
20643 1 75.1735 40.3563 62.5127
20644 1 73.5909 38.7737 64.0953
20645 1 75.1735 40.3563 65.6779
20646 1 73.5909 38.7737 67.2605
20647 1 75.1735 40.3563 68.8431
20648 1 73.5909 38.7737 70.4257
20649 1 75.1735 40.3563 72.0083
20650 1 73.5909 38.7737 73.5909
20651 1 75.1735 40.3563 75.1735
20652 1 73.5909 38.7737 76.7561
20653 1 75.1735 40.3563 78.3387
20654 1 73.5909 41.9389 0.7913
20655 1 75.1735 43.5215 2.3739
20656 1 73.5909 41.9389 3.9565
20657 1 75.1735 43.5215 5.5391
20658 1 73.5909 41.9389 7.1217
20659 1 75.1735 43.5215 8.7043
20660 1 73.5909 41.9389 10.2869
20661 1 75.1735 43.5215 11.8695
20662 1 73.5909 41.9389 13.4521
20663 1 75.1735 43.5215 15.0347
20664 1 73.5909 41.9389 16.6173
20665 1 75.1735 43.5215 18.1999
20666 1 73.5909 41.9389 19.7825
20667 1 75.1735 43.5215 21.3651
20668 1 73.5909 41.9389 22.9477
20669 1 75.1735 43.5215 24.5303
20670 1 73.5909 41.9389 26.1129
20671 1 75.1735 43.5215 27.6955
20672 1 73.5909 41.9389 29.2781
20673 1 75.1735 43.5215 30.8607
20674 1 73.5909 41.9389 32.4433
20675 1 75.1735 43.5215 34.0259
20676 1 73.5909 41.9389 35.6085
20677 1 75.1735 43.5215 37.1911
20678 1 73.5909 41.9389 38.7737
20679 1 75.1735 43.5215 40.3563
20680 1 73.5909 41.9389 41.9389
20681 1 75.1735 43.5215 43.5215
20682 1 73.5909 41.9389 45.1041
20683 1 75.1735 43.5215 46.6867
20684 1 73.5909 41.9389 48.2693
20685 1 75.1735 43.5215 49.8519
20686 1 73.5909 41.9389 51.4345
20687 1 75.1735 43.5215 53.0171
20688 1 73.5909 41.9389 54.5997
20689 1 75.1735 43.5215 56.1823
20690 1 73.5909 41.9389 57.7649
20691 1 75.1735 43.5215 59.3475
20692 1 73.5909 41.9389 60.9301
20693 1 75.1735 43.5215 62.5127
20694 1 73.5909 41.9389 64.0953
20695 1 75.1735 43.5215 65.6779
20696 1 73.5909 41.9389 67.2605
20697 1 75.1735 43.5215 68.8431
20698 1 73.5909 41.9389 70.4257
20699 1 75.1735 43.5215 72.0083
20700 1 73.5909 41.9389 73.5909
20701 1 75.1735 43.5215 75.1735
20702 1 73.5909 41.9389 76.7561
20703 1 75.1735 43.5215 78.3387
20704 1 73.5909 45.1041 0.7913
20705 1 75.1735 46.6867 2.3739
20706 1 73.5909 45.1041 3.9565
20707 1 75.1735 46.6867 5.5391
20708 1 73.5909 45.1041 7.1217
20709 1 75.1735 46.6867 8.7043
20710 1 73.5909 45.1041 10.2869
20711 1 75.1735 46.6867 11.8695
20712 1 73.5909 45.1041 13.4521
20713 1 75.1735 46.6867 15.0347
20714 1 73.5909 45.1041 16.6173
20715 1 75.1735 46.6867 18.1999
20716 1 73.5909 45.1041 19.7825
20717 1 75.1735 46.6867 21.3651
20718 1 73.5909 45.1041 22.9477
20719 1 75.1735 46.6867 24.5303
20720 1 73.5909 45.1041 26.1129
20721 1 75.1735 46.6867 27.6955
20722 1 73.5909 45.1041 29.2781
20723 1 75.1735 46.6867 30.8607
20724 1 73.5909 45.1041 32.4433
20725 1 75.1735 46.6867 34.0259
20726 1 73.5909 45.1041 35.6085
20727 1 75.1735 46.6867 37.1911
20728 1 73.5909 45.1041 38.7737
20729 1 75.1735 46.6867 40.3563
20730 1 73.5909 45.1041 41.9389
20731 1 75.1735 46.6867 43.5215
20732 1 73.5909 45.1041 45.1041
20733 1 75.1735 46.6867 46.6867
20734 1 73.5909 45.1041 48.2693
20735 1 75.1735 46.6867 49.8519
20736 1 73.5909 45.1041 51.4345
20737 1 75.1735 46.6867 53.0171
20738 1 73.5909 45.1041 54.5997
20739 1 75.1735 46.6867 56.1823
20740 1 73.5909 45.1041 57.7649
20741 1 75.1735 46.6867 59.3475
20742 1 73.5909 45.1041 60.9301
20743 1 75.1735 46.6867 62.5127
20744 1 73.5909 45.1041 64.0953
20745 1 75.1735 46.6867 65.6779
20746 1 73.5909 45.1041 67.2605
20747 1 75.1735 46.6867 68.8431
20748 1 73.5909 45.1041 70.4257
20749 1 75.1735 46.6867 72.0083
20750 1 73.5909 45.1041 73.5909
20751 1 75.1735 46.6867 75.1735
20752 1 73.5909 45.1041 76.7561
20753 1 75.1735 46.6867 78.3387
20754 1 73.5909 48.2693 0.7913
20755 1 75.1735 49.8519 2.3739
20756 1 73.5909 48.2693 3.9565
20757 1 75.1735 49.8519 5.5391
20758 1 73.5909 48.2693 7.1217
20759 1 75.1735 49.8519 8.7043
20760 1 73.5909 48.2693 10.2869
20761 1 75.1735 49.8519 11.8695
20762 1 73.5909 48.2693 13.4521
20763 1 75.1735 49.8519 15.0347
20764 1 73.5909 48.2693 16.6173
20765 1 75.1735 49.8519 18.1999
20766 1 73.5909 48.2693 19.7825
20767 1 75.1735 49.8519 21.3651
20768 1 73.5909 48.2693 22.9477
20769 1 75.1735 49.8519 24.5303
20770 1 73.5909 48.2693 26.1129
20771 1 75.1735 49.8519 27.6955
20772 1 73.5909 48.2693 29.2781
20773 1 75.1735 49.8519 30.8607
20774 1 73.5909 48.2693 32.4433
20775 1 75.1735 49.8519 34.0259
20776 1 73.5909 48.2693 35.6085
20777 1 75.1735 49.8519 37.1911
20778 1 73.5909 48.2693 38.7737
20779 1 75.1735 49.8519 40.3563
20780 1 73.5909 48.2693 41.9389
20781 1 75.1735 49.8519 43.5215
20782 1 73.5909 48.2693 45.1041
20783 1 75.1735 49.8519 46.6867
20784 1 73.5909 48.2693 48.2693
20785 1 75.1735 49.8519 49.8519
20786 1 73.5909 48.2693 51.4345
20787 1 75.1735 49.8519 53.0171
20788 1 73.5909 48.2693 54.5997
20789 1 75.1735 49.8519 56.1823
20790 1 73.5909 48.2693 57.7649
20791 1 75.1735 49.8519 59.3475
20792 1 73.5909 48.2693 60.9301
20793 1 75.1735 49.8519 62.5127
20794 1 73.5909 48.2693 64.0953
20795 1 75.1735 49.8519 65.6779
20796 1 73.5909 48.2693 67.2605
20797 1 75.1735 49.8519 68.8431
20798 1 73.5909 48.2693 70.4257
20799 1 75.1735 49.8519 72.0083
20800 1 73.5909 48.2693 73.5909
20801 1 75.1735 49.8519 75.1735
20802 1 73.5909 48.2693 76.7561
20803 1 75.1735 49.8519 78.3387
20804 1 73.5909 51.4345 0.7913
20805 1 75.1735 53.0171 2.3739
20806 1 73.5909 51.4345 3.9565
20807 1 75.1735 53.0171 5.5391
20808 1 73.5909 51.4345 7.1217
20809 1 75.1735 53.0171 8.7043
20810 1 73.5909 51.4345 10.2869
20811 1 75.1735 53.0171 11.8695
20812 1 73.5909 51.4345 13.4521
20813 1 75.1735 53.0171 15.0347
20814 1 73.5909 51.4345 16.6173
20815 1 75.1735 53.0171 18.1999
20816 1 73.5909 51.4345 19.7825
20817 1 75.1735 53.0171 21.3651
20818 1 73.5909 51.4345 22.9477
20819 1 75.1735 53.0171 24.5303
20820 1 73.5909 51.4345 26.1129
20821 1 75.1735 53.0171 27.6955
20822 1 73.5909 51.4345 29.2781
20823 1 75.1735 53.0171 30.8607
20824 1 73.5909 51.4345 32.4433
20825 1 75.1735 53.0171 34.0259
20826 1 73.5909 51.4345 35.6085
20827 1 75.1735 53.0171 37.1911
20828 1 73.5909 51.4345 38.7737
20829 1 75.1735 53.0171 40.3563
20830 1 73.5909 51.4345 41.9389
20831 1 75.1735 53.0171 43.5215
20832 1 73.5909 51.4345 45.1041
20833 1 75.1735 53.0171 46.6867
20834 1 73.5909 51.4345 48.2693
20835 1 75.1735 53.0171 49.8519
20836 1 73.5909 51.4345 51.4345
20837 1 75.1735 53.0171 53.0171
20838 1 73.5909 51.4345 54.5997
20839 1 75.1735 53.0171 56.1823
20840 1 73.5909 51.4345 57.7649
20841 1 75.1735 53.0171 59.3475
20842 1 73.5909 51.4345 60.9301
20843 1 75.1735 53.0171 62.5127
20844 1 73.5909 51.4345 64.0953
20845 1 75.1735 53.0171 65.6779
20846 1 73.5909 51.4345 67.2605
20847 1 75.1735 53.0171 68.8431
20848 1 73.5909 51.4345 70.4257
20849 1 75.1735 53.0171 72.0083
20850 1 73.5909 51.4345 73.5909
20851 1 75.1735 53.0171 75.1735
20852 1 73.5909 51.4345 76.7561
20853 1 75.1735 53.0171 78.3387
20854 1 73.5909 54.5997 0.7913
20855 1 75.1735 56.1823 2.3739
20856 1 73.5909 54.5997 3.9565
20857 1 75.1735 56.1823 5.5391
20858 1 73.5909 54.5997 7.1217
20859 1 75.1735 56.1823 8.7043
20860 1 73.5909 54.5997 10.2869
20861 1 75.1735 56.1823 11.8695
20862 1 73.5909 54.5997 13.4521
20863 1 75.1735 56.1823 15.0347
20864 1 73.5909 54.5997 16.6173
20865 1 75.1735 56.1823 18.1999
20866 1 73.5909 54.5997 19.7825
20867 1 75.1735 56.1823 21.3651
20868 1 73.5909 54.5997 22.9477
20869 1 75.1735 56.1823 24.5303
20870 1 73.5909 54.5997 26.1129
20871 1 75.1735 56.1823 27.6955
20872 1 73.5909 54.5997 29.2781
20873 1 75.1735 56.1823 30.8607
20874 1 73.5909 54.5997 32.4433
20875 1 75.1735 56.1823 34.0259
20876 1 73.5909 54.5997 35.6085
20877 1 75.1735 56.1823 37.1911
20878 1 73.5909 54.5997 38.7737
20879 1 75.1735 56.1823 40.3563
20880 1 73.5909 54.5997 41.9389
20881 1 75.1735 56.1823 43.5215
20882 1 73.5909 54.5997 45.1041
20883 1 75.1735 56.1823 46.6867
20884 1 73.5909 54.5997 48.2693
20885 1 75.1735 56.1823 49.8519
20886 1 73.5909 54.5997 51.4345
20887 1 75.1735 56.1823 53.0171
20888 1 73.5909 54.5997 54.5997
20889 1 75.1735 56.1823 56.1823
20890 1 73.5909 54.5997 57.7649
20891 1 75.1735 56.1823 59.3475
20892 1 73.5909 54.5997 60.9301
20893 1 75.1735 56.1823 62.5127
20894 1 73.5909 54.5997 64.0953
20895 1 75.1735 56.1823 65.6779
20896 1 73.5909 54.5997 67.2605
20897 1 75.1735 56.1823 68.8431
20898 1 73.5909 54.5997 70.4257
20899 1 75.1735 56.1823 72.0083
20900 1 73.5909 54.5997 73.5909
20901 1 75.1735 56.1823 75.1735
20902 1 73.5909 54.5997 76.7561
20903 1 75.1735 56.1823 78.3387
20904 1 73.5909 57.7649 0.7913
20905 1 75.1735 59.3475 2.3739
20906 1 73.5909 57.7649 3.9565
20907 1 75.1735 59.3475 5.5391
20908 1 73.5909 57.7649 7.1217
20909 1 75.1735 59.3475 8.7043
20910 1 73.5909 57.7649 10.2869
20911 1 75.1735 59.3475 11.8695
20912 1 73.5909 57.7649 13.4521
20913 1 75.1735 59.3475 15.0347
20914 1 73.5909 57.7649 16.6173
20915 1 75.1735 59.3475 18.1999
20916 1 73.5909 57.7649 19.7825
20917 1 75.1735 59.3475 21.3651
20918 1 73.5909 57.7649 22.9477
20919 1 75.1735 59.3475 24.5303
20920 1 73.5909 57.7649 26.1129
20921 1 75.1735 59.3475 27.6955
20922 1 73.5909 57.7649 29.2781
20923 1 75.1735 59.3475 30.8607
20924 1 73.5909 57.7649 32.4433
20925 1 75.1735 59.3475 34.0259
20926 1 73.5909 57.7649 35.6085
20927 1 75.1735 59.3475 37.1911
20928 1 73.5909 57.7649 38.7737
20929 1 75.1735 59.3475 40.3563
20930 1 73.5909 57.7649 41.9389
20931 1 75.1735 59.3475 43.5215
20932 1 73.5909 57.7649 45.1041
20933 1 75.1735 59.3475 46.6867
20934 1 73.5909 57.7649 48.2693
20935 1 75.1735 59.3475 49.8519
20936 1 73.5909 57.7649 51.4345
20937 1 75.1735 59.3475 53.0171
20938 1 73.5909 57.7649 54.5997
20939 1 75.1735 59.3475 56.1823
20940 1 73.5909 57.7649 57.7649
20941 1 75.1735 59.3475 59.3475
20942 1 73.5909 57.7649 60.9301
20943 1 75.1735 59.3475 62.5127
20944 1 73.5909 57.7649 64.0953
20945 1 75.1735 59.3475 65.6779
20946 1 73.5909 57.7649 67.2605
20947 1 75.1735 59.3475 68.8431
20948 1 73.5909 57.7649 70.4257
20949 1 75.1735 59.3475 72.0083
20950 1 73.5909 57.7649 73.5909
20951 1 75.1735 59.3475 75.1735
20952 1 73.5909 57.7649 76.7561
20953 1 75.1735 59.3475 78.3387
20954 1 73.5909 60.9301 0.7913
20955 1 75.1735 62.5127 2.3739
20956 1 73.5909 60.9301 3.9565
20957 1 75.1735 62.5127 5.5391
20958 1 73.5909 60.9301 7.1217
20959 1 75.1735 62.5127 8.7043
20960 1 73.5909 60.9301 10.2869
20961 1 75.1735 62.5127 11.8695
20962 1 73.5909 60.9301 13.4521
20963 1 75.1735 62.5127 15.0347
20964 1 73.5909 60.9301 16.6173
20965 1 75.1735 62.5127 18.1999
20966 1 73.5909 60.9301 19.7825
20967 1 75.1735 62.5127 21.3651
20968 1 73.5909 60.9301 22.9477
20969 1 75.1735 62.5127 24.5303
20970 1 73.5909 60.9301 26.1129
20971 1 75.1735 62.5127 27.6955
20972 1 73.5909 60.9301 29.2781
20973 1 75.1735 62.5127 30.8607
20974 1 73.5909 60.9301 32.4433
20975 1 75.1735 62.5127 34.0259
20976 1 73.5909 60.9301 35.6085
20977 1 75.1735 62.5127 37.1911
20978 1 73.5909 60.9301 38.7737
20979 1 75.1735 62.5127 40.3563
20980 1 73.5909 60.9301 41.9389
20981 1 75.1735 62.5127 43.5215
20982 1 73.5909 60.9301 45.1041
20983 1 75.1735 62.5127 46.6867
20984 1 73.5909 60.9301 48.2693
20985 1 75.1735 62.5127 49.8519
20986 1 73.5909 60.9301 51.4345
20987 1 75.1735 62.5127 53.0171
20988 1 73.5909 60.9301 54.5997
20989 1 75.1735 62.5127 56.1823
20990 1 73.5909 60.9301 57.7649
20991 1 75.1735 62.5127 59.3475
20992 1 73.5909 60.9301 60.9301
20993 1 75.1735 62.5127 62.5127
20994 1 73.5909 60.9301 64.0953
20995 1 75.1735 62.5127 65.6779
20996 1 73.5909 60.9301 67.2605
20997 1 75.1735 62.5127 68.8431
20998 1 73.5909 60.9301 70.4257
20999 1 75.1735 62.5127 72.0083
21000 1 73.5909 60.9301 73.5909
21001 1 75.1735 62.5127 75.1735
21002 1 73.5909 60.9301 76.7561
21003 1 75.1735 62.5127 78.3387
21004 1 73.5909 64.0953 0.7913
21005 1 75.1735 65.6779 2.3739
21006 1 73.5909 64.0953 3.9565
21007 1 75.1735 65.6779 5.5391
21008 1 73.5909 64.0953 7.1217
21009 1 75.1735 65.6779 8.7043
21010 1 73.5909 64.0953 10.2869
21011 1 75.1735 65.6779 11.8695
21012 1 73.5909 64.0953 13.4521
21013 1 75.1735 65.6779 15.0347
21014 1 73.5909 64.0953 16.6173
21015 1 75.1735 65.6779 18.1999
21016 1 73.5909 64.0953 19.7825
21017 1 75.1735 65.6779 21.3651
21018 1 73.5909 64.0953 22.9477
21019 1 75.1735 65.6779 24.5303
21020 1 73.5909 64.0953 26.1129
21021 1 75.1735 65.6779 27.6955
21022 1 73.5909 64.0953 29.2781
21023 1 75.1735 65.6779 30.8607
21024 1 73.5909 64.0953 32.4433
21025 1 75.1735 65.6779 34.0259
21026 1 73.5909 64.0953 35.6085
21027 1 75.1735 65.6779 37.1911
21028 1 73.5909 64.0953 38.7737
21029 1 75.1735 65.6779 40.3563
21030 1 73.5909 64.0953 41.9389
21031 1 75.1735 65.6779 43.5215
21032 1 73.5909 64.0953 45.1041
21033 1 75.1735 65.6779 46.6867
21034 1 73.5909 64.0953 48.2693
21035 1 75.1735 65.6779 49.8519
21036 1 73.5909 64.0953 51.4345
21037 1 75.1735 65.6779 53.0171
21038 1 73.5909 64.0953 54.5997
21039 1 75.1735 65.6779 56.1823
21040 1 73.5909 64.0953 57.7649
21041 1 75.1735 65.6779 59.3475
21042 1 73.5909 64.0953 60.9301
21043 1 75.1735 65.6779 62.5127
21044 1 73.5909 64.0953 64.0953
21045 1 75.1735 65.6779 65.6779
21046 1 73.5909 64.0953 67.2605
21047 1 75.1735 65.6779 68.8431
21048 1 73.5909 64.0953 70.4257
21049 1 75.1735 65.6779 72.0083
21050 1 73.5909 64.0953 73.5909
21051 1 75.1735 65.6779 75.1735
21052 1 73.5909 64.0953 76.7561
21053 1 75.1735 65.6779 78.3387
21054 1 73.5909 67.2605 0.7913
21055 1 75.1735 68.8431 2.3739
21056 1 73.5909 67.2605 3.9565
21057 1 75.1735 68.8431 5.5391
21058 1 73.5909 67.2605 7.1217
21059 1 75.1735 68.8431 8.7043
21060 1 73.5909 67.2605 10.2869
21061 1 75.1735 68.8431 11.8695
21062 1 73.5909 67.2605 13.4521
21063 1 75.1735 68.8431 15.0347
21064 1 73.5909 67.2605 16.6173
21065 1 75.1735 68.8431 18.1999
21066 1 73.5909 67.2605 19.7825
21067 1 75.1735 68.8431 21.3651
21068 1 73.5909 67.2605 22.9477
21069 1 75.1735 68.8431 24.5303
21070 1 73.5909 67.2605 26.1129
21071 1 75.1735 68.8431 27.6955
21072 1 73.5909 67.2605 29.2781
21073 1 75.1735 68.8431 30.8607
21074 1 73.5909 67.2605 32.4433
21075 1 75.1735 68.8431 34.0259
21076 1 73.5909 67.2605 35.6085
21077 1 75.1735 68.8431 37.1911
21078 1 73.5909 67.2605 38.7737
21079 1 75.1735 68.8431 40.3563
21080 1 73.5909 67.2605 41.9389
21081 1 75.1735 68.8431 43.5215
21082 1 73.5909 67.2605 45.1041
21083 1 75.1735 68.8431 46.6867
21084 1 73.5909 67.2605 48.2693
21085 1 75.1735 68.8431 49.8519
21086 1 73.5909 67.2605 51.4345
21087 1 75.1735 68.8431 53.0171
21088 1 73.5909 67.2605 54.5997
21089 1 75.1735 68.8431 56.1823
21090 1 73.5909 67.2605 57.7649
21091 1 75.1735 68.8431 59.3475
21092 1 73.5909 67.2605 60.9301
21093 1 75.1735 68.8431 62.5127
21094 1 73.5909 67.2605 64.0953
21095 1 75.1735 68.8431 65.6779
21096 1 73.5909 67.2605 67.2605
21097 1 75.1735 68.8431 68.8431
21098 1 73.5909 67.2605 70.4257
21099 1 75.1735 68.8431 72.0083
21100 1 73.5909 67.2605 73.5909
21101 1 75.1735 68.8431 75.1735
21102 1 73.5909 67.2605 76.7561
21103 1 75.1735 68.8431 78.3387
21104 1 73.5909 70.4257 0.7913
21105 1 75.1735 72.0083 2.3739
21106 1 73.5909 70.4257 3.9565
21107 1 75.1735 72.0083 5.5391
21108 1 73.5909 70.4257 7.1217
21109 1 75.1735 72.0083 8.7043
21110 1 73.5909 70.4257 10.2869
21111 1 75.1735 72.0083 11.8695
21112 1 73.5909 70.4257 13.4521
21113 1 75.1735 72.0083 15.0347
21114 1 73.5909 70.4257 16.6173
21115 1 75.1735 72.0083 18.1999
21116 1 73.5909 70.4257 19.7825
21117 1 75.1735 72.0083 21.3651
21118 1 73.5909 70.4257 22.9477
21119 1 75.1735 72.0083 24.5303
21120 1 73.5909 70.4257 26.1129
21121 1 75.1735 72.0083 27.6955
21122 1 73.5909 70.4257 29.2781
21123 1 75.1735 72.0083 30.8607
21124 1 73.5909 70.4257 32.4433
21125 1 75.1735 72.0083 34.0259
21126 1 73.5909 70.4257 35.6085
21127 1 75.1735 72.0083 37.1911
21128 1 73.5909 70.4257 38.7737
21129 1 75.1735 72.0083 40.3563
21130 1 73.5909 70.4257 41.9389
21131 1 75.1735 72.0083 43.5215
21132 1 73.5909 70.4257 45.1041
21133 1 75.1735 72.0083 46.6867
21134 1 73.5909 70.4257 48.2693
21135 1 75.1735 72.0083 49.8519
21136 1 73.5909 70.4257 51.4345
21137 1 75.1735 72.0083 53.0171
21138 1 73.5909 70.4257 54.5997
21139 1 75.1735 72.0083 56.1823
21140 1 73.5909 70.4257 57.7649
21141 1 75.1735 72.0083 59.3475
21142 1 73.5909 70.4257 60.9301
21143 1 75.1735 72.0083 62.5127
21144 1 73.5909 70.4257 64.0953
21145 1 75.1735 72.0083 65.6779
21146 1 73.5909 70.4257 67.2605
21147 1 75.1735 72.0083 68.8431
21148 1 73.5909 70.4257 70.4257
21149 1 75.1735 72.0083 72.0083
21150 1 73.5909 70.4257 73.5909
21151 1 75.1735 72.0083 75.1735
21152 1 73.5909 70.4257 76.7561
21153 1 75.1735 72.0083 78.3387
21154 1 73.5909 73.5909 0.7913
21155 1 75.1735 75.1735 2.3739
21156 1 73.5909 73.5909 3.9565
21157 1 75.1735 75.1735 5.5391
21158 1 73.5909 73.5909 7.1217
21159 1 75.1735 75.1735 8.7043
21160 1 73.5909 73.5909 10.2869
21161 1 75.1735 75.1735 11.8695
21162 1 73.5909 73.5909 13.4521
21163 1 75.1735 75.1735 15.0347
21164 1 73.5909 73.5909 16.6173
21165 1 75.1735 75.1735 18.1999
21166 1 73.5909 73.5909 19.7825
21167 1 75.1735 75.1735 21.3651
21168 1 73.5909 73.5909 22.9477
21169 1 75.1735 75.1735 24.5303
21170 1 73.5909 73.5909 26.1129
21171 1 75.1735 75.1735 27.6955
21172 1 73.5909 73.5909 29.2781
21173 1 75.1735 75.1735 30.8607
21174 1 73.5909 73.5909 32.4433
21175 1 75.1735 75.1735 34.0259
21176 1 73.5909 73.5909 35.6085
21177 1 75.1735 75.1735 37.1911
21178 1 73.5909 73.5909 38.7737
21179 1 75.1735 75.1735 40.3563
21180 1 73.5909 73.5909 41.9389
21181 1 75.1735 75.1735 43.5215
21182 1 73.5909 73.5909 45.1041
21183 1 75.1735 75.1735 46.6867
21184 1 73.5909 73.5909 48.2693
21185 1 75.1735 75.1735 49.8519
21186 1 73.5909 73.5909 51.4345
21187 1 75.1735 75.1735 53.0171
21188 1 73.5909 73.5909 54.5997
21189 1 75.1735 75.1735 56.1823
21190 1 73.5909 73.5909 57.7649
21191 1 75.1735 75.1735 59.3475
21192 1 73.5909 73.5909 60.9301
21193 1 75.1735 75.1735 62.5127
21194 1 73.5909 73.5909 64.0953
21195 1 75.1735 75.1735 65.6779
21196 1 73.5909 73.5909 67.2605
21197 1 75.1735 75.1735 68.8431
21198 1 73.5909 73.5909 70.4257
21199 1 75.1735 75.1735 72.0083
21200 1 73.5909 73.5909 73.5909
21201 1 75.1735 75.1735 75.1735
21202 1 73.5909 73.5909 76.7561
21203 1 75.1735 75.1735 78.3387
21204 1 73.5909 76.7561 0.7913
21205 1 75.1735 78.3387 2.3739
21206 1 73.5909 76.7561 3.9565
21207 1 75.1735 78.3387 5.5391
21208 1 73.5909 76.7561 7.1217
21209 1 75.1735 78.3387 8.7043
21210 1 73.5909 76.7561 10.2869
21211 1 75.1735 78.3387 11.8695
21212 1 73.5909 76.7561 13.4521
21213 1 75.1735 78.3387 15.0347
21214 1 73.5909 76.7561 16.6173
21215 1 75.1735 78.3387 18.1999
21216 1 73.5909 76.7561 19.7825
21217 1 75.1735 78.3387 21.3651
21218 1 73.5909 76.7561 22.9477
21219 1 75.1735 78.3387 24.5303
21220 1 73.5909 76.7561 26.1129
21221 1 75.1735 78.3387 27.6955
21222 1 73.5909 76.7561 29.2781
21223 1 75.1735 78.3387 30.8607
21224 1 73.5909 76.7561 32.4433
21225 1 75.1735 78.3387 34.0259
21226 1 73.5909 76.7561 35.6085
21227 1 75.1735 78.3387 37.1911
21228 1 73.5909 76.7561 38.7737
21229 1 75.1735 78.3387 40.3563
21230 1 73.5909 76.7561 41.9389
21231 1 75.1735 78.3387 43.5215
21232 1 73.5909 76.7561 45.1041
21233 1 75.1735 78.3387 46.6867
21234 1 73.5909 76.7561 48.2693
21235 1 75.1735 78.3387 49.8519
21236 1 73.5909 76.7561 51.4345
21237 1 75.1735 78.3387 53.0171
21238 1 73.5909 76.7561 54.5997
21239 1 75.1735 78.3387 56.1823
21240 1 73.5909 76.7561 57.7649
21241 1 75.1735 78.3387 59.3475
21242 1 73.5909 76.7561 60.9301
21243 1 75.1735 78.3387 62.5127
21244 1 73.5909 76.7561 64.0953
21245 1 75.1735 78.3387 65.6779
21246 1 73.5909 76.7561 67.2605
21247 1 75.1735 78.3387 68.8431
21248 1 73.5909 76.7561 70.4257
21249 1 75.1735 78.3387 72.0083
21250 1 73.5909 76.7561 73.5909
21251 1 75.1735 78.3387 75.1735
21252 1 73.5909 76.7561 76.7561
21253 1 75.1735 78.3387 78.3387
21254 1 76.7561 0.7913 0.7913
21255 1 78.3387 2.3739 2.3739
21256 1 76.7561 0.7913 3.9565
21257 1 78.3387 2.3739 5.5391
21258 1 76.7561 0.7913 7.1217
21259 1 78.3387 2.3739 8.7043
21260 1 76.7561 0.7913 10.2869
21261 1 78.3387 2.3739 11.8695
21262 1 76.7561 0.7913 13.4521
21263 1 78.3387 2.3739 15.0347
21264 1 76.7561 0.7913 16.6173
21265 1 78.3387 2.3739 18.1999
21266 1 76.7561 0.7913 19.7825
21267 1 78.3387 2.3739 21.3651
21268 1 76.7561 0.7913 22.9477
21269 1 78.3387 2.3739 24.5303
21270 1 76.7561 0.7913 26.1129
21271 1 78.3387 2.3739 27.6955
21272 1 76.7561 0.7913 29.2781
21273 1 78.3387 2.3739 30.8607
21274 1 76.7561 0.7913 32.4433
21275 1 78.3387 2.3739 34.0259
21276 1 76.7561 0.7913 35.6085
21277 1 78.3387 2.3739 37.1911
21278 1 76.7561 0.7913 38.7737
21279 1 78.3387 2.3739 40.3563
21280 1 76.7561 0.7913 41.9389
21281 1 78.3387 2.3739 43.5215
21282 1 76.7561 0.7913 45.1041
21283 1 78.3387 2.3739 46.6867
21284 1 76.7561 0.7913 48.2693
21285 1 78.3387 2.3739 49.8519
21286 1 76.7561 0.7913 51.4345
21287 1 78.3387 2.3739 53.0171
21288 1 76.7561 0.7913 54.5997
21289 1 78.3387 2.3739 56.1823
21290 1 76.7561 0.7913 57.7649
21291 1 78.3387 2.3739 59.3475
21292 1 76.7561 0.7913 60.9301
21293 1 78.3387 2.3739 62.5127
21294 1 76.7561 0.7913 64.0953
21295 1 78.3387 2.3739 65.6779
21296 1 76.7561 0.7913 67.2605
21297 1 78.3387 2.3739 68.8431
21298 1 76.7561 0.7913 70.4257
21299 1 78.3387 2.3739 72.0083
21300 1 76.7561 0.7913 73.5909
21301 1 78.3387 2.3739 75.1735
21302 1 76.7561 0.7913 76.7561
21303 1 78.3387 2.3739 78.3387
21304 1 76.7561 3.9565 0.7913
21305 1 78.3387 5.5391 2.3739
21306 1 76.7561 3.9565 3.9565
21307 1 78.3387 5.5391 5.5391
21308 1 76.7561 3.9565 7.1217
21309 1 78.3387 5.5391 8.7043
21310 1 76.7561 3.9565 10.2869
21311 1 78.3387 5.5391 11.8695
21312 1 76.7561 3.9565 13.4521
21313 1 78.3387 5.5391 15.0347
21314 1 76.7561 3.9565 16.6173
21315 1 78.3387 5.5391 18.1999
21316 1 76.7561 3.9565 19.7825
21317 1 78.3387 5.5391 21.3651
21318 1 76.7561 3.9565 22.9477
21319 1 78.3387 5.5391 24.5303
21320 1 76.7561 3.9565 26.1129
21321 1 78.3387 5.5391 27.6955
21322 1 76.7561 3.9565 29.2781
21323 1 78.3387 5.5391 30.8607
21324 1 76.7561 3.9565 32.4433
21325 1 78.3387 5.5391 34.0259
21326 1 76.7561 3.9565 35.6085
21327 1 78.3387 5.5391 37.1911
21328 1 76.7561 3.9565 38.7737
21329 1 78.3387 5.5391 40.3563
21330 1 76.7561 3.9565 41.9389
21331 1 78.3387 5.5391 43.5215
21332 1 76.7561 3.9565 45.1041
21333 1 78.3387 5.5391 46.6867
21334 1 76.7561 3.9565 48.2693
21335 1 78.3387 5.5391 49.8519
21336 1 76.7561 3.9565 51.4345
21337 1 78.3387 5.5391 53.0171
21338 1 76.7561 3.9565 54.5997
21339 1 78.3387 5.5391 56.1823
21340 1 76.7561 3.9565 57.7649
21341 1 78.3387 5.5391 59.3475
21342 1 76.7561 3.9565 60.9301
21343 1 78.3387 5.5391 62.5127
21344 1 76.7561 3.9565 64.0953
21345 1 78.3387 5.5391 65.6779
21346 1 76.7561 3.9565 67.2605
21347 1 78.3387 5.5391 68.8431
21348 1 76.7561 3.9565 70.4257
21349 1 78.3387 5.5391 72.0083
21350 1 76.7561 3.9565 73.5909
21351 1 78.3387 5.5391 75.1735
21352 1 76.7561 3.9565 76.7561
21353 1 78.3387 5.5391 78.3387
21354 1 76.7561 7.1217 0.7913
21355 1 78.3387 8.7043 2.3739
21356 1 76.7561 7.1217 3.9565
21357 1 78.3387 8.7043 5.5391
21358 1 76.7561 7.1217 7.1217
21359 1 78.3387 8.7043 8.7043
21360 1 76.7561 7.1217 10.2869
21361 1 78.3387 8.7043 11.8695
21362 1 76.7561 7.1217 13.4521
21363 1 78.3387 8.7043 15.0347
21364 1 76.7561 7.1217 16.6173
21365 1 78.3387 8.7043 18.1999
21366 1 76.7561 7.1217 19.7825
21367 1 78.3387 8.7043 21.3651
21368 1 76.7561 7.1217 22.9477
21369 1 78.3387 8.7043 24.5303
21370 1 76.7561 7.1217 26.1129
21371 1 78.3387 8.7043 27.6955
21372 1 76.7561 7.1217 29.2781
21373 1 78.3387 8.7043 30.8607
21374 1 76.7561 7.1217 32.4433
21375 1 78.3387 8.7043 34.0259
21376 1 76.7561 7.1217 35.6085
21377 1 78.3387 8.7043 37.1911
21378 1 76.7561 7.1217 38.7737
21379 1 78.3387 8.7043 40.3563
21380 1 76.7561 7.1217 41.9389
21381 1 78.3387 8.7043 43.5215
21382 1 76.7561 7.1217 45.1041
21383 1 78.3387 8.7043 46.6867
21384 1 76.7561 7.1217 48.2693
21385 1 78.3387 8.7043 49.8519
21386 1 76.7561 7.1217 51.4345
21387 1 78.3387 8.7043 53.0171
21388 1 76.7561 7.1217 54.5997
21389 1 78.3387 8.7043 56.1823
21390 1 76.7561 7.1217 57.7649
21391 1 78.3387 8.7043 59.3475
21392 1 76.7561 7.1217 60.9301
21393 1 78.3387 8.7043 62.5127
21394 1 76.7561 7.1217 64.0953
21395 1 78.3387 8.7043 65.6779
21396 1 76.7561 7.1217 67.2605
21397 1 78.3387 8.7043 68.8431
21398 1 76.7561 7.1217 70.4257
21399 1 78.3387 8.7043 72.0083
21400 1 76.7561 7.1217 73.5909
21401 1 78.3387 8.7043 75.1735
21402 1 76.7561 7.1217 76.7561
21403 1 78.3387 8.7043 78.3387
21404 1 76.7561 10.2869 0.7913
21405 1 78.3387 11.8695 2.3739
21406 1 76.7561 10.2869 3.9565
21407 1 78.3387 11.8695 5.5391
21408 1 76.7561 10.2869 7.1217
21409 1 78.3387 11.8695 8.7043
21410 1 76.7561 10.2869 10.2869
21411 1 78.3387 11.8695 11.8695
21412 1 76.7561 10.2869 13.4521
21413 1 78.3387 11.8695 15.0347
21414 1 76.7561 10.2869 16.6173
21415 1 78.3387 11.8695 18.1999
21416 1 76.7561 10.2869 19.7825
21417 1 78.3387 11.8695 21.3651
21418 1 76.7561 10.2869 22.9477
21419 1 78.3387 11.8695 24.5303
21420 1 76.7561 10.2869 26.1129
21421 1 78.3387 11.8695 27.6955
21422 1 76.7561 10.2869 29.2781
21423 1 78.3387 11.8695 30.8607
21424 1 76.7561 10.2869 32.4433
21425 1 78.3387 11.8695 34.0259
21426 1 76.7561 10.2869 35.6085
21427 1 78.3387 11.8695 37.1911
21428 1 76.7561 10.2869 38.7737
21429 1 78.3387 11.8695 40.3563
21430 1 76.7561 10.2869 41.9389
21431 1 78.3387 11.8695 43.5215
21432 1 76.7561 10.2869 45.1041
21433 1 78.3387 11.8695 46.6867
21434 1 76.7561 10.2869 48.2693
21435 1 78.3387 11.8695 49.8519
21436 1 76.7561 10.2869 51.4345
21437 1 78.3387 11.8695 53.0171
21438 1 76.7561 10.2869 54.5997
21439 1 78.3387 11.8695 56.1823
21440 1 76.7561 10.2869 57.7649
21441 1 78.3387 11.8695 59.3475
21442 1 76.7561 10.2869 60.9301
21443 1 78.3387 11.8695 62.5127
21444 1 76.7561 10.2869 64.0953
21445 1 78.3387 11.8695 65.6779
21446 1 76.7561 10.2869 67.2605
21447 1 78.3387 11.8695 68.8431
21448 1 76.7561 10.2869 70.4257
21449 1 78.3387 11.8695 72.0083
21450 1 76.7561 10.2869 73.5909
21451 1 78.3387 11.8695 75.1735
21452 1 76.7561 10.2869 76.7561
21453 1 78.3387 11.8695 78.3387
21454 1 76.7561 13.4521 0.7913
21455 1 78.3387 15.0347 2.3739
21456 1 76.7561 13.4521 3.9565
21457 1 78.3387 15.0347 5.5391
21458 1 76.7561 13.4521 7.1217
21459 1 78.3387 15.0347 8.7043
21460 1 76.7561 13.4521 10.2869
21461 1 78.3387 15.0347 11.8695
21462 1 76.7561 13.4521 13.4521
21463 1 78.3387 15.0347 15.0347
21464 1 76.7561 13.4521 16.6173
21465 1 78.3387 15.0347 18.1999
21466 1 76.7561 13.4521 19.7825
21467 1 78.3387 15.0347 21.3651
21468 1 76.7561 13.4521 22.9477
21469 1 78.3387 15.0347 24.5303
21470 1 76.7561 13.4521 26.1129
21471 1 78.3387 15.0347 27.6955
21472 1 76.7561 13.4521 29.2781
21473 1 78.3387 15.0347 30.8607
21474 1 76.7561 13.4521 32.4433
21475 1 78.3387 15.0347 34.0259
21476 1 76.7561 13.4521 35.6085
21477 1 78.3387 15.0347 37.1911
21478 1 76.7561 13.4521 38.7737
21479 1 78.3387 15.0347 40.3563
21480 1 76.7561 13.4521 41.9389
21481 1 78.3387 15.0347 43.5215
21482 1 76.7561 13.4521 45.1041
21483 1 78.3387 15.0347 46.6867
21484 1 76.7561 13.4521 48.2693
21485 1 78.3387 15.0347 49.8519
21486 1 76.7561 13.4521 51.4345
21487 1 78.3387 15.0347 53.0171
21488 1 76.7561 13.4521 54.5997
21489 1 78.3387 15.0347 56.1823
21490 1 76.7561 13.4521 57.7649
21491 1 78.3387 15.0347 59.3475
21492 1 76.7561 13.4521 60.9301
21493 1 78.3387 15.0347 62.5127
21494 1 76.7561 13.4521 64.0953
21495 1 78.3387 15.0347 65.6779
21496 1 76.7561 13.4521 67.2605
21497 1 78.3387 15.0347 68.8431
21498 1 76.7561 13.4521 70.4257
21499 1 78.3387 15.0347 72.0083
21500 1 76.7561 13.4521 73.5909
21501 1 78.3387 15.0347 75.1735
21502 1 76.7561 13.4521 76.7561
21503 1 78.3387 15.0347 78.3387
21504 1 76.7561 16.6173 0.7913
21505 1 78.3387 18.1999 2.3739
21506 1 76.7561 16.6173 3.9565
21507 1 78.3387 18.1999 5.5391
21508 1 76.7561 16.6173 7.1217
21509 1 78.3387 18.1999 8.7043
21510 1 76.7561 16.6173 10.2869
21511 1 78.3387 18.1999 11.8695
21512 1 76.7561 16.6173 13.4521
21513 1 78.3387 18.1999 15.0347
21514 1 76.7561 16.6173 16.6173
21515 1 78.3387 18.1999 18.1999
21516 1 76.7561 16.6173 19.7825
21517 1 78.3387 18.1999 21.3651
21518 1 76.7561 16.6173 22.9477
21519 1 78.3387 18.1999 24.5303
21520 1 76.7561 16.6173 26.1129
21521 1 78.3387 18.1999 27.6955
21522 1 76.7561 16.6173 29.2781
21523 1 78.3387 18.1999 30.8607
21524 1 76.7561 16.6173 32.4433
21525 1 78.3387 18.1999 34.0259
21526 1 76.7561 16.6173 35.6085
21527 1 78.3387 18.1999 37.1911
21528 1 76.7561 16.6173 38.7737
21529 1 78.3387 18.1999 40.3563
21530 1 76.7561 16.6173 41.9389
21531 1 78.3387 18.1999 43.5215
21532 1 76.7561 16.6173 45.1041
21533 1 78.3387 18.1999 46.6867
21534 1 76.7561 16.6173 48.2693
21535 1 78.3387 18.1999 49.8519
21536 1 76.7561 16.6173 51.4345
21537 1 78.3387 18.1999 53.0171
21538 1 76.7561 16.6173 54.5997
21539 1 78.3387 18.1999 56.1823
21540 1 76.7561 16.6173 57.7649
21541 1 78.3387 18.1999 59.3475
21542 1 76.7561 16.6173 60.9301
21543 1 78.3387 18.1999 62.5127
21544 1 76.7561 16.6173 64.0953
21545 1 78.3387 18.1999 65.6779
21546 1 76.7561 16.6173 67.2605
21547 1 78.3387 18.1999 68.8431
21548 1 76.7561 16.6173 70.4257
21549 1 78.3387 18.1999 72.0083
21550 1 76.7561 16.6173 73.5909
21551 1 78.3387 18.1999 75.1735
21552 1 76.7561 16.6173 76.7561
21553 1 78.3387 18.1999 78.3387
21554 1 76.7561 19.7825 0.7913
21555 1 78.3387 21.3651 2.3739
21556 1 76.7561 19.7825 3.9565
21557 1 78.3387 21.3651 5.5391
21558 1 76.7561 19.7825 7.1217
21559 1 78.3387 21.3651 8.7043
21560 1 76.7561 19.7825 10.2869
21561 1 78.3387 21.3651 11.8695
21562 1 76.7561 19.7825 13.4521
21563 1 78.3387 21.3651 15.0347
21564 1 76.7561 19.7825 16.6173
21565 1 78.3387 21.3651 18.1999
21566 1 76.7561 19.7825 19.7825
21567 1 78.3387 21.3651 21.3651
21568 1 76.7561 19.7825 22.9477
21569 1 78.3387 21.3651 24.5303
21570 1 76.7561 19.7825 26.1129
21571 1 78.3387 21.3651 27.6955
21572 1 76.7561 19.7825 29.2781
21573 1 78.3387 21.3651 30.8607
21574 1 76.7561 19.7825 32.4433
21575 1 78.3387 21.3651 34.0259
21576 1 76.7561 19.7825 35.6085
21577 1 78.3387 21.3651 37.1911
21578 1 76.7561 19.7825 38.7737
21579 1 78.3387 21.3651 40.3563
21580 1 76.7561 19.7825 41.9389
21581 1 78.3387 21.3651 43.5215
21582 1 76.7561 19.7825 45.1041
21583 1 78.3387 21.3651 46.6867
21584 1 76.7561 19.7825 48.2693
21585 1 78.3387 21.3651 49.8519
21586 1 76.7561 19.7825 51.4345
21587 1 78.3387 21.3651 53.0171
21588 1 76.7561 19.7825 54.5997
21589 1 78.3387 21.3651 56.1823
21590 1 76.7561 19.7825 57.7649
21591 1 78.3387 21.3651 59.3475
21592 1 76.7561 19.7825 60.9301
21593 1 78.3387 21.3651 62.5127
21594 1 76.7561 19.7825 64.0953
21595 1 78.3387 21.3651 65.6779
21596 1 76.7561 19.7825 67.2605
21597 1 78.3387 21.3651 68.8431
21598 1 76.7561 19.7825 70.4257
21599 1 78.3387 21.3651 72.0083
21600 1 76.7561 19.7825 73.5909
21601 1 78.3387 21.3651 75.1735
21602 1 76.7561 19.7825 76.7561
21603 1 78.3387 21.3651 78.3387
21604 1 76.7561 22.9477 0.7913
21605 1 78.3387 24.5303 2.3739
21606 1 76.7561 22.9477 3.9565
21607 1 78.3387 24.5303 5.5391
21608 1 76.7561 22.9477 7.1217
21609 1 78.3387 24.5303 8.7043
21610 1 76.7561 22.9477 10.2869
21611 1 78.3387 24.5303 11.8695
21612 1 76.7561 22.9477 13.4521
21613 1 78.3387 24.5303 15.0347
21614 1 76.7561 22.9477 16.6173
21615 1 78.3387 24.5303 18.1999
21616 1 76.7561 22.9477 19.7825
21617 1 78.3387 24.5303 21.3651
21618 1 76.7561 22.9477 22.9477
21619 1 78.3387 24.5303 24.5303
21620 1 76.7561 22.9477 26.1129
21621 1 78.3387 24.5303 27.6955
21622 1 76.7561 22.9477 29.2781
21623 1 78.3387 24.5303 30.8607
21624 1 76.7561 22.9477 32.4433
21625 1 78.3387 24.5303 34.0259
21626 1 76.7561 22.9477 35.6085
21627 1 78.3387 24.5303 37.1911
21628 1 76.7561 22.9477 38.7737
21629 1 78.3387 24.5303 40.3563
21630 1 76.7561 22.9477 41.9389
21631 1 78.3387 24.5303 43.5215
21632 1 76.7561 22.9477 45.1041
21633 1 78.3387 24.5303 46.6867
21634 1 76.7561 22.9477 48.2693
21635 1 78.3387 24.5303 49.8519
21636 1 76.7561 22.9477 51.4345
21637 1 78.3387 24.5303 53.0171
21638 1 76.7561 22.9477 54.5997
21639 1 78.3387 24.5303 56.1823
21640 1 76.7561 22.9477 57.7649
21641 1 78.3387 24.5303 59.3475
21642 1 76.7561 22.9477 60.9301
21643 1 78.3387 24.5303 62.5127
21644 1 76.7561 22.9477 64.0953
21645 1 78.3387 24.5303 65.6779
21646 1 76.7561 22.9477 67.2605
21647 1 78.3387 24.5303 68.8431
21648 1 76.7561 22.9477 70.4257
21649 1 78.3387 24.5303 72.0083
21650 1 76.7561 22.9477 73.5909
21651 1 78.3387 24.5303 75.1735
21652 1 76.7561 22.9477 76.7561
21653 1 78.3387 24.5303 78.3387
21654 1 76.7561 26.1129 0.7913
21655 1 78.3387 27.6955 2.3739
21656 1 76.7561 26.1129 3.9565
21657 1 78.3387 27.6955 5.5391
21658 1 76.7561 26.1129 7.1217
21659 1 78.3387 27.6955 8.7043
21660 1 76.7561 26.1129 10.2869
21661 1 78.3387 27.6955 11.8695
21662 1 76.7561 26.1129 13.4521
21663 1 78.3387 27.6955 15.0347
21664 1 76.7561 26.1129 16.6173
21665 1 78.3387 27.6955 18.1999
21666 1 76.7561 26.1129 19.7825
21667 1 78.3387 27.6955 21.3651
21668 1 76.7561 26.1129 22.9477
21669 1 78.3387 27.6955 24.5303
21670 1 76.7561 26.1129 26.1129
21671 1 78.3387 27.6955 27.6955
21672 1 76.7561 26.1129 29.2781
21673 1 78.3387 27.6955 30.8607
21674 1 76.7561 26.1129 32.4433
21675 1 78.3387 27.6955 34.0259
21676 1 76.7561 26.1129 35.6085
21677 1 78.3387 27.6955 37.1911
21678 1 76.7561 26.1129 38.7737
21679 1 78.3387 27.6955 40.3563
21680 1 76.7561 26.1129 41.9389
21681 1 78.3387 27.6955 43.5215
21682 1 76.7561 26.1129 45.1041
21683 1 78.3387 27.6955 46.6867
21684 1 76.7561 26.1129 48.2693
21685 1 78.3387 27.6955 49.8519
21686 1 76.7561 26.1129 51.4345
21687 1 78.3387 27.6955 53.0171
21688 1 76.7561 26.1129 54.5997
21689 1 78.3387 27.6955 56.1823
21690 1 76.7561 26.1129 57.7649
21691 1 78.3387 27.6955 59.3475
21692 1 76.7561 26.1129 60.9301
21693 1 78.3387 27.6955 62.5127
21694 1 76.7561 26.1129 64.0953
21695 1 78.3387 27.6955 65.6779
21696 1 76.7561 26.1129 67.2605
21697 1 78.3387 27.6955 68.8431
21698 1 76.7561 26.1129 70.4257
21699 1 78.3387 27.6955 72.0083
21700 1 76.7561 26.1129 73.5909
21701 1 78.3387 27.6955 75.1735
21702 1 76.7561 26.1129 76.7561
21703 1 78.3387 27.6955 78.3387
21704 1 76.7561 29.2781 0.7913
21705 1 78.3387 30.8607 2.3739
21706 1 76.7561 29.2781 3.9565
21707 1 78.3387 30.8607 5.5391
21708 1 76.7561 29.2781 7.1217
21709 1 78.3387 30.8607 8.7043
21710 1 76.7561 29.2781 10.2869
21711 1 78.3387 30.8607 11.8695
21712 1 76.7561 29.2781 13.4521
21713 1 78.3387 30.8607 15.0347
21714 1 76.7561 29.2781 16.6173
21715 1 78.3387 30.8607 18.1999
21716 1 76.7561 29.2781 19.7825
21717 1 78.3387 30.8607 21.3651
21718 1 76.7561 29.2781 22.9477
21719 1 78.3387 30.8607 24.5303
21720 1 76.7561 29.2781 26.1129
21721 1 78.3387 30.8607 27.6955
21722 1 76.7561 29.2781 29.2781
21723 1 78.3387 30.8607 30.8607
21724 1 76.7561 29.2781 32.4433
21725 1 78.3387 30.8607 34.0259
21726 1 76.7561 29.2781 35.6085
21727 1 78.3387 30.8607 37.1911
21728 1 76.7561 29.2781 38.7737
21729 1 78.3387 30.8607 40.3563
21730 1 76.7561 29.2781 41.9389
21731 1 78.3387 30.8607 43.5215
21732 1 76.7561 29.2781 45.1041
21733 1 78.3387 30.8607 46.6867
21734 1 76.7561 29.2781 48.2693
21735 1 78.3387 30.8607 49.8519
21736 1 76.7561 29.2781 51.4345
21737 1 78.3387 30.8607 53.0171
21738 1 76.7561 29.2781 54.5997
21739 1 78.3387 30.8607 56.1823
21740 1 76.7561 29.2781 57.7649
21741 1 78.3387 30.8607 59.3475
21742 1 76.7561 29.2781 60.9301
21743 1 78.3387 30.8607 62.5127
21744 1 76.7561 29.2781 64.0953
21745 1 78.3387 30.8607 65.6779
21746 1 76.7561 29.2781 67.2605
21747 1 78.3387 30.8607 68.8431
21748 1 76.7561 29.2781 70.4257
21749 1 78.3387 30.8607 72.0083
21750 1 76.7561 29.2781 73.5909
21751 1 78.3387 30.8607 75.1735
21752 1 76.7561 29.2781 76.7561
21753 1 78.3387 30.8607 78.3387
21754 1 76.7561 32.4433 0.7913
21755 1 78.3387 34.0259 2.3739
21756 1 76.7561 32.4433 3.9565
21757 1 78.3387 34.0259 5.5391
21758 1 76.7561 32.4433 7.1217
21759 1 78.3387 34.0259 8.7043
21760 1 76.7561 32.4433 10.2869
21761 1 78.3387 34.0259 11.8695
21762 1 76.7561 32.4433 13.4521
21763 1 78.3387 34.0259 15.0347
21764 1 76.7561 32.4433 16.6173
21765 1 78.3387 34.0259 18.1999
21766 1 76.7561 32.4433 19.7825
21767 1 78.3387 34.0259 21.3651
21768 1 76.7561 32.4433 22.9477
21769 1 78.3387 34.0259 24.5303
21770 1 76.7561 32.4433 26.1129
21771 1 78.3387 34.0259 27.6955
21772 1 76.7561 32.4433 29.2781
21773 1 78.3387 34.0259 30.8607
21774 1 76.7561 32.4433 32.4433
21775 1 78.3387 34.0259 34.0259
21776 1 76.7561 32.4433 35.6085
21777 1 78.3387 34.0259 37.1911
21778 1 76.7561 32.4433 38.7737
21779 1 78.3387 34.0259 40.3563
21780 1 76.7561 32.4433 41.9389
21781 1 78.3387 34.0259 43.5215
21782 1 76.7561 32.4433 45.1041
21783 1 78.3387 34.0259 46.6867
21784 1 76.7561 32.4433 48.2693
21785 1 78.3387 34.0259 49.8519
21786 1 76.7561 32.4433 51.4345
21787 1 78.3387 34.0259 53.0171
21788 1 76.7561 32.4433 54.5997
21789 1 78.3387 34.0259 56.1823
21790 1 76.7561 32.4433 57.7649
21791 1 78.3387 34.0259 59.3475
21792 1 76.7561 32.4433 60.9301
21793 1 78.3387 34.0259 62.5127
21794 1 76.7561 32.4433 64.0953
21795 1 78.3387 34.0259 65.6779
21796 1 76.7561 32.4433 67.2605
21797 1 78.3387 34.0259 68.8431
21798 1 76.7561 32.4433 70.4257
21799 1 78.3387 34.0259 72.0083
21800 1 76.7561 32.4433 73.5909
21801 1 78.3387 34.0259 75.1735
21802 1 76.7561 32.4433 76.7561
21803 1 78.3387 34.0259 78.3387
21804 1 76.7561 35.6085 0.7913
21805 1 78.3387 37.1911 2.3739
21806 1 76.7561 35.6085 3.9565
21807 1 78.3387 37.1911 5.5391
21808 1 76.7561 35.6085 7.1217
21809 1 78.3387 37.1911 8.7043
21810 1 76.7561 35.6085 10.2869
21811 1 78.3387 37.1911 11.8695
21812 1 76.7561 35.6085 13.4521
21813 1 78.3387 37.1911 15.0347
21814 1 76.7561 35.6085 16.6173
21815 1 78.3387 37.1911 18.1999
21816 1 76.7561 35.6085 19.7825
21817 1 78.3387 37.1911 21.3651
21818 1 76.7561 35.6085 22.9477
21819 1 78.3387 37.1911 24.5303
21820 1 76.7561 35.6085 26.1129
21821 1 78.3387 37.1911 27.6955
21822 1 76.7561 35.6085 29.2781
21823 1 78.3387 37.1911 30.8607
21824 1 76.7561 35.6085 32.4433
21825 1 78.3387 37.1911 34.0259
21826 1 76.7561 35.6085 35.6085
21827 1 78.3387 37.1911 37.1911
21828 1 76.7561 35.6085 38.7737
21829 1 78.3387 37.1911 40.3563
21830 1 76.7561 35.6085 41.9389
21831 1 78.3387 37.1911 43.5215
21832 1 76.7561 35.6085 45.1041
21833 1 78.3387 37.1911 46.6867
21834 1 76.7561 35.6085 48.2693
21835 1 78.3387 37.1911 49.8519
21836 1 76.7561 35.6085 51.4345
21837 1 78.3387 37.1911 53.0171
21838 1 76.7561 35.6085 54.5997
21839 1 78.3387 37.1911 56.1823
21840 1 76.7561 35.6085 57.7649
21841 1 78.3387 37.1911 59.3475
21842 1 76.7561 35.6085 60.9301
21843 1 78.3387 37.1911 62.5127
21844 1 76.7561 35.6085 64.0953
21845 1 78.3387 37.1911 65.6779
21846 1 76.7561 35.6085 67.2605
21847 1 78.3387 37.1911 68.8431
21848 1 76.7561 35.6085 70.4257
21849 1 78.3387 37.1911 72.0083
21850 1 76.7561 35.6085 73.5909
21851 1 78.3387 37.1911 75.1735
21852 1 76.7561 35.6085 76.7561
21853 1 78.3387 37.1911 78.3387
21854 1 76.7561 38.7737 0.7913
21855 1 78.3387 40.3563 2.3739
21856 1 76.7561 38.7737 3.9565
21857 1 78.3387 40.3563 5.5391
21858 1 76.7561 38.7737 7.1217
21859 1 78.3387 40.3563 8.7043
21860 1 76.7561 38.7737 10.2869
21861 1 78.3387 40.3563 11.8695
21862 1 76.7561 38.7737 13.4521
21863 1 78.3387 40.3563 15.0347
21864 1 76.7561 38.7737 16.6173
21865 1 78.3387 40.3563 18.1999
21866 1 76.7561 38.7737 19.7825
21867 1 78.3387 40.3563 21.3651
21868 1 76.7561 38.7737 22.9477
21869 1 78.3387 40.3563 24.5303
21870 1 76.7561 38.7737 26.1129
21871 1 78.3387 40.3563 27.6955
21872 1 76.7561 38.7737 29.2781
21873 1 78.3387 40.3563 30.8607
21874 1 76.7561 38.7737 32.4433
21875 1 78.3387 40.3563 34.0259
21876 1 76.7561 38.7737 35.6085
21877 1 78.3387 40.3563 37.1911
21878 1 76.7561 38.7737 38.7737
21879 1 78.3387 40.3563 40.3563
21880 1 76.7561 38.7737 41.9389
21881 1 78.3387 40.3563 43.5215
21882 1 76.7561 38.7737 45.1041
21883 1 78.3387 40.3563 46.6867
21884 1 76.7561 38.7737 48.2693
21885 1 78.3387 40.3563 49.8519
21886 1 76.7561 38.7737 51.4345
21887 1 78.3387 40.3563 53.0171
21888 1 76.7561 38.7737 54.5997
21889 1 78.3387 40.3563 56.1823
21890 1 76.7561 38.7737 57.7649
21891 1 78.3387 40.3563 59.3475
21892 1 76.7561 38.7737 60.9301
21893 1 78.3387 40.3563 62.5127
21894 1 76.7561 38.7737 64.0953
21895 1 78.3387 40.3563 65.6779
21896 1 76.7561 38.7737 67.2605
21897 1 78.3387 40.3563 68.8431
21898 1 76.7561 38.7737 70.4257
21899 1 78.3387 40.3563 72.0083
21900 1 76.7561 38.7737 73.5909
21901 1 78.3387 40.3563 75.1735
21902 1 76.7561 38.7737 76.7561
21903 1 78.3387 40.3563 78.3387
21904 1 76.7561 41.9389 0.7913
21905 1 78.3387 43.5215 2.3739
21906 1 76.7561 41.9389 3.9565
21907 1 78.3387 43.5215 5.5391
21908 1 76.7561 41.9389 7.1217
21909 1 78.3387 43.5215 8.7043
21910 1 76.7561 41.9389 10.2869
21911 1 78.3387 43.5215 11.8695
21912 1 76.7561 41.9389 13.4521
21913 1 78.3387 43.5215 15.0347
21914 1 76.7561 41.9389 16.6173
21915 1 78.3387 43.5215 18.1999
21916 1 76.7561 41.9389 19.7825
21917 1 78.3387 43.5215 21.3651
21918 1 76.7561 41.9389 22.9477
21919 1 78.3387 43.5215 24.5303
21920 1 76.7561 41.9389 26.1129
21921 1 78.3387 43.5215 27.6955
21922 1 76.7561 41.9389 29.2781
21923 1 78.3387 43.5215 30.8607
21924 1 76.7561 41.9389 32.4433
21925 1 78.3387 43.5215 34.0259
21926 1 76.7561 41.9389 35.6085
21927 1 78.3387 43.5215 37.1911
21928 1 76.7561 41.9389 38.7737
21929 1 78.3387 43.5215 40.3563
21930 1 76.7561 41.9389 41.9389
21931 1 78.3387 43.5215 43.5215
21932 1 76.7561 41.9389 45.1041
21933 1 78.3387 43.5215 46.6867
21934 1 76.7561 41.9389 48.2693
21935 1 78.3387 43.5215 49.8519
21936 1 76.7561 41.9389 51.4345
21937 1 78.3387 43.5215 53.0171
21938 1 76.7561 41.9389 54.5997
21939 1 78.3387 43.5215 56.1823
21940 1 76.7561 41.9389 57.7649
21941 1 78.3387 43.5215 59.3475
21942 1 76.7561 41.9389 60.9301
21943 1 78.3387 43.5215 62.5127
21944 1 76.7561 41.9389 64.0953
21945 1 78.3387 43.5215 65.6779
21946 1 76.7561 41.9389 67.2605
21947 1 78.3387 43.5215 68.8431
21948 1 76.7561 41.9389 70.4257
21949 1 78.3387 43.5215 72.0083
21950 1 76.7561 41.9389 73.5909
21951 1 78.3387 43.5215 75.1735
21952 1 76.7561 41.9389 76.7561
21953 1 78.3387 43.5215 78.3387
21954 1 76.7561 45.1041 0.7913
21955 1 78.3387 46.6867 2.3739
21956 1 76.7561 45.1041 3.9565
21957 1 78.3387 46.6867 5.5391
21958 1 76.7561 45.1041 7.1217
21959 1 78.3387 46.6867 8.7043
21960 1 76.7561 45.1041 10.2869
21961 1 78.3387 46.6867 11.8695
21962 1 76.7561 45.1041 13.4521
21963 1 78.3387 46.6867 15.0347
21964 1 76.7561 45.1041 16.6173
21965 1 78.3387 46.6867 18.1999
21966 1 76.7561 45.1041 19.7825
21967 1 78.3387 46.6867 21.3651
21968 1 76.7561 45.1041 22.9477
21969 1 78.3387 46.6867 24.5303
21970 1 76.7561 45.1041 26.1129
21971 1 78.3387 46.6867 27.6955
21972 1 76.7561 45.1041 29.2781
21973 1 78.3387 46.6867 30.8607
21974 1 76.7561 45.1041 32.4433
21975 1 78.3387 46.6867 34.0259
21976 1 76.7561 45.1041 35.6085
21977 1 78.3387 46.6867 37.1911
21978 1 76.7561 45.1041 38.7737
21979 1 78.3387 46.6867 40.3563
21980 1 76.7561 45.1041 41.9389
21981 1 78.3387 46.6867 43.5215
21982 1 76.7561 45.1041 45.1041
21983 1 78.3387 46.6867 46.6867
21984 1 76.7561 45.1041 48.2693
21985 1 78.3387 46.6867 49.8519
21986 1 76.7561 45.1041 51.4345
21987 1 78.3387 46.6867 53.0171
21988 1 76.7561 45.1041 54.5997
21989 1 78.3387 46.6867 56.1823
21990 1 76.7561 45.1041 57.7649
21991 1 78.3387 46.6867 59.3475
21992 1 76.7561 45.1041 60.9301
21993 1 78.3387 46.6867 62.5127
21994 1 76.7561 45.1041 64.0953
21995 1 78.3387 46.6867 65.6779
21996 1 76.7561 45.1041 67.2605
21997 1 78.3387 46.6867 68.8431
21998 1 76.7561 45.1041 70.4257
21999 1 78.3387 46.6867 72.0083
22000 1 76.7561 45.1041 73.5909
22001 1 78.3387 46.6867 75.1735
22002 1 76.7561 45.1041 76.7561
22003 1 78.3387 46.6867 78.3387
22004 1 76.7561 48.2693 0.7913
22005 1 78.3387 49.8519 2.3739
22006 1 76.7561 48.2693 3.9565
22007 1 78.3387 49.8519 5.5391
22008 1 76.7561 48.2693 7.1217
22009 1 78.3387 49.8519 8.7043
22010 1 76.7561 48.2693 10.2869
22011 1 78.3387 49.8519 11.8695
22012 1 76.7561 48.2693 13.4521
22013 1 78.3387 49.8519 15.0347
22014 1 76.7561 48.2693 16.6173
22015 1 78.3387 49.8519 18.1999
22016 1 76.7561 48.2693 19.7825
22017 1 78.3387 49.8519 21.3651
22018 1 76.7561 48.2693 22.9477
22019 1 78.3387 49.8519 24.5303
22020 1 76.7561 48.2693 26.1129
22021 1 78.3387 49.8519 27.6955
22022 1 76.7561 48.2693 29.2781
22023 1 78.3387 49.8519 30.8607
22024 1 76.7561 48.2693 32.4433
22025 1 78.3387 49.8519 34.0259
22026 1 76.7561 48.2693 35.6085
22027 1 78.3387 49.8519 37.1911
22028 1 76.7561 48.2693 38.7737
22029 1 78.3387 49.8519 40.3563
22030 1 76.7561 48.2693 41.9389
22031 1 78.3387 49.8519 43.5215
22032 1 76.7561 48.2693 45.1041
22033 1 78.3387 49.8519 46.6867
22034 1 76.7561 48.2693 48.2693
22035 1 78.3387 49.8519 49.8519
22036 1 76.7561 48.2693 51.4345
22037 1 78.3387 49.8519 53.0171
22038 1 76.7561 48.2693 54.5997
22039 1 78.3387 49.8519 56.1823
22040 1 76.7561 48.2693 57.7649
22041 1 78.3387 49.8519 59.3475
22042 1 76.7561 48.2693 60.9301
22043 1 78.3387 49.8519 62.5127
22044 1 76.7561 48.2693 64.0953
22045 1 78.3387 49.8519 65.6779
22046 1 76.7561 48.2693 67.2605
22047 1 78.3387 49.8519 68.8431
22048 1 76.7561 48.2693 70.4257
22049 1 78.3387 49.8519 72.0083
22050 1 76.7561 48.2693 73.5909
22051 1 78.3387 49.8519 75.1735
22052 1 76.7561 48.2693 76.7561
22053 1 78.3387 49.8519 78.3387
22054 1 76.7561 51.4345 0.7913
22055 1 78.3387 53.0171 2.3739
22056 1 76.7561 51.4345 3.9565
22057 1 78.3387 53.0171 5.5391
22058 1 76.7561 51.4345 7.1217
22059 1 78.3387 53.0171 8.7043
22060 1 76.7561 51.4345 10.2869
22061 1 78.3387 53.0171 11.8695
22062 1 76.7561 51.4345 13.4521
22063 1 78.3387 53.0171 15.0347
22064 1 76.7561 51.4345 16.6173
22065 1 78.3387 53.0171 18.1999
22066 1 76.7561 51.4345 19.7825
22067 1 78.3387 53.0171 21.3651
22068 1 76.7561 51.4345 22.9477
22069 1 78.3387 53.0171 24.5303
22070 1 76.7561 51.4345 26.1129
22071 1 78.3387 53.0171 27.6955
22072 1 76.7561 51.4345 29.2781
22073 1 78.3387 53.0171 30.8607
22074 1 76.7561 51.4345 32.4433
22075 1 78.3387 53.0171 34.0259
22076 1 76.7561 51.4345 35.6085
22077 1 78.3387 53.0171 37.1911
22078 1 76.7561 51.4345 38.7737
22079 1 78.3387 53.0171 40.3563
22080 1 76.7561 51.4345 41.9389
22081 1 78.3387 53.0171 43.5215
22082 1 76.7561 51.4345 45.1041
22083 1 78.3387 53.0171 46.6867
22084 1 76.7561 51.4345 48.2693
22085 1 78.3387 53.0171 49.8519
22086 1 76.7561 51.4345 51.4345
22087 1 78.3387 53.0171 53.0171
22088 1 76.7561 51.4345 54.5997
22089 1 78.3387 53.0171 56.1823
22090 1 76.7561 51.4345 57.7649
22091 1 78.3387 53.0171 59.3475
22092 1 76.7561 51.4345 60.9301
22093 1 78.3387 53.0171 62.5127
22094 1 76.7561 51.4345 64.0953
22095 1 78.3387 53.0171 65.6779
22096 1 76.7561 51.4345 67.2605
22097 1 78.3387 53.0171 68.8431
22098 1 76.7561 51.4345 70.4257
22099 1 78.3387 53.0171 72.0083
22100 1 76.7561 51.4345 73.5909
22101 1 78.3387 53.0171 75.1735
22102 1 76.7561 51.4345 76.7561
22103 1 78.3387 53.0171 78.3387
22104 1 76.7561 54.5997 0.7913
22105 1 78.3387 56.1823 2.3739
22106 1 76.7561 54.5997 3.9565
22107 1 78.3387 56.1823 5.5391
22108 1 76.7561 54.5997 7.1217
22109 1 78.3387 56.1823 8.7043
22110 1 76.7561 54.5997 10.2869
22111 1 78.3387 56.1823 11.8695
22112 1 76.7561 54.5997 13.4521
22113 1 78.3387 56.1823 15.0347
22114 1 76.7561 54.5997 16.6173
22115 1 78.3387 56.1823 18.1999
22116 1 76.7561 54.5997 19.7825
22117 1 78.3387 56.1823 21.3651
22118 1 76.7561 54.5997 22.9477
22119 1 78.3387 56.1823 24.5303
22120 1 76.7561 54.5997 26.1129
22121 1 78.3387 56.1823 27.6955
22122 1 76.7561 54.5997 29.2781
22123 1 78.3387 56.1823 30.8607
22124 1 76.7561 54.5997 32.4433
22125 1 78.3387 56.1823 34.0259
22126 1 76.7561 54.5997 35.6085
22127 1 78.3387 56.1823 37.1911
22128 1 76.7561 54.5997 38.7737
22129 1 78.3387 56.1823 40.3563
22130 1 76.7561 54.5997 41.9389
22131 1 78.3387 56.1823 43.5215
22132 1 76.7561 54.5997 45.1041
22133 1 78.3387 56.1823 46.6867
22134 1 76.7561 54.5997 48.2693
22135 1 78.3387 56.1823 49.8519
22136 1 76.7561 54.5997 51.4345
22137 1 78.3387 56.1823 53.0171
22138 1 76.7561 54.5997 54.5997
22139 1 78.3387 56.1823 56.1823
22140 1 76.7561 54.5997 57.7649
22141 1 78.3387 56.1823 59.3475
22142 1 76.7561 54.5997 60.9301
22143 1 78.3387 56.1823 62.5127
22144 1 76.7561 54.5997 64.0953
22145 1 78.3387 56.1823 65.6779
22146 1 76.7561 54.5997 67.2605
22147 1 78.3387 56.1823 68.8431
22148 1 76.7561 54.5997 70.4257
22149 1 78.3387 56.1823 72.0083
22150 1 76.7561 54.5997 73.5909
22151 1 78.3387 56.1823 75.1735
22152 1 76.7561 54.5997 76.7561
22153 1 78.3387 56.1823 78.3387
22154 1 76.7561 57.7649 0.7913
22155 1 78.3387 59.3475 2.3739
22156 1 76.7561 57.7649 3.9565
22157 1 78.3387 59.3475 5.5391
22158 1 76.7561 57.7649 7.1217
22159 1 78.3387 59.3475 8.7043
22160 1 76.7561 57.7649 10.2869
22161 1 78.3387 59.3475 11.8695
22162 1 76.7561 57.7649 13.4521
22163 1 78.3387 59.3475 15.0347
22164 1 76.7561 57.7649 16.6173
22165 1 78.3387 59.3475 18.1999
22166 1 76.7561 57.7649 19.7825
22167 1 78.3387 59.3475 21.3651
22168 1 76.7561 57.7649 22.9477
22169 1 78.3387 59.3475 24.5303
22170 1 76.7561 57.7649 26.1129
22171 1 78.3387 59.3475 27.6955
22172 1 76.7561 57.7649 29.2781
22173 1 78.3387 59.3475 30.8607
22174 1 76.7561 57.7649 32.4433
22175 1 78.3387 59.3475 34.0259
22176 1 76.7561 57.7649 35.6085
22177 1 78.3387 59.3475 37.1911
22178 1 76.7561 57.7649 38.7737
22179 1 78.3387 59.3475 40.3563
22180 1 76.7561 57.7649 41.9389
22181 1 78.3387 59.3475 43.5215
22182 1 76.7561 57.7649 45.1041
22183 1 78.3387 59.3475 46.6867
22184 1 76.7561 57.7649 48.2693
22185 1 78.3387 59.3475 49.8519
22186 1 76.7561 57.7649 51.4345
22187 1 78.3387 59.3475 53.0171
22188 1 76.7561 57.7649 54.5997
22189 1 78.3387 59.3475 56.1823
22190 1 76.7561 57.7649 57.7649
22191 1 78.3387 59.3475 59.3475
22192 1 76.7561 57.7649 60.9301
22193 1 78.3387 59.3475 62.5127
22194 1 76.7561 57.7649 64.0953
22195 1 78.3387 59.3475 65.6779
22196 1 76.7561 57.7649 67.2605
22197 1 78.3387 59.3475 68.8431
22198 1 76.7561 57.7649 70.4257
22199 1 78.3387 59.3475 72.0083
22200 1 76.7561 57.7649 73.5909
22201 1 78.3387 59.3475 75.1735
22202 1 76.7561 57.7649 76.7561
22203 1 78.3387 59.3475 78.3387
22204 1 76.7561 60.9301 0.7913
22205 1 78.3387 62.5127 2.3739
22206 1 76.7561 60.9301 3.9565
22207 1 78.3387 62.5127 5.5391
22208 1 76.7561 60.9301 7.1217
22209 1 78.3387 62.5127 8.7043
22210 1 76.7561 60.9301 10.2869
22211 1 78.3387 62.5127 11.8695
22212 1 76.7561 60.9301 13.4521
22213 1 78.3387 62.5127 15.0347
22214 1 76.7561 60.9301 16.6173
22215 1 78.3387 62.5127 18.1999
22216 1 76.7561 60.9301 19.7825
22217 1 78.3387 62.5127 21.3651
22218 1 76.7561 60.9301 22.9477
22219 1 78.3387 62.5127 24.5303
22220 1 76.7561 60.9301 26.1129
22221 1 78.3387 62.5127 27.6955
22222 1 76.7561 60.9301 29.2781
22223 1 78.3387 62.5127 30.8607
22224 1 76.7561 60.9301 32.4433
22225 1 78.3387 62.5127 34.0259
22226 1 76.7561 60.9301 35.6085
22227 1 78.3387 62.5127 37.1911
22228 1 76.7561 60.9301 38.7737
22229 1 78.3387 62.5127 40.3563
22230 1 76.7561 60.9301 41.9389
22231 1 78.3387 62.5127 43.5215
22232 1 76.7561 60.9301 45.1041
22233 1 78.3387 62.5127 46.6867
22234 1 76.7561 60.9301 48.2693
22235 1 78.3387 62.5127 49.8519
22236 1 76.7561 60.9301 51.4345
22237 1 78.3387 62.5127 53.0171
22238 1 76.7561 60.9301 54.5997
22239 1 78.3387 62.5127 56.1823
22240 1 76.7561 60.9301 57.7649
22241 1 78.3387 62.5127 59.3475
22242 1 76.7561 60.9301 60.9301
22243 1 78.3387 62.5127 62.5127
22244 1 76.7561 60.9301 64.0953
22245 1 78.3387 62.5127 65.6779
22246 1 76.7561 60.9301 67.2605
22247 1 78.3387 62.5127 68.8431
22248 1 76.7561 60.9301 70.4257
22249 1 78.3387 62.5127 72.0083
22250 1 76.7561 60.9301 73.5909
22251 1 78.3387 62.5127 75.1735
22252 1 76.7561 60.9301 76.7561
22253 1 78.3387 62.5127 78.3387
22254 1 76.7561 64.0953 0.7913
22255 1 78.3387 65.6779 2.3739
22256 1 76.7561 64.0953 3.9565
22257 1 78.3387 65.6779 5.5391
22258 1 76.7561 64.0953 7.1217
22259 1 78.3387 65.6779 8.7043
22260 1 76.7561 64.0953 10.2869
22261 1 78.3387 65.6779 11.8695
22262 1 76.7561 64.0953 13.4521
22263 1 78.3387 65.6779 15.0347
22264 1 76.7561 64.0953 16.6173
22265 1 78.3387 65.6779 18.1999
22266 1 76.7561 64.0953 19.7825
22267 1 78.3387 65.6779 21.3651
22268 1 76.7561 64.0953 22.9477
22269 1 78.3387 65.6779 24.5303
22270 1 76.7561 64.0953 26.1129
22271 1 78.3387 65.6779 27.6955
22272 1 76.7561 64.0953 29.2781
22273 1 78.3387 65.6779 30.8607
22274 1 76.7561 64.0953 32.4433
22275 1 78.3387 65.6779 34.0259
22276 1 76.7561 64.0953 35.6085
22277 1 78.3387 65.6779 37.1911
22278 1 76.7561 64.0953 38.7737
22279 1 78.3387 65.6779 40.3563
22280 1 76.7561 64.0953 41.9389
22281 1 78.3387 65.6779 43.5215
22282 1 76.7561 64.0953 45.1041
22283 1 78.3387 65.6779 46.6867
22284 1 76.7561 64.0953 48.2693
22285 1 78.3387 65.6779 49.8519
22286 1 76.7561 64.0953 51.4345
22287 1 78.3387 65.6779 53.0171
22288 1 76.7561 64.0953 54.5997
22289 1 78.3387 65.6779 56.1823
22290 1 76.7561 64.0953 57.7649
22291 1 78.3387 65.6779 59.3475
22292 1 76.7561 64.0953 60.9301
22293 1 78.3387 65.6779 62.5127
22294 1 76.7561 64.0953 64.0953
22295 1 78.3387 65.6779 65.6779
22296 1 76.7561 64.0953 67.2605
22297 1 78.3387 65.6779 68.8431
22298 1 76.7561 64.0953 70.4257
22299 1 78.3387 65.6779 72.0083
22300 1 76.7561 64.0953 73.5909
22301 1 78.3387 65.6779 75.1735
22302 1 76.7561 64.0953 76.7561
22303 1 78.3387 65.6779 78.3387
22304 1 76.7561 67.2605 0.7913
22305 1 78.3387 68.8431 2.3739
22306 1 76.7561 67.2605 3.9565
22307 1 78.3387 68.8431 5.5391
22308 1 76.7561 67.2605 7.1217
22309 1 78.3387 68.8431 8.7043
22310 1 76.7561 67.2605 10.2869
22311 1 78.3387 68.8431 11.8695
22312 1 76.7561 67.2605 13.4521
22313 1 78.3387 68.8431 15.0347
22314 1 76.7561 67.2605 16.6173
22315 1 78.3387 68.8431 18.1999
22316 1 76.7561 67.2605 19.7825
22317 1 78.3387 68.8431 21.3651
22318 1 76.7561 67.2605 22.9477
22319 1 78.3387 68.8431 24.5303
22320 1 76.7561 67.2605 26.1129
22321 1 78.3387 68.8431 27.6955
22322 1 76.7561 67.2605 29.2781
22323 1 78.3387 68.8431 30.8607
22324 1 76.7561 67.2605 32.4433
22325 1 78.3387 68.8431 34.0259
22326 1 76.7561 67.2605 35.6085
22327 1 78.3387 68.8431 37.1911
22328 1 76.7561 67.2605 38.7737
22329 1 78.3387 68.8431 40.3563
22330 1 76.7561 67.2605 41.9389
22331 1 78.3387 68.8431 43.5215
22332 1 76.7561 67.2605 45.1041
22333 1 78.3387 68.8431 46.6867
22334 1 76.7561 67.2605 48.2693
22335 1 78.3387 68.8431 49.8519
22336 1 76.7561 67.2605 51.4345
22337 1 78.3387 68.8431 53.0171
22338 1 76.7561 67.2605 54.5997
22339 1 78.3387 68.8431 56.1823
22340 1 76.7561 67.2605 57.7649
22341 1 78.3387 68.8431 59.3475
22342 1 76.7561 67.2605 60.9301
22343 1 78.3387 68.8431 62.5127
22344 1 76.7561 67.2605 64.0953
22345 1 78.3387 68.8431 65.6779
22346 1 76.7561 67.2605 67.2605
22347 1 78.3387 68.8431 68.8431
22348 1 76.7561 67.2605 70.4257
22349 1 78.3387 68.8431 72.0083
22350 1 76.7561 67.2605 73.5909
22351 1 78.3387 68.8431 75.1735
22352 1 76.7561 67.2605 76.7561
22353 1 78.3387 68.8431 78.3387
22354 1 76.7561 70.4257 0.7913
22355 1 78.3387 72.0083 2.3739
22356 1 76.7561 70.4257 3.9565
22357 1 78.3387 72.0083 5.5391
22358 1 76.7561 70.4257 7.1217
22359 1 78.3387 72.0083 8.7043
22360 1 76.7561 70.4257 10.2869
22361 1 78.3387 72.0083 11.8695
22362 1 76.7561 70.4257 13.4521
22363 1 78.3387 72.0083 15.0347
22364 1 76.7561 70.4257 16.6173
22365 1 78.3387 72.0083 18.1999
22366 1 76.7561 70.4257 19.7825
22367 1 78.3387 72.0083 21.3651
22368 1 76.7561 70.4257 22.9477
22369 1 78.3387 72.0083 24.5303
22370 1 76.7561 70.4257 26.1129
22371 1 78.3387 72.0083 27.6955
22372 1 76.7561 70.4257 29.2781
22373 1 78.3387 72.0083 30.8607
22374 1 76.7561 70.4257 32.4433
22375 1 78.3387 72.0083 34.0259
22376 1 76.7561 70.4257 35.6085
22377 1 78.3387 72.0083 37.1911
22378 1 76.7561 70.4257 38.7737
22379 1 78.3387 72.0083 40.3563
22380 1 76.7561 70.4257 41.9389
22381 1 78.3387 72.0083 43.5215
22382 1 76.7561 70.4257 45.1041
22383 1 78.3387 72.0083 46.6867
22384 1 76.7561 70.4257 48.2693
22385 1 78.3387 72.0083 49.8519
22386 1 76.7561 70.4257 51.4345
22387 1 78.3387 72.0083 53.0171
22388 1 76.7561 70.4257 54.5997
22389 1 78.3387 72.0083 56.1823
22390 1 76.7561 70.4257 57.7649
22391 1 78.3387 72.0083 59.3475
22392 1 76.7561 70.4257 60.9301
22393 1 78.3387 72.0083 62.5127
22394 1 76.7561 70.4257 64.0953
22395 1 78.3387 72.0083 65.6779
22396 1 76.7561 70.4257 67.2605
22397 1 78.3387 72.0083 68.8431
22398 1 76.7561 70.4257 70.4257
22399 1 78.3387 72.0083 72.0083
22400 1 76.7561 70.4257 73.5909
22401 1 78.3387 72.0083 75.1735
22402 1 76.7561 70.4257 76.7561
22403 1 78.3387 72.0083 78.3387
22404 1 76.7561 73.5909 0.7913
22405 1 78.3387 75.1735 2.3739
22406 1 76.7561 73.5909 3.9565
22407 1 78.3387 75.1735 5.5391
22408 1 76.7561 73.5909 7.1217
22409 1 78.3387 75.1735 8.7043
22410 1 76.7561 73.5909 10.2869
22411 1 78.3387 75.1735 11.8695
22412 1 76.7561 73.5909 13.4521
22413 1 78.3387 75.1735 15.0347
22414 1 76.7561 73.5909 16.6173
22415 1 78.3387 75.1735 18.1999
22416 1 76.7561 73.5909 19.7825
22417 1 78.3387 75.1735 21.3651
22418 1 76.7561 73.5909 22.9477
22419 1 78.3387 75.1735 24.5303
22420 1 76.7561 73.5909 26.1129
22421 1 78.3387 75.1735 27.6955
22422 1 76.7561 73.5909 29.2781
22423 1 78.3387 75.1735 30.8607
22424 1 76.7561 73.5909 32.4433
22425 1 78.3387 75.1735 34.0259
22426 1 76.7561 73.5909 35.6085
22427 1 78.3387 75.1735 37.1911
22428 1 76.7561 73.5909 38.7737
22429 1 78.3387 75.1735 40.3563
22430 1 76.7561 73.5909 41.9389
22431 1 78.3387 75.1735 43.5215
22432 1 76.7561 73.5909 45.1041
22433 1 78.3387 75.1735 46.6867
22434 1 76.7561 73.5909 48.2693
22435 1 78.3387 75.1735 49.8519
22436 1 76.7561 73.5909 51.4345
22437 1 78.3387 75.1735 53.0171
22438 1 76.7561 73.5909 54.5997
22439 1 78.3387 75.1735 56.1823
22440 1 76.7561 73.5909 57.7649
22441 1 78.3387 75.1735 59.3475
22442 1 76.7561 73.5909 60.9301
22443 1 78.3387 75.1735 62.5127
22444 1 76.7561 73.5909 64.0953
22445 1 78.3387 75.1735 65.6779
22446 1 76.7561 73.5909 67.2605
22447 1 78.3387 75.1735 68.8431
22448 1 76.7561 73.5909 70.4257
22449 1 78.3387 75.1735 72.0083
22450 1 76.7561 73.5909 73.5909
22451 1 78.3387 75.1735 75.1735
22452 1 76.7561 73.5909 76.7561
22453 1 78.3387 75.1735 78.3387
22454 1 76.7561 76.7561 0.7913
22455 1 78.3387 78.3387 2.3739
22456 1 76.7561 76.7561 3.9565
22457 1 78.3387 78.3387 5.5391
22458 1 76.7561 76.7561 7.1217
22459 1 78.3387 78.3387 8.7043
22460 1 76.7561 76.7561 10.2869
22461 1 78.3387 78.3387 11.8695
22462 1 76.7561 76.7561 13.4521
22463 1 78.3387 78.3387 15.0347
22464 1 76.7561 76.7561 16.6173
22465 1 78.3387 78.3387 18.1999
22466 1 76.7561 76.7561 19.7825
22467 1 78.3387 78.3387 21.3651
22468 1 76.7561 76.7561 22.9477
22469 1 78.3387 78.3387 24.5303
22470 1 76.7561 76.7561 26.1129
22471 1 78.3387 78.3387 27.6955
22472 1 76.7561 76.7561 29.2781
22473 1 78.3387 78.3387 30.8607
22474 1 76.7561 76.7561 32.4433
22475 1 78.3387 78.3387 34.0259
22476 1 76.7561 76.7561 35.6085
22477 1 78.3387 78.3387 37.1911
22478 1 76.7561 76.7561 38.7737
22479 1 78.3387 78.3387 40.3563
22480 1 76.7561 76.7561 41.9389
22481 1 78.3387 78.3387 43.5215
22482 1 76.7561 76.7561 45.1041
22483 1 78.3387 78.3387 46.6867
22484 1 76.7561 76.7561 48.2693
22485 1 78.3387 78.3387 49.8519
22486 1 76.7561 76.7561 51.4345
22487 1 78.3387 78.3387 53.0171
22488 1 76.7561 76.7561 54.5997
22489 1 78.3387 78.3387 56.1823
22490 1 76.7561 76.7561 57.7649
22491 1 78.3387 78.3387 59.3475
22492 1 76.7561 76.7561 60.9301
22493 1 78.3387 78.3387 62.5127
22494 1 76.7561 76.7561 64.0953
22495 1 78.3387 78.3387 65.6779
22496 1 76.7561 76.7561 67.2605
22497 1 78.3387 78.3387 68.8431
22498 1 76.7561 76.7561 70.4257
22499 1 78.3387 78.3387 72.0083
22500 1 76.7561 76.7561 73.5909
22501 1 78.3387 78.3387 75.1735
22502 1 76.7561 76.7561 76.7561
22503 1 78.3387 78.3387 78.3387
22504 1 26.1129 0.7913 0.7913
22505 1 27.6955 2.3739 2.3739
22506 1 26.1129 0.7913 3.9565
22507 1 27.6955 2.3739 5.5391
22508 1 26.1129 0.7913 7.1217
22509 1 27.6955 2.3739 8.7043
22510 1 26.1129 0.7913 10.2869
22511 1 27.6955 2.3739 11.8695
22512 1 26.1129 0.7913 13.4521
22513 1 27.6955 2.3739 15.0347
22514 1 26.1129 0.7913 16.6173
22515 1 27.6955 2.3739 18.1999
22516 1 26.1129 0.7913 19.7825
22517 1 27.6955 2.3739 21.3651
22518 1 26.1129 0.7913 22.9477
22519 1 27.6955 2.3739 24.5303
22520 1 26.1129 0.7913 26.1129
22521 1 27.6955 2.3739 27.6955
22522 1 26.1129 3.9565 0.7913
22523 1 27.6955 5.5391 2.3739
22524 1 26.1129 3.9565 3.9565
22525 1 27.6955 5.5391 5.5391
22526 1 26.1129 3.9565 7.1217
22527 1 27.6955 5.5391 8.7043
22528 1 26.1129 3.9565 10.2869
22529 1 27.6955 5.5391 11.8695
22530 1 26.1129 3.9565 13.4521
22531 1 27.6955 5.5391 15.0347
22532 1 26.1129 3.9565 16.6173
22533 1 27.6955 5.5391 18.1999
22534 1 26.1129 3.9565 19.7825
22535 1 27.6955 5.5391 21.3651
22536 1 26.1129 3.9565 22.9477
22537 1 27.6955 5.5391 24.5303
22538 1 26.1129 3.9565 26.1129
22539 1 27.6955 5.5391 27.6955
22540 1 26.1129 7.1217 0.7913
22541 1 27.6955 8.7043 2.3739
22542 1 26.1129 7.1217 3.9565
22543 1 27.6955 8.7043 5.5391
22544 1 26.1129 7.1217 7.1217
22545 1 27.6955 8.7043 8.7043
22546 1 26.1129 7.1217 10.2869
22547 1 27.6955 8.7043 11.8695
22548 1 26.1129 7.1217 13.4521
22549 1 27.6955 8.7043 15.0347
22550 1 26.1129 7.1217 16.6173
22551 1 27.6955 8.7043 18.1999
22552 1 26.1129 7.1217 19.7825
22553 1 27.6955 8.7043 21.3651
22554 1 26.1129 7.1217 22.9477
22555 1 27.6955 8.7043 24.5303
22556 1 26.1129 7.1217 26.1129
22557 1 27.6955 8.7043 27.6955
22558 1 26.1129 10.2869 0.7913
22559 1 27.6955 11.8695 2.3739
22560 1 26.1129 10.2869 3.9565
22561 1 27.6955 11.8695 5.5391
22562 1 26.1129 10.2869 7.1217
22563 1 27.6955 11.8695 8.7043
22564 1 26.1129 10.2869 10.2869
22565 1 27.6955 11.8695 11.8695
22566 1 26.1129 10.2869 13.4521
22567 1 27.6955 11.8695 15.0347
22568 1 26.1129 10.2869 16.6173
22569 1 27.6955 11.8695 18.1999
22570 1 26.1129 10.2869 19.7825
22571 1 27.6955 11.8695 21.3651
22572 1 26.1129 10.2869 22.9477
22573 1 27.6955 11.8695 24.5303
22574 1 26.1129 10.2869 26.1129
22575 1 27.6955 11.8695 27.6955
22576 1 26.1129 13.4521 0.7913
22577 1 27.6955 15.0347 2.3739
22578 1 26.1129 13.4521 3.9565
22579 1 27.6955 15.0347 5.5391
22580 1 26.1129 13.4521 7.1217
22581 1 27.6955 15.0347 8.7043
22582 1 26.1129 13.4521 10.2869
22583 1 27.6955 15.0347 11.8695
22584 1 26.1129 13.4521 13.4521
22585 1 27.6955 15.0347 15.0347
22586 1 26.1129 13.4521 16.6173
22587 1 27.6955 15.0347 18.1999
22588 1 26.1129 13.4521 19.7825
22589 1 27.6955 15.0347 21.3651
22590 1 26.1129 13.4521 22.9477
22591 1 27.6955 15.0347 24.5303
22592 1 26.1129 13.4521 26.1129
22593 1 27.6955 15.0347 27.6955
22594 1 26.1129 16.6173 0.7913
22595 1 27.6955 18.1999 2.3739
22596 1 26.1129 16.6173 3.9565
22597 1 27.6955 18.1999 5.5391
22598 1 26.1129 16.6173 7.1217
22599 1 27.6955 18.1999 8.7043
22600 1 26.1129 16.6173 10.2869
22601 1 27.6955 18.1999 11.8695
22602 1 26.1129 16.6173 13.4521
22603 1 27.6955 18.1999 15.0347
22604 1 26.1129 16.6173 16.6173
22605 1 27.6955 18.1999 18.1999
22606 1 26.1129 16.6173 19.7825
22607 1 27.6955 18.1999 21.3651
22608 1 26.1129 16.6173 22.9477
22609 1 27.6955 18.1999 24.5303
22610 1 26.1129 16.6173 26.1129
22611 1 27.6955 18.1999 27.6955
22612 1 26.1129 19.7825 0.7913
22613 1 27.6955 21.3651 2.3739
22614 1 26.1129 19.7825 3.9565
22615 1 27.6955 21.3651 5.5391
22616 1 26.1129 19.7825 7.1217
22617 1 27.6955 21.3651 8.7043
22618 1 26.1129 19.7825 10.2869
22619 1 27.6955 21.3651 11.8695
22620 1 26.1129 19.7825 13.4521
22621 1 27.6955 21.3651 15.0347
22622 1 26.1129 19.7825 16.6173
22623 1 27.6955 21.3651 18.1999
22624 1 26.1129 19.7825 19.7825
22625 1 27.6955 21.3651 21.3651
22626 1 26.1129 19.7825 22.9477
22627 1 27.6955 21.3651 24.5303
22628 1 26.1129 19.7825 26.1129
22629 1 27.6955 21.3651 27.6955
22630 1 26.1129 22.9477 0.7913
22631 1 27.6955 24.5303 2.3739
22632 1 26.1129 22.9477 3.9565
22633 1 27.6955 24.5303 5.5391
22634 1 26.1129 22.9477 7.1217
22635 1 27.6955 24.5303 8.7043
22636 1 26.1129 22.9477 10.2869
22637 1 27.6955 24.5303 11.8695
22638 1 26.1129 22.9477 13.4521
22639 1 27.6955 24.5303 15.0347
22640 1 26.1129 22.9477 16.6173
22641 1 27.6955 24.5303 18.1999
22642 1 26.1129 22.9477 19.7825
22643 1 27.6955 24.5303 21.3651
22644 1 26.1129 22.9477 22.9477
22645 1 27.6955 24.5303 24.5303
22646 1 26.1129 22.9477 26.1129
22647 1 27.6955 24.5303 27.6955
22648 1 26.1129 26.1129 0.7913
22649 1 27.6955 27.6955 2.3739
22650 1 26.1129 26.1129 3.9565
22651 1 27.6955 27.6955 5.5391
22652 1 26.1129 26.1129 7.1217
22653 1 27.6955 27.6955 8.7043
22654 1 26.1129 26.1129 10.2869
22655 1 27.6955 27.6955 11.8695
22656 1 26.1129 26.1129 13.4521
22657 1 27.6955 27.6955 15.0347
22658 1 26.1129 26.1129 16.6173
22659 1 27.6955 27.6955 18.1999
22660 1 26.1129 26.1129 19.7825
22661 1 27.6955 27.6955 21.3651
22662 1 26.1129 26.1129 22.9477
22663 1 27.6955 27.6955 24.5303
22664 1 26.1129 26.1129 26.1129
22665 1 27.6955 27.6955 27.6955
22666 1 26.1129 29.2781 0.7913
22667 1 27.6955 30.8607 2.3739
22668 1 26.1129 29.2781 3.9565
22669 1 27.6955 30.8607 5.5391
22670 1 26.1129 29.2781 7.1217
22671 1 27.6955 30.8607 8.7043
22672 1 26.1129 29.2781 10.2869
22673 1 27.6955 30.8607 11.8695
22674 1 26.1129 29.2781 13.4521
22675 1 27.6955 30.8607 15.0347
22676 1 26.1129 29.2781 16.6173
22677 1 27.6955 30.8607 18.1999
22678 1 26.1129 29.2781 19.7825
22679 1 27.6955 30.8607 21.3651
22680 1 26.1129 29.2781 22.9477
22681 1 27.6955 30.8607 24.5303
22682 1 26.1129 29.2781 26.1129
22683 1 27.6955 30.8607 27.6955
22684 1 26.1129 32.4433 0.7913
22685 1 27.6955 34.0259 2.3739
22686 1 26.1129 32.4433 3.9565
22687 1 27.6955 34.0259 5.5391
22688 1 26.1129 32.4433 7.1217
22689 1 27.6955 34.0259 8.7043
22690 1 26.1129 32.4433 10.2869
22691 1 27.6955 34.0259 11.8695
22692 1 26.1129 32.4433 13.4521
22693 1 27.6955 34.0259 15.0347
22694 1 26.1129 32.4433 16.6173
22695 1 27.6955 34.0259 18.1999
22696 1 26.1129 32.4433 19.7825
22697 1 27.6955 34.0259 21.3651
22698 1 26.1129 32.4433 22.9477
22699 1 27.6955 34.0259 24.5303
22700 1 26.1129 32.4433 26.1129
22701 1 27.6955 34.0259 27.6955
22702 1 26.1129 35.6085 0.7913
22703 1 27.6955 37.1911 2.3739
22704 1 26.1129 35.6085 3.9565
22705 1 27.6955 37.1911 5.5391
22706 1 26.1129 35.6085 7.1217
22707 1 27.6955 37.1911 8.7043
22708 1 26.1129 35.6085 10.2869
22709 1 27.6955 37.1911 11.8695
22710 1 26.1129 35.6085 13.4521
22711 1 27.6955 37.1911 15.0347
22712 1 26.1129 35.6085 16.6173
22713 1 27.6955 37.1911 18.1999
22714 1 26.1129 35.6085 19.7825
22715 1 27.6955 37.1911 21.3651
22716 1 26.1129 35.6085 22.9477
22717 1 27.6955 37.1911 24.5303
22718 1 26.1129 35.6085 26.1129
22719 1 27.6955 37.1911 27.6955
22720 1 26.1129 38.7737 0.7913
22721 1 27.6955 40.3563 2.3739
22722 1 26.1129 38.7737 3.9565
22723 1 27.6955 40.3563 5.5391
22724 1 26.1129 38.7737 7.1217
22725 1 27.6955 40.3563 8.7043
22726 1 26.1129 38.7737 10.2869
22727 1 27.6955 40.3563 11.8695
22728 1 26.1129 38.7737 13.4521
22729 1 27.6955 40.3563 15.0347
22730 1 26.1129 38.7737 16.6173
22731 1 27.6955 40.3563 18.1999
22732 1 26.1129 38.7737 19.7825
22733 1 27.6955 40.3563 21.3651
22734 1 26.1129 38.7737 22.9477
22735 1 27.6955 40.3563 24.5303
22736 1 26.1129 38.7737 26.1129
22737 1 27.6955 40.3563 27.6955
22738 1 26.1129 41.9389 0.7913
22739 1 27.6955 43.5215 2.3739
22740 1 26.1129 41.9389 3.9565
22741 1 27.6955 43.5215 5.5391
22742 1 26.1129 41.9389 7.1217
22743 1 27.6955 43.5215 8.7043
22744 1 26.1129 41.9389 10.2869
22745 1 27.6955 43.5215 11.8695
22746 1 26.1129 41.9389 13.4521
22747 1 27.6955 43.5215 15.0347
22748 1 26.1129 41.9389 16.6173
22749 1 27.6955 43.5215 18.1999
22750 1 26.1129 41.9389 19.7825
22751 1 27.6955 43.5215 21.3651
22752 1 26.1129 41.9389 22.9477
22753 1 27.6955 43.5215 24.5303
22754 1 26.1129 41.9389 26.1129
22755 1 27.6955 43.5215 27.6955
22756 1 26.1129 45.1041 0.7913
22757 1 27.6955 46.6867 2.3739
22758 1 26.1129 45.1041 3.9565
22759 1 27.6955 46.6867 5.5391
22760 1 26.1129 45.1041 7.1217
22761 1 27.6955 46.6867 8.7043
22762 1 26.1129 45.1041 10.2869
22763 1 27.6955 46.6867 11.8695
22764 1 26.1129 45.1041 13.4521
22765 1 27.6955 46.6867 15.0347
22766 1 26.1129 45.1041 16.6173
22767 1 27.6955 46.6867 18.1999
22768 1 26.1129 45.1041 19.7825
22769 1 27.6955 46.6867 21.3651
22770 1 26.1129 45.1041 22.9477
22771 1 27.6955 46.6867 24.5303
22772 1 26.1129 45.1041 26.1129
22773 1 27.6955 46.6867 27.6955
22774 1 26.1129 48.2693 0.7913
22775 1 27.6955 49.8519 2.3739
22776 1 26.1129 48.2693 3.9565
22777 1 27.6955 49.8519 5.5391
22778 1 26.1129 48.2693 7.1217
22779 1 27.6955 49.8519 8.7043
22780 1 26.1129 48.2693 10.2869
22781 1 27.6955 49.8519 11.8695
22782 1 26.1129 48.2693 13.4521
22783 1 27.6955 49.8519 15.0347
22784 1 26.1129 48.2693 16.6173
22785 1 27.6955 49.8519 18.1999
22786 1 26.1129 48.2693 19.7825
22787 1 27.6955 49.8519 21.3651
22788 1 26.1129 48.2693 22.9477
22789 1 27.6955 49.8519 24.5303
22790 1 26.1129 48.2693 26.1129
22791 1 27.6955 49.8519 27.6955
22792 1 26.1129 51.4345 0.7913
22793 1 27.6955 53.0171 2.3739
22794 1 26.1129 51.4345 3.9565
22795 1 27.6955 53.0171 5.5391
22796 1 26.1129 51.4345 7.1217
22797 1 27.6955 53.0171 8.7043
22798 1 26.1129 51.4345 10.2869
22799 1 27.6955 53.0171 11.8695
22800 1 26.1129 51.4345 13.4521
22801 1 27.6955 53.0171 15.0347
22802 1 26.1129 51.4345 16.6173
22803 1 27.6955 53.0171 18.1999
22804 1 26.1129 51.4345 19.7825
22805 1 27.6955 53.0171 21.3651
22806 1 26.1129 51.4345 22.9477
22807 1 27.6955 53.0171 24.5303
22808 1 26.1129 51.4345 26.1129
22809 1 27.6955 53.0171 27.6955
22810 1 26.1129 54.5997 0.7913
22811 1 27.6955 56.1823 2.3739
22812 1 26.1129 54.5997 3.9565
22813 1 27.6955 56.1823 5.5391
22814 1 26.1129 54.5997 7.1217
22815 1 27.6955 56.1823 8.7043
22816 1 26.1129 54.5997 10.2869
22817 1 27.6955 56.1823 11.8695
22818 1 26.1129 54.5997 13.4521
22819 1 27.6955 56.1823 15.0347
22820 1 26.1129 54.5997 16.6173
22821 1 27.6955 56.1823 18.1999
22822 1 26.1129 54.5997 19.7825
22823 1 27.6955 56.1823 21.3651
22824 1 26.1129 54.5997 22.9477
22825 1 27.6955 56.1823 24.5303
22826 1 26.1129 54.5997 26.1129
22827 1 27.6955 56.1823 27.6955
22828 1 26.1129 57.7649 0.7913
22829 1 27.6955 59.3475 2.3739
22830 1 26.1129 57.7649 3.9565
22831 1 27.6955 59.3475 5.5391
22832 1 26.1129 57.7649 7.1217
22833 1 27.6955 59.3475 8.7043
22834 1 26.1129 57.7649 10.2869
22835 1 27.6955 59.3475 11.8695
22836 1 26.1129 57.7649 13.4521
22837 1 27.6955 59.3475 15.0347
22838 1 26.1129 57.7649 16.6173
22839 1 27.6955 59.3475 18.1999
22840 1 26.1129 57.7649 19.7825
22841 1 27.6955 59.3475 21.3651
22842 1 26.1129 57.7649 22.9477
22843 1 27.6955 59.3475 24.5303
22844 1 26.1129 57.7649 26.1129
22845 1 27.6955 59.3475 27.6955
22846 1 26.1129 60.9301 0.7913
22847 1 27.6955 62.5127 2.3739
22848 1 26.1129 60.9301 3.9565
22849 1 27.6955 62.5127 5.5391
22850 1 26.1129 60.9301 7.1217
22851 1 27.6955 62.5127 8.7043
22852 1 26.1129 60.9301 10.2869
22853 1 27.6955 62.5127 11.8695
22854 1 26.1129 60.9301 13.4521
22855 1 27.6955 62.5127 15.0347
22856 1 26.1129 60.9301 16.6173
22857 1 27.6955 62.5127 18.1999
22858 1 26.1129 60.9301 19.7825
22859 1 27.6955 62.5127 21.3651
22860 1 26.1129 60.9301 22.9477
22861 1 27.6955 62.5127 24.5303
22862 1 26.1129 60.9301 26.1129
22863 1 27.6955 62.5127 27.6955
22864 1 26.1129 64.0953 0.7913
22865 1 27.6955 65.6779 2.3739
22866 1 26.1129 64.0953 3.9565
22867 1 27.6955 65.6779 5.5391
22868 1 26.1129 64.0953 7.1217
22869 1 27.6955 65.6779 8.7043
22870 1 26.1129 64.0953 10.2869
22871 1 27.6955 65.6779 11.8695
22872 1 26.1129 64.0953 13.4521
22873 1 27.6955 65.6779 15.0347
22874 1 26.1129 64.0953 16.6173
22875 1 27.6955 65.6779 18.1999
22876 1 26.1129 64.0953 19.7825
22877 1 27.6955 65.6779 21.3651
22878 1 26.1129 64.0953 22.9477
22879 1 27.6955 65.6779 24.5303
22880 1 26.1129 64.0953 26.1129
22881 1 27.6955 65.6779 27.6955
22882 1 26.1129 67.2605 0.7913
22883 1 27.6955 68.8431 2.3739
22884 1 26.1129 67.2605 3.9565
22885 1 27.6955 68.8431 5.5391
22886 1 26.1129 67.2605 7.1217
22887 1 27.6955 68.8431 8.7043
22888 1 26.1129 67.2605 10.2869
22889 1 27.6955 68.8431 11.8695
22890 1 26.1129 67.2605 13.4521
22891 1 27.6955 68.8431 15.0347
22892 1 26.1129 67.2605 16.6173
22893 1 27.6955 68.8431 18.1999
22894 1 26.1129 67.2605 19.7825
22895 1 27.6955 68.8431 21.3651
22896 1 26.1129 67.2605 22.9477
22897 1 27.6955 68.8431 24.5303
22898 1 26.1129 67.2605 26.1129
22899 1 27.6955 68.8431 27.6955
22900 1 26.1129 70.4257 0.7913
22901 1 27.6955 72.0083 2.3739
22902 1 26.1129 70.4257 3.9565
22903 1 27.6955 72.0083 5.5391
22904 1 26.1129 70.4257 7.1217
22905 1 27.6955 72.0083 8.7043
22906 1 26.1129 70.4257 10.2869
22907 1 27.6955 72.0083 11.8695
22908 1 26.1129 70.4257 13.4521
22909 1 27.6955 72.0083 15.0347
22910 1 26.1129 70.4257 16.6173
22911 1 27.6955 72.0083 18.1999
22912 1 26.1129 70.4257 19.7825
22913 1 27.6955 72.0083 21.3651
22914 1 26.1129 70.4257 22.9477
22915 1 27.6955 72.0083 24.5303
22916 1 26.1129 70.4257 26.1129
22917 1 27.6955 72.0083 27.6955
22918 1 26.1129 73.5909 0.7913
22919 1 27.6955 75.1735 2.3739
22920 1 26.1129 73.5909 3.9565
22921 1 27.6955 75.1735 5.5391
22922 1 26.1129 73.5909 7.1217
22923 1 27.6955 75.1735 8.7043
22924 1 26.1129 73.5909 10.2869
22925 1 27.6955 75.1735 11.8695
22926 1 26.1129 73.5909 13.4521
22927 1 27.6955 75.1735 15.0347
22928 1 26.1129 73.5909 16.6173
22929 1 27.6955 75.1735 18.1999
22930 1 26.1129 73.5909 19.7825
22931 1 27.6955 75.1735 21.3651
22932 1 26.1129 73.5909 22.9477
22933 1 27.6955 75.1735 24.5303
22934 1 26.1129 73.5909 26.1129
22935 1 27.6955 75.1735 27.6955
22936 1 26.1129 76.7561 0.7913
22937 1 27.6955 78.3387 2.3739
22938 1 26.1129 76.7561 3.9565
22939 1 27.6955 78.3387 5.5391
22940 1 26.1129 76.7561 7.1217
22941 1 27.6955 78.3387 8.7043
22942 1 26.1129 76.7561 10.2869
22943 1 27.6955 78.3387 11.8695
22944 1 26.1129 76.7561 13.4521
22945 1 27.6955 78.3387 15.0347
22946 1 26.1129 76.7561 16.6173
22947 1 27.6955 78.3387 18.1999
22948 1 26.1129 76.7561 19.7825
22949 1 27.6955 78.3387 21.3651
22950 1 26.1129 76.7561 22.9477
22951 1 27.6955 78.3387 24.5303
22952 1 26.1129 76.7561 26.1129
22953 1 27.6955 78.3387 27.6955
22954 1 29.2781 0.7913 0.7913
22955 1 30.8607 2.3739 2.3739
22956 1 29.2781 0.7913 3.9565
22957 1 30.8607 2.3739 5.5391
22958 1 29.2781 0.7913 7.1217
22959 1 30.8607 2.3739 8.7043
22960 1 29.2781 0.7913 10.2869
22961 1 30.8607 2.3739 11.8695
22962 1 29.2781 0.7913 13.4521
22963 1 30.8607 2.3739 15.0347
22964 1 29.2781 0.7913 16.6173
22965 1 30.8607 2.3739 18.1999
22966 1 29.2781 0.7913 19.7825
22967 1 30.8607 2.3739 21.3651
22968 1 29.2781 0.7913 22.9477
22969 1 30.8607 2.3739 24.5303
22970 1 29.2781 0.7913 26.1129
22971 1 30.8607 2.3739 27.6955
22972 1 29.2781 3.9565 0.7913
22973 1 30.8607 5.5391 2.3739
22974 1 29.2781 3.9565 3.9565
22975 1 30.8607 5.5391 5.5391
22976 1 29.2781 3.9565 7.1217
22977 1 30.8607 5.5391 8.7043
22978 1 29.2781 3.9565 10.2869
22979 1 30.8607 5.5391 11.8695
22980 1 29.2781 3.9565 13.4521
22981 1 30.8607 5.5391 15.0347
22982 1 29.2781 3.9565 16.6173
22983 1 30.8607 5.5391 18.1999
22984 1 29.2781 3.9565 19.7825
22985 1 30.8607 5.5391 21.3651
22986 1 29.2781 3.9565 22.9477
22987 1 30.8607 5.5391 24.5303
22988 1 29.2781 3.9565 26.1129
22989 1 30.8607 5.5391 27.6955
22990 1 29.2781 7.1217 0.7913
22991 1 30.8607 8.7043 2.3739
22992 1 29.2781 7.1217 3.9565
22993 1 30.8607 8.7043 5.5391
22994 1 29.2781 7.1217 7.1217
22995 1 30.8607 8.7043 8.7043
22996 1 29.2781 7.1217 10.2869
22997 1 30.8607 8.7043 11.8695
22998 1 29.2781 7.1217 13.4521
22999 1 30.8607 8.7043 15.0347
23000 1 29.2781 7.1217 16.6173
23001 1 30.8607 8.7043 18.1999
23002 1 29.2781 7.1217 19.7825
23003 1 30.8607 8.7043 21.3651
23004 1 29.2781 7.1217 22.9477
23005 1 30.8607 8.7043 24.5303
23006 1 29.2781 7.1217 26.1129
23007 1 30.8607 8.7043 27.6955
23008 1 29.2781 10.2869 0.7913
23009 1 30.8607 11.8695 2.3739
23010 1 29.2781 10.2869 3.9565
23011 1 30.8607 11.8695 5.5391
23012 1 29.2781 10.2869 7.1217
23013 1 30.8607 11.8695 8.7043
23014 1 29.2781 10.2869 10.2869
23015 1 30.8607 11.8695 11.8695
23016 1 29.2781 10.2869 13.4521
23017 1 30.8607 11.8695 15.0347
23018 1 29.2781 10.2869 16.6173
23019 1 30.8607 11.8695 18.1999
23020 1 29.2781 10.2869 19.7825
23021 1 30.8607 11.8695 21.3651
23022 1 29.2781 10.2869 22.9477
23023 1 30.8607 11.8695 24.5303
23024 1 29.2781 10.2869 26.1129
23025 1 30.8607 11.8695 27.6955
23026 1 29.2781 13.4521 0.7913
23027 1 30.8607 15.0347 2.3739
23028 1 29.2781 13.4521 3.9565
23029 1 30.8607 15.0347 5.5391
23030 1 29.2781 13.4521 7.1217
23031 1 30.8607 15.0347 8.7043
23032 1 29.2781 13.4521 10.2869
23033 1 30.8607 15.0347 11.8695
23034 1 29.2781 13.4521 13.4521
23035 1 30.8607 15.0347 15.0347
23036 1 29.2781 13.4521 16.6173
23037 1 30.8607 15.0347 18.1999
23038 1 29.2781 13.4521 19.7825
23039 1 30.8607 15.0347 21.3651
23040 1 29.2781 13.4521 22.9477
23041 1 30.8607 15.0347 24.5303
23042 1 29.2781 13.4521 26.1129
23043 1 30.8607 15.0347 27.6955
23044 1 29.2781 16.6173 0.7913
23045 1 30.8607 18.1999 2.3739
23046 1 29.2781 16.6173 3.9565
23047 1 30.8607 18.1999 5.5391
23048 1 29.2781 16.6173 7.1217
23049 1 30.8607 18.1999 8.7043
23050 1 29.2781 16.6173 10.2869
23051 1 30.8607 18.1999 11.8695
23052 1 29.2781 16.6173 13.4521
23053 1 30.8607 18.1999 15.0347
23054 1 29.2781 16.6173 16.6173
23055 1 30.8607 18.1999 18.1999
23056 1 29.2781 16.6173 19.7825
23057 1 30.8607 18.1999 21.3651
23058 1 29.2781 16.6173 22.9477
23059 1 30.8607 18.1999 24.5303
23060 1 29.2781 16.6173 26.1129
23061 1 30.8607 18.1999 27.6955
23062 1 29.2781 19.7825 0.7913
23063 1 30.8607 21.3651 2.3739
23064 1 29.2781 19.7825 3.9565
23065 1 30.8607 21.3651 5.5391
23066 1 29.2781 19.7825 7.1217
23067 1 30.8607 21.3651 8.7043
23068 1 29.2781 19.7825 10.2869
23069 1 30.8607 21.3651 11.8695
23070 1 29.2781 19.7825 13.4521
23071 1 30.8607 21.3651 15.0347
23072 1 29.2781 19.7825 16.6173
23073 1 30.8607 21.3651 18.1999
23074 1 29.2781 19.7825 19.7825
23075 1 30.8607 21.3651 21.3651
23076 1 29.2781 19.7825 22.9477
23077 1 30.8607 21.3651 24.5303
23078 1 29.2781 19.7825 26.1129
23079 1 30.8607 21.3651 27.6955
23080 1 29.2781 22.9477 0.7913
23081 1 30.8607 24.5303 2.3739
23082 1 29.2781 22.9477 3.9565
23083 1 30.8607 24.5303 5.5391
23084 1 29.2781 22.9477 7.1217
23085 1 30.8607 24.5303 8.7043
23086 1 29.2781 22.9477 10.2869
23087 1 30.8607 24.5303 11.8695
23088 1 29.2781 22.9477 13.4521
23089 1 30.8607 24.5303 15.0347
23090 1 29.2781 22.9477 16.6173
23091 1 30.8607 24.5303 18.1999
23092 1 29.2781 22.9477 19.7825
23093 1 30.8607 24.5303 21.3651
23094 1 29.2781 22.9477 22.9477
23095 1 30.8607 24.5303 24.5303
23096 1 29.2781 22.9477 26.1129
23097 1 30.8607 24.5303 27.6955
23098 1 29.2781 26.1129 0.7913
23099 1 30.8607 27.6955 2.3739
23100 1 29.2781 26.1129 3.9565
23101 1 30.8607 27.6955 5.5391
23102 1 29.2781 26.1129 7.1217
23103 1 30.8607 27.6955 8.7043
23104 1 29.2781 26.1129 10.2869
23105 1 30.8607 27.6955 11.8695
23106 1 29.2781 26.1129 13.4521
23107 1 30.8607 27.6955 15.0347
23108 1 29.2781 26.1129 16.6173
23109 1 30.8607 27.6955 18.1999
23110 1 29.2781 26.1129 19.7825
23111 1 30.8607 27.6955 21.3651
23112 1 29.2781 26.1129 22.9477
23113 1 30.8607 27.6955 24.5303
23114 1 29.2781 26.1129 26.1129
23115 1 30.8607 27.6955 27.6955
23116 1 29.2781 29.2781 0.7913
23117 1 30.8607 30.8607 2.3739
23118 1 29.2781 29.2781 3.9565
23119 1 30.8607 30.8607 5.5391
23120 1 29.2781 29.2781 7.1217
23121 1 30.8607 30.8607 8.7043
23122 1 29.2781 29.2781 10.2869
23123 1 30.8607 30.8607 11.8695
23124 1 29.2781 29.2781 13.4521
23125 1 30.8607 30.8607 15.0347
23126 1 29.2781 29.2781 16.6173
23127 1 30.8607 30.8607 18.1999
23128 1 29.2781 29.2781 19.7825
23129 1 30.8607 30.8607 21.3651
23130 1 29.2781 29.2781 22.9477
23131 1 30.8607 30.8607 24.5303
23132 1 29.2781 29.2781 26.1129
23133 1 30.8607 30.8607 27.6955
23134 1 29.2781 32.4433 0.7913
23135 1 30.8607 34.0259 2.3739
23136 1 29.2781 32.4433 3.9565
23137 1 30.8607 34.0259 5.5391
23138 1 29.2781 32.4433 7.1217
23139 1 30.8607 34.0259 8.7043
23140 1 29.2781 32.4433 10.2869
23141 1 30.8607 34.0259 11.8695
23142 1 29.2781 32.4433 13.4521
23143 1 30.8607 34.0259 15.0347
23144 1 29.2781 32.4433 16.6173
23145 1 30.8607 34.0259 18.1999
23146 1 29.2781 32.4433 19.7825
23147 1 30.8607 34.0259 21.3651
23148 1 29.2781 32.4433 22.9477
23149 1 30.8607 34.0259 24.5303
23150 1 29.2781 32.4433 26.1129
23151 1 30.8607 34.0259 27.6955
23152 1 29.2781 35.6085 0.7913
23153 1 30.8607 37.1911 2.3739
23154 1 29.2781 35.6085 3.9565
23155 1 30.8607 37.1911 5.5391
23156 1 29.2781 35.6085 7.1217
23157 1 30.8607 37.1911 8.7043
23158 1 29.2781 35.6085 10.2869
23159 1 30.8607 37.1911 11.8695
23160 1 29.2781 35.6085 13.4521
23161 1 30.8607 37.1911 15.0347
23162 1 29.2781 35.6085 16.6173
23163 1 30.8607 37.1911 18.1999
23164 1 29.2781 35.6085 19.7825
23165 1 30.8607 37.1911 21.3651
23166 1 29.2781 35.6085 22.9477
23167 1 30.8607 37.1911 24.5303
23168 1 29.2781 35.6085 26.1129
23169 1 30.8607 37.1911 27.6955
23170 1 29.2781 38.7737 0.7913
23171 1 30.8607 40.3563 2.3739
23172 1 29.2781 38.7737 3.9565
23173 1 30.8607 40.3563 5.5391
23174 1 29.2781 38.7737 7.1217
23175 1 30.8607 40.3563 8.7043
23176 1 29.2781 38.7737 10.2869
23177 1 30.8607 40.3563 11.8695
23178 1 29.2781 38.7737 13.4521
23179 1 30.8607 40.3563 15.0347
23180 1 29.2781 38.7737 16.6173
23181 1 30.8607 40.3563 18.1999
23182 1 29.2781 38.7737 19.7825
23183 1 30.8607 40.3563 21.3651
23184 1 29.2781 38.7737 22.9477
23185 1 30.8607 40.3563 24.5303
23186 1 29.2781 38.7737 26.1129
23187 1 30.8607 40.3563 27.6955
23188 1 29.2781 41.9389 0.7913
23189 1 30.8607 43.5215 2.3739
23190 1 29.2781 41.9389 3.9565
23191 1 30.8607 43.5215 5.5391
23192 1 29.2781 41.9389 7.1217
23193 1 30.8607 43.5215 8.7043
23194 1 29.2781 41.9389 10.2869
23195 1 30.8607 43.5215 11.8695
23196 1 29.2781 41.9389 13.4521
23197 1 30.8607 43.5215 15.0347
23198 1 29.2781 41.9389 16.6173
23199 1 30.8607 43.5215 18.1999
23200 1 29.2781 41.9389 19.7825
23201 1 30.8607 43.5215 21.3651
23202 1 29.2781 41.9389 22.9477
23203 1 30.8607 43.5215 24.5303
23204 1 29.2781 41.9389 26.1129
23205 1 30.8607 43.5215 27.6955
23206 1 29.2781 45.1041 0.7913
23207 1 30.8607 46.6867 2.3739
23208 1 29.2781 45.1041 3.9565
23209 1 30.8607 46.6867 5.5391
23210 1 29.2781 45.1041 7.1217
23211 1 30.8607 46.6867 8.7043
23212 1 29.2781 45.1041 10.2869
23213 1 30.8607 46.6867 11.8695
23214 1 29.2781 45.1041 13.4521
23215 1 30.8607 46.6867 15.0347
23216 1 29.2781 45.1041 16.6173
23217 1 30.8607 46.6867 18.1999
23218 1 29.2781 45.1041 19.7825
23219 1 30.8607 46.6867 21.3651
23220 1 29.2781 45.1041 22.9477
23221 1 30.8607 46.6867 24.5303
23222 1 29.2781 45.1041 26.1129
23223 1 30.8607 46.6867 27.6955
23224 1 29.2781 48.2693 0.7913
23225 1 30.8607 49.8519 2.3739
23226 1 29.2781 48.2693 3.9565
23227 1 30.8607 49.8519 5.5391
23228 1 29.2781 48.2693 7.1217
23229 1 30.8607 49.8519 8.7043
23230 1 29.2781 48.2693 10.2869
23231 1 30.8607 49.8519 11.8695
23232 1 29.2781 48.2693 13.4521
23233 1 30.8607 49.8519 15.0347
23234 1 29.2781 48.2693 16.6173
23235 1 30.8607 49.8519 18.1999
23236 1 29.2781 48.2693 19.7825
23237 1 30.8607 49.8519 21.3651
23238 1 29.2781 48.2693 22.9477
23239 1 30.8607 49.8519 24.5303
23240 1 29.2781 48.2693 26.1129
23241 1 30.8607 49.8519 27.6955
23242 1 29.2781 51.4345 0.7913
23243 1 30.8607 53.0171 2.3739
23244 1 29.2781 51.4345 3.9565
23245 1 30.8607 53.0171 5.5391
23246 1 29.2781 51.4345 7.1217
23247 1 30.8607 53.0171 8.7043
23248 1 29.2781 51.4345 10.2869
23249 1 30.8607 53.0171 11.8695
23250 1 29.2781 51.4345 13.4521
23251 1 30.8607 53.0171 15.0347
23252 1 29.2781 51.4345 16.6173
23253 1 30.8607 53.0171 18.1999
23254 1 29.2781 51.4345 19.7825
23255 1 30.8607 53.0171 21.3651
23256 1 29.2781 51.4345 22.9477
23257 1 30.8607 53.0171 24.5303
23258 1 29.2781 51.4345 26.1129
23259 1 30.8607 53.0171 27.6955
23260 1 29.2781 54.5997 0.7913
23261 1 30.8607 56.1823 2.3739
23262 1 29.2781 54.5997 3.9565
23263 1 30.8607 56.1823 5.5391
23264 1 29.2781 54.5997 7.1217
23265 1 30.8607 56.1823 8.7043
23266 1 29.2781 54.5997 10.2869
23267 1 30.8607 56.1823 11.8695
23268 1 29.2781 54.5997 13.4521
23269 1 30.8607 56.1823 15.0347
23270 1 29.2781 54.5997 16.6173
23271 1 30.8607 56.1823 18.1999
23272 1 29.2781 54.5997 19.7825
23273 1 30.8607 56.1823 21.3651
23274 1 29.2781 54.5997 22.9477
23275 1 30.8607 56.1823 24.5303
23276 1 29.2781 54.5997 26.1129
23277 1 30.8607 56.1823 27.6955
23278 1 29.2781 57.7649 0.7913
23279 1 30.8607 59.3475 2.3739
23280 1 29.2781 57.7649 3.9565
23281 1 30.8607 59.3475 5.5391
23282 1 29.2781 57.7649 7.1217
23283 1 30.8607 59.3475 8.7043
23284 1 29.2781 57.7649 10.2869
23285 1 30.8607 59.3475 11.8695
23286 1 29.2781 57.7649 13.4521
23287 1 30.8607 59.3475 15.0347
23288 1 29.2781 57.7649 16.6173
23289 1 30.8607 59.3475 18.1999
23290 1 29.2781 57.7649 19.7825
23291 1 30.8607 59.3475 21.3651
23292 1 29.2781 57.7649 22.9477
23293 1 30.8607 59.3475 24.5303
23294 1 29.2781 57.7649 26.1129
23295 1 30.8607 59.3475 27.6955
23296 1 29.2781 60.9301 0.7913
23297 1 30.8607 62.5127 2.3739
23298 1 29.2781 60.9301 3.9565
23299 1 30.8607 62.5127 5.5391
23300 1 29.2781 60.9301 7.1217
23301 1 30.8607 62.5127 8.7043
23302 1 29.2781 60.9301 10.2869
23303 1 30.8607 62.5127 11.8695
23304 1 29.2781 60.9301 13.4521
23305 1 30.8607 62.5127 15.0347
23306 1 29.2781 60.9301 16.6173
23307 1 30.8607 62.5127 18.1999
23308 1 29.2781 60.9301 19.7825
23309 1 30.8607 62.5127 21.3651
23310 1 29.2781 60.9301 22.9477
23311 1 30.8607 62.5127 24.5303
23312 1 29.2781 60.9301 26.1129
23313 1 30.8607 62.5127 27.6955
23314 1 29.2781 64.0953 0.7913
23315 1 30.8607 65.6779 2.3739
23316 1 29.2781 64.0953 3.9565
23317 1 30.8607 65.6779 5.5391
23318 1 29.2781 64.0953 7.1217
23319 1 30.8607 65.6779 8.7043
23320 1 29.2781 64.0953 10.2869
23321 1 30.8607 65.6779 11.8695
23322 1 29.2781 64.0953 13.4521
23323 1 30.8607 65.6779 15.0347
23324 1 29.2781 64.0953 16.6173
23325 1 30.8607 65.6779 18.1999
23326 1 29.2781 64.0953 19.7825
23327 1 30.8607 65.6779 21.3651
23328 1 29.2781 64.0953 22.9477
23329 1 30.8607 65.6779 24.5303
23330 1 29.2781 64.0953 26.1129
23331 1 30.8607 65.6779 27.6955
23332 1 29.2781 67.2605 0.7913
23333 1 30.8607 68.8431 2.3739
23334 1 29.2781 67.2605 3.9565
23335 1 30.8607 68.8431 5.5391
23336 1 29.2781 67.2605 7.1217
23337 1 30.8607 68.8431 8.7043
23338 1 29.2781 67.2605 10.2869
23339 1 30.8607 68.8431 11.8695
23340 1 29.2781 67.2605 13.4521
23341 1 30.8607 68.8431 15.0347
23342 1 29.2781 67.2605 16.6173
23343 1 30.8607 68.8431 18.1999
23344 1 29.2781 67.2605 19.7825
23345 1 30.8607 68.8431 21.3651
23346 1 29.2781 67.2605 22.9477
23347 1 30.8607 68.8431 24.5303
23348 1 29.2781 67.2605 26.1129
23349 1 30.8607 68.8431 27.6955
23350 1 29.2781 70.4257 0.7913
23351 1 30.8607 72.0083 2.3739
23352 1 29.2781 70.4257 3.9565
23353 1 30.8607 72.0083 5.5391
23354 1 29.2781 70.4257 7.1217
23355 1 30.8607 72.0083 8.7043
23356 1 29.2781 70.4257 10.2869
23357 1 30.8607 72.0083 11.8695
23358 1 29.2781 70.4257 13.4521
23359 1 30.8607 72.0083 15.0347
23360 1 29.2781 70.4257 16.6173
23361 1 30.8607 72.0083 18.1999
23362 1 29.2781 70.4257 19.7825
23363 1 30.8607 72.0083 21.3651
23364 1 29.2781 70.4257 22.9477
23365 1 30.8607 72.0083 24.5303
23366 1 29.2781 70.4257 26.1129
23367 1 30.8607 72.0083 27.6955
23368 1 29.2781 73.5909 0.7913
23369 1 30.8607 75.1735 2.3739
23370 1 29.2781 73.5909 3.9565
23371 1 30.8607 75.1735 5.5391
23372 1 29.2781 73.5909 7.1217
23373 1 30.8607 75.1735 8.7043
23374 1 29.2781 73.5909 10.2869
23375 1 30.8607 75.1735 11.8695
23376 1 29.2781 73.5909 13.4521
23377 1 30.8607 75.1735 15.0347
23378 1 29.2781 73.5909 16.6173
23379 1 30.8607 75.1735 18.1999
23380 1 29.2781 73.5909 19.7825
23381 1 30.8607 75.1735 21.3651
23382 1 29.2781 73.5909 22.9477
23383 1 30.8607 75.1735 24.5303
23384 1 29.2781 73.5909 26.1129
23385 1 30.8607 75.1735 27.6955
23386 1 29.2781 76.7561 0.7913
23387 1 30.8607 78.3387 2.3739
23388 1 29.2781 76.7561 3.9565
23389 1 30.8607 78.3387 5.5391
23390 1 29.2781 76.7561 7.1217
23391 1 30.8607 78.3387 8.7043
23392 1 29.2781 76.7561 10.2869
23393 1 30.8607 78.3387 11.8695
23394 1 29.2781 76.7561 13.4521
23395 1 30.8607 78.3387 15.0347
23396 1 29.2781 76.7561 16.6173
23397 1 30.8607 78.3387 18.1999
23398 1 29.2781 76.7561 19.7825
23399 1 30.8607 78.3387 21.3651
23400 1 29.2781 76.7561 22.9477
23401 1 30.8607 78.3387 24.5303
23402 1 29.2781 76.7561 26.1129
23403 1 30.8607 78.3387 27.6955
23404 1 32.4433 0.7913 0.7913
23405 1 34.0259 2.3739 2.3739
23406 1 32.4433 0.7913 3.9565
23407 1 34.0259 2.3739 5.5391
23408 1 32.4433 0.7913 7.1217
23409 1 34.0259 2.3739 8.7043
23410 1 32.4433 0.7913 10.2869
23411 1 34.0259 2.3739 11.8695
23412 1 32.4433 0.7913 13.4521
23413 1 34.0259 2.3739 15.0347
23414 1 32.4433 0.7913 16.6173
23415 1 34.0259 2.3739 18.1999
23416 1 32.4433 0.7913 19.7825
23417 1 34.0259 2.3739 21.3651
23418 1 32.4433 0.7913 22.9477
23419 1 34.0259 2.3739 24.5303
23420 1 32.4433 0.7913 26.1129
23421 1 34.0259 2.3739 27.6955
23422 1 32.4433 3.9565 0.7913
23423 1 34.0259 5.5391 2.3739
23424 1 32.4433 3.9565 3.9565
23425 1 34.0259 5.5391 5.5391
23426 1 32.4433 3.9565 7.1217
23427 1 34.0259 5.5391 8.7043
23428 1 32.4433 3.9565 10.2869
23429 1 34.0259 5.5391 11.8695
23430 1 32.4433 3.9565 13.4521
23431 1 34.0259 5.5391 15.0347
23432 1 32.4433 3.9565 16.6173
23433 1 34.0259 5.5391 18.1999
23434 1 32.4433 3.9565 19.7825
23435 1 34.0259 5.5391 21.3651
23436 1 32.4433 3.9565 22.9477
23437 1 34.0259 5.5391 24.5303
23438 1 32.4433 3.9565 26.1129
23439 1 34.0259 5.5391 27.6955
23440 1 32.4433 7.1217 0.7913
23441 1 34.0259 8.7043 2.3739
23442 1 32.4433 7.1217 3.9565
23443 1 34.0259 8.7043 5.5391
23444 1 32.4433 7.1217 7.1217
23445 1 34.0259 8.7043 8.7043
23446 1 32.4433 7.1217 10.2869
23447 1 34.0259 8.7043 11.8695
23448 1 32.4433 7.1217 13.4521
23449 1 34.0259 8.7043 15.0347
23450 1 32.4433 7.1217 16.6173
23451 1 34.0259 8.7043 18.1999
23452 1 32.4433 7.1217 19.7825
23453 1 34.0259 8.7043 21.3651
23454 1 32.4433 7.1217 22.9477
23455 1 34.0259 8.7043 24.5303
23456 1 32.4433 7.1217 26.1129
23457 1 34.0259 8.7043 27.6955
23458 1 32.4433 10.2869 0.7913
23459 1 34.0259 11.8695 2.3739
23460 1 32.4433 10.2869 3.9565
23461 1 34.0259 11.8695 5.5391
23462 1 32.4433 10.2869 7.1217
23463 1 34.0259 11.8695 8.7043
23464 1 32.4433 10.2869 10.2869
23465 1 34.0259 11.8695 11.8695
23466 1 32.4433 10.2869 13.4521
23467 1 34.0259 11.8695 15.0347
23468 1 32.4433 10.2869 16.6173
23469 1 34.0259 11.8695 18.1999
23470 1 32.4433 10.2869 19.7825
23471 1 34.0259 11.8695 21.3651
23472 1 32.4433 10.2869 22.9477
23473 1 34.0259 11.8695 24.5303
23474 1 32.4433 10.2869 26.1129
23475 1 34.0259 11.8695 27.6955
23476 1 32.4433 13.4521 0.7913
23477 1 34.0259 15.0347 2.3739
23478 1 32.4433 13.4521 3.9565
23479 1 34.0259 15.0347 5.5391
23480 1 32.4433 13.4521 7.1217
23481 1 34.0259 15.0347 8.7043
23482 1 32.4433 13.4521 10.2869
23483 1 34.0259 15.0347 11.8695
23484 1 32.4433 13.4521 13.4521
23485 1 34.0259 15.0347 15.0347
23486 1 32.4433 13.4521 16.6173
23487 1 34.0259 15.0347 18.1999
23488 1 32.4433 13.4521 19.7825
23489 1 34.0259 15.0347 21.3651
23490 1 32.4433 13.4521 22.9477
23491 1 34.0259 15.0347 24.5303
23492 1 32.4433 13.4521 26.1129
23493 1 34.0259 15.0347 27.6955
23494 1 32.4433 16.6173 0.7913
23495 1 34.0259 18.1999 2.3739
23496 1 32.4433 16.6173 3.9565
23497 1 34.0259 18.1999 5.5391
23498 1 32.4433 16.6173 7.1217
23499 1 34.0259 18.1999 8.7043
23500 1 32.4433 16.6173 10.2869
23501 1 34.0259 18.1999 11.8695
23502 1 32.4433 16.6173 13.4521
23503 1 34.0259 18.1999 15.0347
23504 1 32.4433 16.6173 16.6173
23505 1 34.0259 18.1999 18.1999
23506 1 32.4433 16.6173 19.7825
23507 1 34.0259 18.1999 21.3651
23508 1 32.4433 16.6173 22.9477
23509 1 34.0259 18.1999 24.5303
23510 1 32.4433 16.6173 26.1129
23511 1 34.0259 18.1999 27.6955
23512 1 32.4433 19.7825 0.7913
23513 1 34.0259 21.3651 2.3739
23514 1 32.4433 19.7825 3.9565
23515 1 34.0259 21.3651 5.5391
23516 1 32.4433 19.7825 7.1217
23517 1 34.0259 21.3651 8.7043
23518 1 32.4433 19.7825 10.2869
23519 1 34.0259 21.3651 11.8695
23520 1 32.4433 19.7825 13.4521
23521 1 34.0259 21.3651 15.0347
23522 1 32.4433 19.7825 16.6173
23523 1 34.0259 21.3651 18.1999
23524 1 32.4433 19.7825 19.7825
23525 1 34.0259 21.3651 21.3651
23526 1 32.4433 19.7825 22.9477
23527 1 34.0259 21.3651 24.5303
23528 1 32.4433 19.7825 26.1129
23529 1 34.0259 21.3651 27.6955
23530 1 32.4433 22.9477 0.7913
23531 1 34.0259 24.5303 2.3739
23532 1 32.4433 22.9477 3.9565
23533 1 34.0259 24.5303 5.5391
23534 1 32.4433 22.9477 7.1217
23535 1 34.0259 24.5303 8.7043
23536 1 32.4433 22.9477 10.2869
23537 1 34.0259 24.5303 11.8695
23538 1 32.4433 22.9477 13.4521
23539 1 34.0259 24.5303 15.0347
23540 1 32.4433 22.9477 16.6173
23541 1 34.0259 24.5303 18.1999
23542 1 32.4433 22.9477 19.7825
23543 1 34.0259 24.5303 21.3651
23544 1 32.4433 22.9477 22.9477
23545 1 34.0259 24.5303 24.5303
23546 1 32.4433 22.9477 26.1129
23547 1 34.0259 24.5303 27.6955
23548 1 32.4433 26.1129 0.7913
23549 1 34.0259 27.6955 2.3739
23550 1 32.4433 26.1129 3.9565
23551 1 34.0259 27.6955 5.5391
23552 1 32.4433 26.1129 7.1217
23553 1 34.0259 27.6955 8.7043
23554 1 32.4433 26.1129 10.2869
23555 1 34.0259 27.6955 11.8695
23556 1 32.4433 26.1129 13.4521
23557 1 34.0259 27.6955 15.0347
23558 1 32.4433 26.1129 16.6173
23559 1 34.0259 27.6955 18.1999
23560 1 32.4433 26.1129 19.7825
23561 1 34.0259 27.6955 21.3651
23562 1 32.4433 26.1129 22.9477
23563 1 34.0259 27.6955 24.5303
23564 1 32.4433 26.1129 26.1129
23565 1 34.0259 27.6955 27.6955
23566 1 32.4433 29.2781 0.7913
23567 1 34.0259 30.8607 2.3739
23568 1 32.4433 29.2781 3.9565
23569 1 34.0259 30.8607 5.5391
23570 1 32.4433 29.2781 7.1217
23571 1 34.0259 30.8607 8.7043
23572 1 32.4433 29.2781 10.2869
23573 1 34.0259 30.8607 11.8695
23574 1 32.4433 29.2781 13.4521
23575 1 34.0259 30.8607 15.0347
23576 1 32.4433 29.2781 16.6173
23577 1 34.0259 30.8607 18.1999
23578 1 32.4433 29.2781 19.7825
23579 1 34.0259 30.8607 21.3651
23580 1 32.4433 29.2781 22.9477
23581 1 34.0259 30.8607 24.5303
23582 1 32.4433 29.2781 26.1129
23583 1 34.0259 30.8607 27.6955
23584 1 32.4433 32.4433 0.7913
23585 1 34.0259 34.0259 2.3739
23586 1 32.4433 32.4433 3.9565
23587 1 34.0259 34.0259 5.5391
23588 1 32.4433 32.4433 7.1217
23589 1 34.0259 34.0259 8.7043
23590 1 32.4433 32.4433 10.2869
23591 1 34.0259 34.0259 11.8695
23592 1 32.4433 32.4433 13.4521
23593 1 34.0259 34.0259 15.0347
23594 1 32.4433 32.4433 16.6173
23595 1 34.0259 34.0259 18.1999
23596 1 32.4433 32.4433 19.7825
23597 1 34.0259 34.0259 21.3651
23598 1 32.4433 32.4433 22.9477
23599 1 34.0259 34.0259 24.5303
23600 1 32.4433 32.4433 26.1129
23601 1 34.0259 34.0259 27.6955
23602 1 32.4433 35.6085 0.7913
23603 1 34.0259 37.1911 2.3739
23604 1 32.4433 35.6085 3.9565
23605 1 34.0259 37.1911 5.5391
23606 1 32.4433 35.6085 7.1217
23607 1 34.0259 37.1911 8.7043
23608 1 32.4433 35.6085 10.2869
23609 1 34.0259 37.1911 11.8695
23610 1 32.4433 35.6085 13.4521
23611 1 34.0259 37.1911 15.0347
23612 1 32.4433 35.6085 16.6173
23613 1 34.0259 37.1911 18.1999
23614 1 32.4433 35.6085 19.7825
23615 1 34.0259 37.1911 21.3651
23616 1 32.4433 35.6085 22.9477
23617 1 34.0259 37.1911 24.5303
23618 1 32.4433 35.6085 26.1129
23619 1 34.0259 37.1911 27.6955
23620 1 32.4433 38.7737 0.7913
23621 1 34.0259 40.3563 2.3739
23622 1 32.4433 38.7737 3.9565
23623 1 34.0259 40.3563 5.5391
23624 1 32.4433 38.7737 7.1217
23625 1 34.0259 40.3563 8.7043
23626 1 32.4433 38.7737 10.2869
23627 1 34.0259 40.3563 11.8695
23628 1 32.4433 38.7737 13.4521
23629 1 34.0259 40.3563 15.0347
23630 1 32.4433 38.7737 16.6173
23631 1 34.0259 40.3563 18.1999
23632 1 32.4433 38.7737 19.7825
23633 1 34.0259 40.3563 21.3651
23634 1 32.4433 38.7737 22.9477
23635 1 34.0259 40.3563 24.5303
23636 1 32.4433 38.7737 26.1129
23637 1 34.0259 40.3563 27.6955
23638 1 32.4433 41.9389 0.7913
23639 1 34.0259 43.5215 2.3739
23640 1 32.4433 41.9389 3.9565
23641 1 34.0259 43.5215 5.5391
23642 1 32.4433 41.9389 7.1217
23643 1 34.0259 43.5215 8.7043
23644 1 32.4433 41.9389 10.2869
23645 1 34.0259 43.5215 11.8695
23646 1 32.4433 41.9389 13.4521
23647 1 34.0259 43.5215 15.0347
23648 1 32.4433 41.9389 16.6173
23649 1 34.0259 43.5215 18.1999
23650 1 32.4433 41.9389 19.7825
23651 1 34.0259 43.5215 21.3651
23652 1 32.4433 41.9389 22.9477
23653 1 34.0259 43.5215 24.5303
23654 1 32.4433 41.9389 26.1129
23655 1 34.0259 43.5215 27.6955
23656 1 32.4433 45.1041 0.7913
23657 1 34.0259 46.6867 2.3739
23658 1 32.4433 45.1041 3.9565
23659 1 34.0259 46.6867 5.5391
23660 1 32.4433 45.1041 7.1217
23661 1 34.0259 46.6867 8.7043
23662 1 32.4433 45.1041 10.2869
23663 1 34.0259 46.6867 11.8695
23664 1 32.4433 45.1041 13.4521
23665 1 34.0259 46.6867 15.0347
23666 1 32.4433 45.1041 16.6173
23667 1 34.0259 46.6867 18.1999
23668 1 32.4433 45.1041 19.7825
23669 1 34.0259 46.6867 21.3651
23670 1 32.4433 45.1041 22.9477
23671 1 34.0259 46.6867 24.5303
23672 1 32.4433 45.1041 26.1129
23673 1 34.0259 46.6867 27.6955
23674 1 32.4433 48.2693 0.7913
23675 1 34.0259 49.8519 2.3739
23676 1 32.4433 48.2693 3.9565
23677 1 34.0259 49.8519 5.5391
23678 1 32.4433 48.2693 7.1217
23679 1 34.0259 49.8519 8.7043
23680 1 32.4433 48.2693 10.2869
23681 1 34.0259 49.8519 11.8695
23682 1 32.4433 48.2693 13.4521
23683 1 34.0259 49.8519 15.0347
23684 1 32.4433 48.2693 16.6173
23685 1 34.0259 49.8519 18.1999
23686 1 32.4433 48.2693 19.7825
23687 1 34.0259 49.8519 21.3651
23688 1 32.4433 48.2693 22.9477
23689 1 34.0259 49.8519 24.5303
23690 1 32.4433 48.2693 26.1129
23691 1 34.0259 49.8519 27.6955
23692 1 32.4433 51.4345 0.7913
23693 1 34.0259 53.0171 2.3739
23694 1 32.4433 51.4345 3.9565
23695 1 34.0259 53.0171 5.5391
23696 1 32.4433 51.4345 7.1217
23697 1 34.0259 53.0171 8.7043
23698 1 32.4433 51.4345 10.2869
23699 1 34.0259 53.0171 11.8695
23700 1 32.4433 51.4345 13.4521
23701 1 34.0259 53.0171 15.0347
23702 1 32.4433 51.4345 16.6173
23703 1 34.0259 53.0171 18.1999
23704 1 32.4433 51.4345 19.7825
23705 1 34.0259 53.0171 21.3651
23706 1 32.4433 51.4345 22.9477
23707 1 34.0259 53.0171 24.5303
23708 1 32.4433 51.4345 26.1129
23709 1 34.0259 53.0171 27.6955
23710 1 32.4433 54.5997 0.7913
23711 1 34.0259 56.1823 2.3739
23712 1 32.4433 54.5997 3.9565
23713 1 34.0259 56.1823 5.5391
23714 1 32.4433 54.5997 7.1217
23715 1 34.0259 56.1823 8.7043
23716 1 32.4433 54.5997 10.2869
23717 1 34.0259 56.1823 11.8695
23718 1 32.4433 54.5997 13.4521
23719 1 34.0259 56.1823 15.0347
23720 1 32.4433 54.5997 16.6173
23721 1 34.0259 56.1823 18.1999
23722 1 32.4433 54.5997 19.7825
23723 1 34.0259 56.1823 21.3651
23724 1 32.4433 54.5997 22.9477
23725 1 34.0259 56.1823 24.5303
23726 1 32.4433 54.5997 26.1129
23727 1 34.0259 56.1823 27.6955
23728 1 32.4433 57.7649 0.7913
23729 1 34.0259 59.3475 2.3739
23730 1 32.4433 57.7649 3.9565
23731 1 34.0259 59.3475 5.5391
23732 1 32.4433 57.7649 7.1217
23733 1 34.0259 59.3475 8.7043
23734 1 32.4433 57.7649 10.2869
23735 1 34.0259 59.3475 11.8695
23736 1 32.4433 57.7649 13.4521
23737 1 34.0259 59.3475 15.0347
23738 1 32.4433 57.7649 16.6173
23739 1 34.0259 59.3475 18.1999
23740 1 32.4433 57.7649 19.7825
23741 1 34.0259 59.3475 21.3651
23742 1 32.4433 57.7649 22.9477
23743 1 34.0259 59.3475 24.5303
23744 1 32.4433 57.7649 26.1129
23745 1 34.0259 59.3475 27.6955
23746 1 32.4433 60.9301 0.7913
23747 1 34.0259 62.5127 2.3739
23748 1 32.4433 60.9301 3.9565
23749 1 34.0259 62.5127 5.5391
23750 1 32.4433 60.9301 7.1217
23751 1 34.0259 62.5127 8.7043
23752 1 32.4433 60.9301 10.2869
23753 1 34.0259 62.5127 11.8695
23754 1 32.4433 60.9301 13.4521
23755 1 34.0259 62.5127 15.0347
23756 1 32.4433 60.9301 16.6173
23757 1 34.0259 62.5127 18.1999
23758 1 32.4433 60.9301 19.7825
23759 1 34.0259 62.5127 21.3651
23760 1 32.4433 60.9301 22.9477
23761 1 34.0259 62.5127 24.5303
23762 1 32.4433 60.9301 26.1129
23763 1 34.0259 62.5127 27.6955
23764 1 32.4433 64.0953 0.7913
23765 1 34.0259 65.6779 2.3739
23766 1 32.4433 64.0953 3.9565
23767 1 34.0259 65.6779 5.5391
23768 1 32.4433 64.0953 7.1217
23769 1 34.0259 65.6779 8.7043
23770 1 32.4433 64.0953 10.2869
23771 1 34.0259 65.6779 11.8695
23772 1 32.4433 64.0953 13.4521
23773 1 34.0259 65.6779 15.0347
23774 1 32.4433 64.0953 16.6173
23775 1 34.0259 65.6779 18.1999
23776 1 32.4433 64.0953 19.7825
23777 1 34.0259 65.6779 21.3651
23778 1 32.4433 64.0953 22.9477
23779 1 34.0259 65.6779 24.5303
23780 1 32.4433 64.0953 26.1129
23781 1 34.0259 65.6779 27.6955
23782 1 32.4433 67.2605 0.7913
23783 1 34.0259 68.8431 2.3739
23784 1 32.4433 67.2605 3.9565
23785 1 34.0259 68.8431 5.5391
23786 1 32.4433 67.2605 7.1217
23787 1 34.0259 68.8431 8.7043
23788 1 32.4433 67.2605 10.2869
23789 1 34.0259 68.8431 11.8695
23790 1 32.4433 67.2605 13.4521
23791 1 34.0259 68.8431 15.0347
23792 1 32.4433 67.2605 16.6173
23793 1 34.0259 68.8431 18.1999
23794 1 32.4433 67.2605 19.7825
23795 1 34.0259 68.8431 21.3651
23796 1 32.4433 67.2605 22.9477
23797 1 34.0259 68.8431 24.5303
23798 1 32.4433 67.2605 26.1129
23799 1 34.0259 68.8431 27.6955
23800 1 32.4433 70.4257 0.7913
23801 1 34.0259 72.0083 2.3739
23802 1 32.4433 70.4257 3.9565
23803 1 34.0259 72.0083 5.5391
23804 1 32.4433 70.4257 7.1217
23805 1 34.0259 72.0083 8.7043
23806 1 32.4433 70.4257 10.2869
23807 1 34.0259 72.0083 11.8695
23808 1 32.4433 70.4257 13.4521
23809 1 34.0259 72.0083 15.0347
23810 1 32.4433 70.4257 16.6173
23811 1 34.0259 72.0083 18.1999
23812 1 32.4433 70.4257 19.7825
23813 1 34.0259 72.0083 21.3651
23814 1 32.4433 70.4257 22.9477
23815 1 34.0259 72.0083 24.5303
23816 1 32.4433 70.4257 26.1129
23817 1 34.0259 72.0083 27.6955
23818 1 32.4433 73.5909 0.7913
23819 1 34.0259 75.1735 2.3739
23820 1 32.4433 73.5909 3.9565
23821 1 34.0259 75.1735 5.5391
23822 1 32.4433 73.5909 7.1217
23823 1 34.0259 75.1735 8.7043
23824 1 32.4433 73.5909 10.2869
23825 1 34.0259 75.1735 11.8695
23826 1 32.4433 73.5909 13.4521
23827 1 34.0259 75.1735 15.0347
23828 1 32.4433 73.5909 16.6173
23829 1 34.0259 75.1735 18.1999
23830 1 32.4433 73.5909 19.7825
23831 1 34.0259 75.1735 21.3651
23832 1 32.4433 73.5909 22.9477
23833 1 34.0259 75.1735 24.5303
23834 1 32.4433 73.5909 26.1129
23835 1 34.0259 75.1735 27.6955
23836 1 32.4433 76.7561 0.7913
23837 1 34.0259 78.3387 2.3739
23838 1 32.4433 76.7561 3.9565
23839 1 34.0259 78.3387 5.5391
23840 1 32.4433 76.7561 7.1217
23841 1 34.0259 78.3387 8.7043
23842 1 32.4433 76.7561 10.2869
23843 1 34.0259 78.3387 11.8695
23844 1 32.4433 76.7561 13.4521
23845 1 34.0259 78.3387 15.0347
23846 1 32.4433 76.7561 16.6173
23847 1 34.0259 78.3387 18.1999
23848 1 32.4433 76.7561 19.7825
23849 1 34.0259 78.3387 21.3651
23850 1 32.4433 76.7561 22.9477
23851 1 34.0259 78.3387 24.5303
23852 1 32.4433 76.7561 26.1129
23853 1 34.0259 78.3387 27.6955
23854 1 35.6085 0.7913 0.7913
23855 1 37.1911 2.3739 2.3739
23856 1 35.6085 0.7913 3.9565
23857 1 37.1911 2.3739 5.5391
23858 1 35.6085 0.7913 7.1217
23859 1 37.1911 2.3739 8.7043
23860 1 35.6085 0.7913 10.2869
23861 1 37.1911 2.3739 11.8695
23862 1 35.6085 0.7913 13.4521
23863 1 37.1911 2.3739 15.0347
23864 1 35.6085 0.7913 16.6173
23865 1 37.1911 2.3739 18.1999
23866 1 35.6085 0.7913 19.7825
23867 1 37.1911 2.3739 21.3651
23868 1 35.6085 0.7913 22.9477
23869 1 37.1911 2.3739 24.5303
23870 1 35.6085 0.7913 26.1129
23871 1 37.1911 2.3739 27.6955
23872 1 35.6085 3.9565 0.7913
23873 1 37.1911 5.5391 2.3739
23874 1 35.6085 3.9565 3.9565
23875 1 37.1911 5.5391 5.5391
23876 1 35.6085 3.9565 7.1217
23877 1 37.1911 5.5391 8.7043
23878 1 35.6085 3.9565 10.2869
23879 1 37.1911 5.5391 11.8695
23880 1 35.6085 3.9565 13.4521
23881 1 37.1911 5.5391 15.0347
23882 1 35.6085 3.9565 16.6173
23883 1 37.1911 5.5391 18.1999
23884 1 35.6085 3.9565 19.7825
23885 1 37.1911 5.5391 21.3651
23886 1 35.6085 3.9565 22.9477
23887 1 37.1911 5.5391 24.5303
23888 1 35.6085 3.9565 26.1129
23889 1 37.1911 5.5391 27.6955
23890 1 35.6085 7.1217 0.7913
23891 1 37.1911 8.7043 2.3739
23892 1 35.6085 7.1217 3.9565
23893 1 37.1911 8.7043 5.5391
23894 1 35.6085 7.1217 7.1217
23895 1 37.1911 8.7043 8.7043
23896 1 35.6085 7.1217 10.2869
23897 1 37.1911 8.7043 11.8695
23898 1 35.6085 7.1217 13.4521
23899 1 37.1911 8.7043 15.0347
23900 1 35.6085 7.1217 16.6173
23901 1 37.1911 8.7043 18.1999
23902 1 35.6085 7.1217 19.7825
23903 1 37.1911 8.7043 21.3651
23904 1 35.6085 7.1217 22.9477
23905 1 37.1911 8.7043 24.5303
23906 1 35.6085 7.1217 26.1129
23907 1 37.1911 8.7043 27.6955
23908 1 35.6085 10.2869 0.7913
23909 1 37.1911 11.8695 2.3739
23910 1 35.6085 10.2869 3.9565
23911 1 37.1911 11.8695 5.5391
23912 1 35.6085 10.2869 7.1217
23913 1 37.1911 11.8695 8.7043
23914 1 35.6085 10.2869 10.2869
23915 1 37.1911 11.8695 11.8695
23916 1 35.6085 10.2869 13.4521
23917 1 37.1911 11.8695 15.0347
23918 1 35.6085 10.2869 16.6173
23919 1 37.1911 11.8695 18.1999
23920 1 35.6085 10.2869 19.7825
23921 1 37.1911 11.8695 21.3651
23922 1 35.6085 10.2869 22.9477
23923 1 37.1911 11.8695 24.5303
23924 1 35.6085 10.2869 26.1129
23925 1 37.1911 11.8695 27.6955
23926 1 35.6085 13.4521 0.7913
23927 1 37.1911 15.0347 2.3739
23928 1 35.6085 13.4521 3.9565
23929 1 37.1911 15.0347 5.5391
23930 1 35.6085 13.4521 7.1217
23931 1 37.1911 15.0347 8.7043
23932 1 35.6085 13.4521 10.2869
23933 1 37.1911 15.0347 11.8695
23934 1 35.6085 13.4521 13.4521
23935 1 37.1911 15.0347 15.0347
23936 1 35.6085 13.4521 16.6173
23937 1 37.1911 15.0347 18.1999
23938 1 35.6085 13.4521 19.7825
23939 1 37.1911 15.0347 21.3651
23940 1 35.6085 13.4521 22.9477
23941 1 37.1911 15.0347 24.5303
23942 1 35.6085 13.4521 26.1129
23943 1 37.1911 15.0347 27.6955
23944 1 35.6085 16.6173 0.7913
23945 1 37.1911 18.1999 2.3739
23946 1 35.6085 16.6173 3.9565
23947 1 37.1911 18.1999 5.5391
23948 1 35.6085 16.6173 7.1217
23949 1 37.1911 18.1999 8.7043
23950 1 35.6085 16.6173 10.2869
23951 1 37.1911 18.1999 11.8695
23952 1 35.6085 16.6173 13.4521
23953 1 37.1911 18.1999 15.0347
23954 1 35.6085 16.6173 16.6173
23955 1 37.1911 18.1999 18.1999
23956 1 35.6085 16.6173 19.7825
23957 1 37.1911 18.1999 21.3651
23958 1 35.6085 16.6173 22.9477
23959 1 37.1911 18.1999 24.5303
23960 1 35.6085 16.6173 26.1129
23961 1 37.1911 18.1999 27.6955
23962 1 35.6085 19.7825 0.7913
23963 1 37.1911 21.3651 2.3739
23964 1 35.6085 19.7825 3.9565
23965 1 37.1911 21.3651 5.5391
23966 1 35.6085 19.7825 7.1217
23967 1 37.1911 21.3651 8.7043
23968 1 35.6085 19.7825 10.2869
23969 1 37.1911 21.3651 11.8695
23970 1 35.6085 19.7825 13.4521
23971 1 37.1911 21.3651 15.0347
23972 1 35.6085 19.7825 16.6173
23973 1 37.1911 21.3651 18.1999
23974 1 35.6085 19.7825 19.7825
23975 1 37.1911 21.3651 21.3651
23976 1 35.6085 19.7825 22.9477
23977 1 37.1911 21.3651 24.5303
23978 1 35.6085 19.7825 26.1129
23979 1 37.1911 21.3651 27.6955
23980 1 35.6085 22.9477 0.7913
23981 1 37.1911 24.5303 2.3739
23982 1 35.6085 22.9477 3.9565
23983 1 37.1911 24.5303 5.5391
23984 1 35.6085 22.9477 7.1217
23985 1 37.1911 24.5303 8.7043
23986 1 35.6085 22.9477 10.2869
23987 1 37.1911 24.5303 11.8695
23988 1 35.6085 22.9477 13.4521
23989 1 37.1911 24.5303 15.0347
23990 1 35.6085 22.9477 16.6173
23991 1 37.1911 24.5303 18.1999
23992 1 35.6085 22.9477 19.7825
23993 1 37.1911 24.5303 21.3651
23994 1 35.6085 22.9477 22.9477
23995 1 37.1911 24.5303 24.5303
23996 1 35.6085 22.9477 26.1129
23997 1 37.1911 24.5303 27.6955
23998 1 35.6085 26.1129 0.7913
23999 1 37.1911 27.6955 2.3739
24000 1 35.6085 26.1129 3.9565
24001 1 37.1911 27.6955 5.5391
24002 1 35.6085 26.1129 7.1217
24003 1 37.1911 27.6955 8.7043
24004 1 35.6085 26.1129 10.2869
24005 1 37.1911 27.6955 11.8695
24006 1 35.6085 26.1129 13.4521
24007 1 37.1911 27.6955 15.0347
24008 1 35.6085 26.1129 16.6173
24009 1 37.1911 27.6955 18.1999
24010 1 35.6085 26.1129 19.7825
24011 1 37.1911 27.6955 21.3651
24012 1 35.6085 26.1129 22.9477
24013 1 37.1911 27.6955 24.5303
24014 1 35.6085 26.1129 26.1129
24015 1 37.1911 27.6955 27.6955
24016 1 35.6085 29.2781 0.7913
24017 1 37.1911 30.8607 2.3739
24018 1 35.6085 29.2781 3.9565
24019 1 37.1911 30.8607 5.5391
24020 1 35.6085 29.2781 7.1217
24021 1 37.1911 30.8607 8.7043
24022 1 35.6085 29.2781 10.2869
24023 1 37.1911 30.8607 11.8695
24024 1 35.6085 29.2781 13.4521
24025 1 37.1911 30.8607 15.0347
24026 1 35.6085 29.2781 16.6173
24027 1 37.1911 30.8607 18.1999
24028 1 35.6085 29.2781 19.7825
24029 1 37.1911 30.8607 21.3651
24030 1 35.6085 29.2781 22.9477
24031 1 37.1911 30.8607 24.5303
24032 1 35.6085 29.2781 26.1129
24033 1 37.1911 30.8607 27.6955
24034 1 35.6085 32.4433 0.7913
24035 1 37.1911 34.0259 2.3739
24036 1 35.6085 32.4433 3.9565
24037 1 37.1911 34.0259 5.5391
24038 1 35.6085 32.4433 7.1217
24039 1 37.1911 34.0259 8.7043
24040 1 35.6085 32.4433 10.2869
24041 1 37.1911 34.0259 11.8695
24042 1 35.6085 32.4433 13.4521
24043 1 37.1911 34.0259 15.0347
24044 1 35.6085 32.4433 16.6173
24045 1 37.1911 34.0259 18.1999
24046 1 35.6085 32.4433 19.7825
24047 1 37.1911 34.0259 21.3651
24048 1 35.6085 32.4433 22.9477
24049 1 37.1911 34.0259 24.5303
24050 1 35.6085 32.4433 26.1129
24051 1 37.1911 34.0259 27.6955
24052 1 35.6085 35.6085 0.7913
24053 1 37.1911 37.1911 2.3739
24054 1 35.6085 35.6085 3.9565
24055 1 37.1911 37.1911 5.5391
24056 1 35.6085 35.6085 7.1217
24057 1 37.1911 37.1911 8.7043
24058 1 35.6085 35.6085 10.2869
24059 1 37.1911 37.1911 11.8695
24060 1 35.6085 35.6085 13.4521
24061 1 37.1911 37.1911 15.0347
24062 1 35.6085 35.6085 16.6173
24063 1 37.1911 37.1911 18.1999
24064 1 35.6085 35.6085 19.7825
24065 1 37.1911 37.1911 21.3651
24066 1 35.6085 35.6085 22.9477
24067 1 37.1911 37.1911 24.5303
24068 1 35.6085 35.6085 26.1129
24069 1 37.1911 37.1911 27.6955
24070 1 35.6085 38.7737 0.7913
24071 1 37.1911 40.3563 2.3739
24072 1 35.6085 38.7737 3.9565
24073 1 37.1911 40.3563 5.5391
24074 1 35.6085 38.7737 7.1217
24075 1 37.1911 40.3563 8.7043
24076 1 35.6085 38.7737 10.2869
24077 1 37.1911 40.3563 11.8695
24078 1 35.6085 38.7737 13.4521
24079 1 37.1911 40.3563 15.0347
24080 1 35.6085 38.7737 16.6173
24081 1 37.1911 40.3563 18.1999
24082 1 35.6085 38.7737 19.7825
24083 1 37.1911 40.3563 21.3651
24084 1 35.6085 38.7737 22.9477
24085 1 37.1911 40.3563 24.5303
24086 1 35.6085 38.7737 26.1129
24087 1 37.1911 40.3563 27.6955
24088 1 35.6085 41.9389 0.7913
24089 1 37.1911 43.5215 2.3739
24090 1 35.6085 41.9389 3.9565
24091 1 37.1911 43.5215 5.5391
24092 1 35.6085 41.9389 7.1217
24093 1 37.1911 43.5215 8.7043
24094 1 35.6085 41.9389 10.2869
24095 1 37.1911 43.5215 11.8695
24096 1 35.6085 41.9389 13.4521
24097 1 37.1911 43.5215 15.0347
24098 1 35.6085 41.9389 16.6173
24099 1 37.1911 43.5215 18.1999
24100 1 35.6085 41.9389 19.7825
24101 1 37.1911 43.5215 21.3651
24102 1 35.6085 41.9389 22.9477
24103 1 37.1911 43.5215 24.5303
24104 1 35.6085 41.9389 26.1129
24105 1 37.1911 43.5215 27.6955
24106 1 35.6085 45.1041 0.7913
24107 1 37.1911 46.6867 2.3739
24108 1 35.6085 45.1041 3.9565
24109 1 37.1911 46.6867 5.5391
24110 1 35.6085 45.1041 7.1217
24111 1 37.1911 46.6867 8.7043
24112 1 35.6085 45.1041 10.2869
24113 1 37.1911 46.6867 11.8695
24114 1 35.6085 45.1041 13.4521
24115 1 37.1911 46.6867 15.0347
24116 1 35.6085 45.1041 16.6173
24117 1 37.1911 46.6867 18.1999
24118 1 35.6085 45.1041 19.7825
24119 1 37.1911 46.6867 21.3651
24120 1 35.6085 45.1041 22.9477
24121 1 37.1911 46.6867 24.5303
24122 1 35.6085 45.1041 26.1129
24123 1 37.1911 46.6867 27.6955
24124 1 35.6085 48.2693 0.7913
24125 1 37.1911 49.8519 2.3739
24126 1 35.6085 48.2693 3.9565
24127 1 37.1911 49.8519 5.5391
24128 1 35.6085 48.2693 7.1217
24129 1 37.1911 49.8519 8.7043
24130 1 35.6085 48.2693 10.2869
24131 1 37.1911 49.8519 11.8695
24132 1 35.6085 48.2693 13.4521
24133 1 37.1911 49.8519 15.0347
24134 1 35.6085 48.2693 16.6173
24135 1 37.1911 49.8519 18.1999
24136 1 35.6085 48.2693 19.7825
24137 1 37.1911 49.8519 21.3651
24138 1 35.6085 48.2693 22.9477
24139 1 37.1911 49.8519 24.5303
24140 1 35.6085 48.2693 26.1129
24141 1 37.1911 49.8519 27.6955
24142 1 35.6085 51.4345 0.7913
24143 1 37.1911 53.0171 2.3739
24144 1 35.6085 51.4345 3.9565
24145 1 37.1911 53.0171 5.5391
24146 1 35.6085 51.4345 7.1217
24147 1 37.1911 53.0171 8.7043
24148 1 35.6085 51.4345 10.2869
24149 1 37.1911 53.0171 11.8695
24150 1 35.6085 51.4345 13.4521
24151 1 37.1911 53.0171 15.0347
24152 1 35.6085 51.4345 16.6173
24153 1 37.1911 53.0171 18.1999
24154 1 35.6085 51.4345 19.7825
24155 1 37.1911 53.0171 21.3651
24156 1 35.6085 51.4345 22.9477
24157 1 37.1911 53.0171 24.5303
24158 1 35.6085 51.4345 26.1129
24159 1 37.1911 53.0171 27.6955
24160 1 35.6085 54.5997 0.7913
24161 1 37.1911 56.1823 2.3739
24162 1 35.6085 54.5997 3.9565
24163 1 37.1911 56.1823 5.5391
24164 1 35.6085 54.5997 7.1217
24165 1 37.1911 56.1823 8.7043
24166 1 35.6085 54.5997 10.2869
24167 1 37.1911 56.1823 11.8695
24168 1 35.6085 54.5997 13.4521
24169 1 37.1911 56.1823 15.0347
24170 1 35.6085 54.5997 16.6173
24171 1 37.1911 56.1823 18.1999
24172 1 35.6085 54.5997 19.7825
24173 1 37.1911 56.1823 21.3651
24174 1 35.6085 54.5997 22.9477
24175 1 37.1911 56.1823 24.5303
24176 1 35.6085 54.5997 26.1129
24177 1 37.1911 56.1823 27.6955
24178 1 35.6085 57.7649 0.7913
24179 1 37.1911 59.3475 2.3739
24180 1 35.6085 57.7649 3.9565
24181 1 37.1911 59.3475 5.5391
24182 1 35.6085 57.7649 7.1217
24183 1 37.1911 59.3475 8.7043
24184 1 35.6085 57.7649 10.2869
24185 1 37.1911 59.3475 11.8695
24186 1 35.6085 57.7649 13.4521
24187 1 37.1911 59.3475 15.0347
24188 1 35.6085 57.7649 16.6173
24189 1 37.1911 59.3475 18.1999
24190 1 35.6085 57.7649 19.7825
24191 1 37.1911 59.3475 21.3651
24192 1 35.6085 57.7649 22.9477
24193 1 37.1911 59.3475 24.5303
24194 1 35.6085 57.7649 26.1129
24195 1 37.1911 59.3475 27.6955
24196 1 35.6085 60.9301 0.7913
24197 1 37.1911 62.5127 2.3739
24198 1 35.6085 60.9301 3.9565
24199 1 37.1911 62.5127 5.5391
24200 1 35.6085 60.9301 7.1217
24201 1 37.1911 62.5127 8.7043
24202 1 35.6085 60.9301 10.2869
24203 1 37.1911 62.5127 11.8695
24204 1 35.6085 60.9301 13.4521
24205 1 37.1911 62.5127 15.0347
24206 1 35.6085 60.9301 16.6173
24207 1 37.1911 62.5127 18.1999
24208 1 35.6085 60.9301 19.7825
24209 1 37.1911 62.5127 21.3651
24210 1 35.6085 60.9301 22.9477
24211 1 37.1911 62.5127 24.5303
24212 1 35.6085 60.9301 26.1129
24213 1 37.1911 62.5127 27.6955
24214 1 35.6085 64.0953 0.7913
24215 1 37.1911 65.6779 2.3739
24216 1 35.6085 64.0953 3.9565
24217 1 37.1911 65.6779 5.5391
24218 1 35.6085 64.0953 7.1217
24219 1 37.1911 65.6779 8.7043
24220 1 35.6085 64.0953 10.2869
24221 1 37.1911 65.6779 11.8695
24222 1 35.6085 64.0953 13.4521
24223 1 37.1911 65.6779 15.0347
24224 1 35.6085 64.0953 16.6173
24225 1 37.1911 65.6779 18.1999
24226 1 35.6085 64.0953 19.7825
24227 1 37.1911 65.6779 21.3651
24228 1 35.6085 64.0953 22.9477
24229 1 37.1911 65.6779 24.5303
24230 1 35.6085 64.0953 26.1129
24231 1 37.1911 65.6779 27.6955
24232 1 35.6085 67.2605 0.7913
24233 1 37.1911 68.8431 2.3739
24234 1 35.6085 67.2605 3.9565
24235 1 37.1911 68.8431 5.5391
24236 1 35.6085 67.2605 7.1217
24237 1 37.1911 68.8431 8.7043
24238 1 35.6085 67.2605 10.2869
24239 1 37.1911 68.8431 11.8695
24240 1 35.6085 67.2605 13.4521
24241 1 37.1911 68.8431 15.0347
24242 1 35.6085 67.2605 16.6173
24243 1 37.1911 68.8431 18.1999
24244 1 35.6085 67.2605 19.7825
24245 1 37.1911 68.8431 21.3651
24246 1 35.6085 67.2605 22.9477
24247 1 37.1911 68.8431 24.5303
24248 1 35.6085 67.2605 26.1129
24249 1 37.1911 68.8431 27.6955
24250 1 35.6085 70.4257 0.7913
24251 1 37.1911 72.0083 2.3739
24252 1 35.6085 70.4257 3.9565
24253 1 37.1911 72.0083 5.5391
24254 1 35.6085 70.4257 7.1217
24255 1 37.1911 72.0083 8.7043
24256 1 35.6085 70.4257 10.2869
24257 1 37.1911 72.0083 11.8695
24258 1 35.6085 70.4257 13.4521
24259 1 37.1911 72.0083 15.0347
24260 1 35.6085 70.4257 16.6173
24261 1 37.1911 72.0083 18.1999
24262 1 35.6085 70.4257 19.7825
24263 1 37.1911 72.0083 21.3651
24264 1 35.6085 70.4257 22.9477
24265 1 37.1911 72.0083 24.5303
24266 1 35.6085 70.4257 26.1129
24267 1 37.1911 72.0083 27.6955
24268 1 35.6085 73.5909 0.7913
24269 1 37.1911 75.1735 2.3739
24270 1 35.6085 73.5909 3.9565
24271 1 37.1911 75.1735 5.5391
24272 1 35.6085 73.5909 7.1217
24273 1 37.1911 75.1735 8.7043
24274 1 35.6085 73.5909 10.2869
24275 1 37.1911 75.1735 11.8695
24276 1 35.6085 73.5909 13.4521
24277 1 37.1911 75.1735 15.0347
24278 1 35.6085 73.5909 16.6173
24279 1 37.1911 75.1735 18.1999
24280 1 35.6085 73.5909 19.7825
24281 1 37.1911 75.1735 21.3651
24282 1 35.6085 73.5909 22.9477
24283 1 37.1911 75.1735 24.5303
24284 1 35.6085 73.5909 26.1129
24285 1 37.1911 75.1735 27.6955
24286 1 35.6085 76.7561 0.7913
24287 1 37.1911 78.3387 2.3739
24288 1 35.6085 76.7561 3.9565
24289 1 37.1911 78.3387 5.5391
24290 1 35.6085 76.7561 7.1217
24291 1 37.1911 78.3387 8.7043
24292 1 35.6085 76.7561 10.2869
24293 1 37.1911 78.3387 11.8695
24294 1 35.6085 76.7561 13.4521
24295 1 37.1911 78.3387 15.0347
24296 1 35.6085 76.7561 16.6173
24297 1 37.1911 78.3387 18.1999
24298 1 35.6085 76.7561 19.7825
24299 1 37.1911 78.3387 21.3651
24300 1 35.6085 76.7561 22.9477
24301 1 37.1911 78.3387 24.5303
24302 1 35.6085 76.7561 26.1129
24303 1 37.1911 78.3387 27.6955
24304 1 38.7737 0.7913 0.7913
24305 1 40.3563 2.3739 2.3739
24306 1 38.7737 0.7913 3.9565
24307 1 40.3563 2.3739 5.5391
24308 1 38.7737 0.7913 7.1217
24309 1 40.3563 2.3739 8.7043
24310 1 38.7737 0.7913 10.2869
24311 1 40.3563 2.3739 11.8695
24312 1 38.7737 0.7913 13.4521
24313 1 40.3563 2.3739 15.0347
24314 1 38.7737 0.7913 16.6173
24315 1 40.3563 2.3739 18.1999
24316 1 38.7737 0.7913 19.7825
24317 1 40.3563 2.3739 21.3651
24318 1 38.7737 0.7913 22.9477
24319 1 40.3563 2.3739 24.5303
24320 1 38.7737 0.7913 26.1129
24321 1 40.3563 2.3739 27.6955
24322 1 38.7737 3.9565 0.7913
24323 1 40.3563 5.5391 2.3739
24324 1 38.7737 3.9565 3.9565
24325 1 40.3563 5.5391 5.5391
24326 1 38.7737 3.9565 7.1217
24327 1 40.3563 5.5391 8.7043
24328 1 38.7737 3.9565 10.2869
24329 1 40.3563 5.5391 11.8695
24330 1 38.7737 3.9565 13.4521
24331 1 40.3563 5.5391 15.0347
24332 1 38.7737 3.9565 16.6173
24333 1 40.3563 5.5391 18.1999
24334 1 38.7737 3.9565 19.7825
24335 1 40.3563 5.5391 21.3651
24336 1 38.7737 3.9565 22.9477
24337 1 40.3563 5.5391 24.5303
24338 1 38.7737 3.9565 26.1129
24339 1 40.3563 5.5391 27.6955
24340 1 38.7737 7.1217 0.7913
24341 1 40.3563 8.7043 2.3739
24342 1 38.7737 7.1217 3.9565
24343 1 40.3563 8.7043 5.5391
24344 1 38.7737 7.1217 7.1217
24345 1 40.3563 8.7043 8.7043
24346 1 38.7737 7.1217 10.2869
24347 1 40.3563 8.7043 11.8695
24348 1 38.7737 7.1217 13.4521
24349 1 40.3563 8.7043 15.0347
24350 1 38.7737 7.1217 16.6173
24351 1 40.3563 8.7043 18.1999
24352 1 38.7737 7.1217 19.7825
24353 1 40.3563 8.7043 21.3651
24354 1 38.7737 7.1217 22.9477
24355 1 40.3563 8.7043 24.5303
24356 1 38.7737 7.1217 26.1129
24357 1 40.3563 8.7043 27.6955
24358 1 38.7737 10.2869 0.7913
24359 1 40.3563 11.8695 2.3739
24360 1 38.7737 10.2869 3.9565
24361 1 40.3563 11.8695 5.5391
24362 1 38.7737 10.2869 7.1217
24363 1 40.3563 11.8695 8.7043
24364 1 38.7737 10.2869 10.2869
24365 1 40.3563 11.8695 11.8695
24366 1 38.7737 10.2869 13.4521
24367 1 40.3563 11.8695 15.0347
24368 1 38.7737 10.2869 16.6173
24369 1 40.3563 11.8695 18.1999
24370 1 38.7737 10.2869 19.7825
24371 1 40.3563 11.8695 21.3651
24372 1 38.7737 10.2869 22.9477
24373 1 40.3563 11.8695 24.5303
24374 1 38.7737 10.2869 26.1129
24375 1 40.3563 11.8695 27.6955
24376 1 38.7737 13.4521 0.7913
24377 1 40.3563 15.0347 2.3739
24378 1 38.7737 13.4521 3.9565
24379 1 40.3563 15.0347 5.5391
24380 1 38.7737 13.4521 7.1217
24381 1 40.3563 15.0347 8.7043
24382 1 38.7737 13.4521 10.2869
24383 1 40.3563 15.0347 11.8695
24384 1 38.7737 13.4521 13.4521
24385 1 40.3563 15.0347 15.0347
24386 1 38.7737 13.4521 16.6173
24387 1 40.3563 15.0347 18.1999
24388 1 38.7737 13.4521 19.7825
24389 1 40.3563 15.0347 21.3651
24390 1 38.7737 13.4521 22.9477
24391 1 40.3563 15.0347 24.5303
24392 1 38.7737 13.4521 26.1129
24393 1 40.3563 15.0347 27.6955
24394 1 38.7737 16.6173 0.7913
24395 1 40.3563 18.1999 2.3739
24396 1 38.7737 16.6173 3.9565
24397 1 40.3563 18.1999 5.5391
24398 1 38.7737 16.6173 7.1217
24399 1 40.3563 18.1999 8.7043
24400 1 38.7737 16.6173 10.2869
24401 1 40.3563 18.1999 11.8695
24402 1 38.7737 16.6173 13.4521
24403 1 40.3563 18.1999 15.0347
24404 1 38.7737 16.6173 16.6173
24405 1 40.3563 18.1999 18.1999
24406 1 38.7737 16.6173 19.7825
24407 1 40.3563 18.1999 21.3651
24408 1 38.7737 16.6173 22.9477
24409 1 40.3563 18.1999 24.5303
24410 1 38.7737 16.6173 26.1129
24411 1 40.3563 18.1999 27.6955
24412 1 38.7737 19.7825 0.7913
24413 1 40.3563 21.3651 2.3739
24414 1 38.7737 19.7825 3.9565
24415 1 40.3563 21.3651 5.5391
24416 1 38.7737 19.7825 7.1217
24417 1 40.3563 21.3651 8.7043
24418 1 38.7737 19.7825 10.2869
24419 1 40.3563 21.3651 11.8695
24420 1 38.7737 19.7825 13.4521
24421 1 40.3563 21.3651 15.0347
24422 1 38.7737 19.7825 16.6173
24423 1 40.3563 21.3651 18.1999
24424 1 38.7737 19.7825 19.7825
24425 1 40.3563 21.3651 21.3651
24426 1 38.7737 19.7825 22.9477
24427 1 40.3563 21.3651 24.5303
24428 1 38.7737 19.7825 26.1129
24429 1 40.3563 21.3651 27.6955
24430 1 38.7737 22.9477 0.7913
24431 1 40.3563 24.5303 2.3739
24432 1 38.7737 22.9477 3.9565
24433 1 40.3563 24.5303 5.5391
24434 1 38.7737 22.9477 7.1217
24435 1 40.3563 24.5303 8.7043
24436 1 38.7737 22.9477 10.2869
24437 1 40.3563 24.5303 11.8695
24438 1 38.7737 22.9477 13.4521
24439 1 40.3563 24.5303 15.0347
24440 1 38.7737 22.9477 16.6173
24441 1 40.3563 24.5303 18.1999
24442 1 38.7737 22.9477 19.7825
24443 1 40.3563 24.5303 21.3651
24444 1 38.7737 22.9477 22.9477
24445 1 40.3563 24.5303 24.5303
24446 1 38.7737 22.9477 26.1129
24447 1 40.3563 24.5303 27.6955
24448 1 38.7737 26.1129 0.7913
24449 1 40.3563 27.6955 2.3739
24450 1 38.7737 26.1129 3.9565
24451 1 40.3563 27.6955 5.5391
24452 1 38.7737 26.1129 7.1217
24453 1 40.3563 27.6955 8.7043
24454 1 38.7737 26.1129 10.2869
24455 1 40.3563 27.6955 11.8695
24456 1 38.7737 26.1129 13.4521
24457 1 40.3563 27.6955 15.0347
24458 1 38.7737 26.1129 16.6173
24459 1 40.3563 27.6955 18.1999
24460 1 38.7737 26.1129 19.7825
24461 1 40.3563 27.6955 21.3651
24462 1 38.7737 26.1129 22.9477
24463 1 40.3563 27.6955 24.5303
24464 1 38.7737 26.1129 26.1129
24465 1 40.3563 27.6955 27.6955
24466 1 38.7737 29.2781 0.7913
24467 1 40.3563 30.8607 2.3739
24468 1 38.7737 29.2781 3.9565
24469 1 40.3563 30.8607 5.5391
24470 1 38.7737 29.2781 7.1217
24471 1 40.3563 30.8607 8.7043
24472 1 38.7737 29.2781 10.2869
24473 1 40.3563 30.8607 11.8695
24474 1 38.7737 29.2781 13.4521
24475 1 40.3563 30.8607 15.0347
24476 1 38.7737 29.2781 16.6173
24477 1 40.3563 30.8607 18.1999
24478 1 38.7737 29.2781 19.7825
24479 1 40.3563 30.8607 21.3651
24480 1 38.7737 29.2781 22.9477
24481 1 40.3563 30.8607 24.5303
24482 1 38.7737 29.2781 26.1129
24483 1 40.3563 30.8607 27.6955
24484 1 38.7737 32.4433 0.7913
24485 1 40.3563 34.0259 2.3739
24486 1 38.7737 32.4433 3.9565
24487 1 40.3563 34.0259 5.5391
24488 1 38.7737 32.4433 7.1217
24489 1 40.3563 34.0259 8.7043
24490 1 38.7737 32.4433 10.2869
24491 1 40.3563 34.0259 11.8695
24492 1 38.7737 32.4433 13.4521
24493 1 40.3563 34.0259 15.0347
24494 1 38.7737 32.4433 16.6173
24495 1 40.3563 34.0259 18.1999
24496 1 38.7737 32.4433 19.7825
24497 1 40.3563 34.0259 21.3651
24498 1 38.7737 32.4433 22.9477
24499 1 40.3563 34.0259 24.5303
24500 1 38.7737 32.4433 26.1129
24501 1 40.3563 34.0259 27.6955
24502 1 38.7737 35.6085 0.7913
24503 1 40.3563 37.1911 2.3739
24504 1 38.7737 35.6085 3.9565
24505 1 40.3563 37.1911 5.5391
24506 1 38.7737 35.6085 7.1217
24507 1 40.3563 37.1911 8.7043
24508 1 38.7737 35.6085 10.2869
24509 1 40.3563 37.1911 11.8695
24510 1 38.7737 35.6085 13.4521
24511 1 40.3563 37.1911 15.0347
24512 1 38.7737 35.6085 16.6173
24513 1 40.3563 37.1911 18.1999
24514 1 38.7737 35.6085 19.7825
24515 1 40.3563 37.1911 21.3651
24516 1 38.7737 35.6085 22.9477
24517 1 40.3563 37.1911 24.5303
24518 1 38.7737 35.6085 26.1129
24519 1 40.3563 37.1911 27.6955
24520 1 38.7737 38.7737 0.7913
24521 1 40.3563 40.3563 2.3739
24522 1 38.7737 38.7737 3.9565
24523 1 40.3563 40.3563 5.5391
24524 1 38.7737 38.7737 7.1217
24525 1 40.3563 40.3563 8.7043
24526 1 38.7737 38.7737 10.2869
24527 1 40.3563 40.3563 11.8695
24528 1 38.7737 38.7737 13.4521
24529 1 40.3563 40.3563 15.0347
24530 1 38.7737 38.7737 16.6173
24531 1 40.3563 40.3563 18.1999
24532 1 38.7737 38.7737 19.7825
24533 1 40.3563 40.3563 21.3651
24534 1 38.7737 38.7737 22.9477
24535 1 40.3563 40.3563 24.5303
24536 1 38.7737 38.7737 26.1129
24537 1 40.3563 40.3563 27.6955
24538 1 38.7737 41.9389 0.7913
24539 1 40.3563 43.5215 2.3739
24540 1 38.7737 41.9389 3.9565
24541 1 40.3563 43.5215 5.5391
24542 1 38.7737 41.9389 7.1217
24543 1 40.3563 43.5215 8.7043
24544 1 38.7737 41.9389 10.2869
24545 1 40.3563 43.5215 11.8695
24546 1 38.7737 41.9389 13.4521
24547 1 40.3563 43.5215 15.0347
24548 1 38.7737 41.9389 16.6173
24549 1 40.3563 43.5215 18.1999
24550 1 38.7737 41.9389 19.7825
24551 1 40.3563 43.5215 21.3651
24552 1 38.7737 41.9389 22.9477
24553 1 40.3563 43.5215 24.5303
24554 1 38.7737 41.9389 26.1129
24555 1 40.3563 43.5215 27.6955
24556 1 38.7737 45.1041 0.7913
24557 1 40.3563 46.6867 2.3739
24558 1 38.7737 45.1041 3.9565
24559 1 40.3563 46.6867 5.5391
24560 1 38.7737 45.1041 7.1217
24561 1 40.3563 46.6867 8.7043
24562 1 38.7737 45.1041 10.2869
24563 1 40.3563 46.6867 11.8695
24564 1 38.7737 45.1041 13.4521
24565 1 40.3563 46.6867 15.0347
24566 1 38.7737 45.1041 16.6173
24567 1 40.3563 46.6867 18.1999
24568 1 38.7737 45.1041 19.7825
24569 1 40.3563 46.6867 21.3651
24570 1 38.7737 45.1041 22.9477
24571 1 40.3563 46.6867 24.5303
24572 1 38.7737 45.1041 26.1129
24573 1 40.3563 46.6867 27.6955
24574 1 38.7737 48.2693 0.7913
24575 1 40.3563 49.8519 2.3739
24576 1 38.7737 48.2693 3.9565
24577 1 40.3563 49.8519 5.5391
24578 1 38.7737 48.2693 7.1217
24579 1 40.3563 49.8519 8.7043
24580 1 38.7737 48.2693 10.2869
24581 1 40.3563 49.8519 11.8695
24582 1 38.7737 48.2693 13.4521
24583 1 40.3563 49.8519 15.0347
24584 1 38.7737 48.2693 16.6173
24585 1 40.3563 49.8519 18.1999
24586 1 38.7737 48.2693 19.7825
24587 1 40.3563 49.8519 21.3651
24588 1 38.7737 48.2693 22.9477
24589 1 40.3563 49.8519 24.5303
24590 1 38.7737 48.2693 26.1129
24591 1 40.3563 49.8519 27.6955
24592 1 38.7737 51.4345 0.7913
24593 1 40.3563 53.0171 2.3739
24594 1 38.7737 51.4345 3.9565
24595 1 40.3563 53.0171 5.5391
24596 1 38.7737 51.4345 7.1217
24597 1 40.3563 53.0171 8.7043
24598 1 38.7737 51.4345 10.2869
24599 1 40.3563 53.0171 11.8695
24600 1 38.7737 51.4345 13.4521
24601 1 40.3563 53.0171 15.0347
24602 1 38.7737 51.4345 16.6173
24603 1 40.3563 53.0171 18.1999
24604 1 38.7737 51.4345 19.7825
24605 1 40.3563 53.0171 21.3651
24606 1 38.7737 51.4345 22.9477
24607 1 40.3563 53.0171 24.5303
24608 1 38.7737 51.4345 26.1129
24609 1 40.3563 53.0171 27.6955
24610 1 38.7737 54.5997 0.7913
24611 1 40.3563 56.1823 2.3739
24612 1 38.7737 54.5997 3.9565
24613 1 40.3563 56.1823 5.5391
24614 1 38.7737 54.5997 7.1217
24615 1 40.3563 56.1823 8.7043
24616 1 38.7737 54.5997 10.2869
24617 1 40.3563 56.1823 11.8695
24618 1 38.7737 54.5997 13.4521
24619 1 40.3563 56.1823 15.0347
24620 1 38.7737 54.5997 16.6173
24621 1 40.3563 56.1823 18.1999
24622 1 38.7737 54.5997 19.7825
24623 1 40.3563 56.1823 21.3651
24624 1 38.7737 54.5997 22.9477
24625 1 40.3563 56.1823 24.5303
24626 1 38.7737 54.5997 26.1129
24627 1 40.3563 56.1823 27.6955
24628 1 38.7737 57.7649 0.7913
24629 1 40.3563 59.3475 2.3739
24630 1 38.7737 57.7649 3.9565
24631 1 40.3563 59.3475 5.5391
24632 1 38.7737 57.7649 7.1217
24633 1 40.3563 59.3475 8.7043
24634 1 38.7737 57.7649 10.2869
24635 1 40.3563 59.3475 11.8695
24636 1 38.7737 57.7649 13.4521
24637 1 40.3563 59.3475 15.0347
24638 1 38.7737 57.7649 16.6173
24639 1 40.3563 59.3475 18.1999
24640 1 38.7737 57.7649 19.7825
24641 1 40.3563 59.3475 21.3651
24642 1 38.7737 57.7649 22.9477
24643 1 40.3563 59.3475 24.5303
24644 1 38.7737 57.7649 26.1129
24645 1 40.3563 59.3475 27.6955
24646 1 38.7737 60.9301 0.7913
24647 1 40.3563 62.5127 2.3739
24648 1 38.7737 60.9301 3.9565
24649 1 40.3563 62.5127 5.5391
24650 1 38.7737 60.9301 7.1217
24651 1 40.3563 62.5127 8.7043
24652 1 38.7737 60.9301 10.2869
24653 1 40.3563 62.5127 11.8695
24654 1 38.7737 60.9301 13.4521
24655 1 40.3563 62.5127 15.0347
24656 1 38.7737 60.9301 16.6173
24657 1 40.3563 62.5127 18.1999
24658 1 38.7737 60.9301 19.7825
24659 1 40.3563 62.5127 21.3651
24660 1 38.7737 60.9301 22.9477
24661 1 40.3563 62.5127 24.5303
24662 1 38.7737 60.9301 26.1129
24663 1 40.3563 62.5127 27.6955
24664 1 38.7737 64.0953 0.7913
24665 1 40.3563 65.6779 2.3739
24666 1 38.7737 64.0953 3.9565
24667 1 40.3563 65.6779 5.5391
24668 1 38.7737 64.0953 7.1217
24669 1 40.3563 65.6779 8.7043
24670 1 38.7737 64.0953 10.2869
24671 1 40.3563 65.6779 11.8695
24672 1 38.7737 64.0953 13.4521
24673 1 40.3563 65.6779 15.0347
24674 1 38.7737 64.0953 16.6173
24675 1 40.3563 65.6779 18.1999
24676 1 38.7737 64.0953 19.7825
24677 1 40.3563 65.6779 21.3651
24678 1 38.7737 64.0953 22.9477
24679 1 40.3563 65.6779 24.5303
24680 1 38.7737 64.0953 26.1129
24681 1 40.3563 65.6779 27.6955
24682 1 38.7737 67.2605 0.7913
24683 1 40.3563 68.8431 2.3739
24684 1 38.7737 67.2605 3.9565
24685 1 40.3563 68.8431 5.5391
24686 1 38.7737 67.2605 7.1217
24687 1 40.3563 68.8431 8.7043
24688 1 38.7737 67.2605 10.2869
24689 1 40.3563 68.8431 11.8695
24690 1 38.7737 67.2605 13.4521
24691 1 40.3563 68.8431 15.0347
24692 1 38.7737 67.2605 16.6173
24693 1 40.3563 68.8431 18.1999
24694 1 38.7737 67.2605 19.7825
24695 1 40.3563 68.8431 21.3651
24696 1 38.7737 67.2605 22.9477
24697 1 40.3563 68.8431 24.5303
24698 1 38.7737 67.2605 26.1129
24699 1 40.3563 68.8431 27.6955
24700 1 38.7737 70.4257 0.7913
24701 1 40.3563 72.0083 2.3739
24702 1 38.7737 70.4257 3.9565
24703 1 40.3563 72.0083 5.5391
24704 1 38.7737 70.4257 7.1217
24705 1 40.3563 72.0083 8.7043
24706 1 38.7737 70.4257 10.2869
24707 1 40.3563 72.0083 11.8695
24708 1 38.7737 70.4257 13.4521
24709 1 40.3563 72.0083 15.0347
24710 1 38.7737 70.4257 16.6173
24711 1 40.3563 72.0083 18.1999
24712 1 38.7737 70.4257 19.7825
24713 1 40.3563 72.0083 21.3651
24714 1 38.7737 70.4257 22.9477
24715 1 40.3563 72.0083 24.5303
24716 1 38.7737 70.4257 26.1129
24717 1 40.3563 72.0083 27.6955
24718 1 38.7737 73.5909 0.7913
24719 1 40.3563 75.1735 2.3739
24720 1 38.7737 73.5909 3.9565
24721 1 40.3563 75.1735 5.5391
24722 1 38.7737 73.5909 7.1217
24723 1 40.3563 75.1735 8.7043
24724 1 38.7737 73.5909 10.2869
24725 1 40.3563 75.1735 11.8695
24726 1 38.7737 73.5909 13.4521
24727 1 40.3563 75.1735 15.0347
24728 1 38.7737 73.5909 16.6173
24729 1 40.3563 75.1735 18.1999
24730 1 38.7737 73.5909 19.7825
24731 1 40.3563 75.1735 21.3651
24732 1 38.7737 73.5909 22.9477
24733 1 40.3563 75.1735 24.5303
24734 1 38.7737 73.5909 26.1129
24735 1 40.3563 75.1735 27.6955
24736 1 38.7737 76.7561 0.7913
24737 1 40.3563 78.3387 2.3739
24738 1 38.7737 76.7561 3.9565
24739 1 40.3563 78.3387 5.5391
24740 1 38.7737 76.7561 7.1217
24741 1 40.3563 78.3387 8.7043
24742 1 38.7737 76.7561 10.2869
24743 1 40.3563 78.3387 11.8695
24744 1 38.7737 76.7561 13.4521
24745 1 40.3563 78.3387 15.0347
24746 1 38.7737 76.7561 16.6173
24747 1 40.3563 78.3387 18.1999
24748 1 38.7737 76.7561 19.7825
24749 1 40.3563 78.3387 21.3651
24750 1 38.7737 76.7561 22.9477
24751 1 40.3563 78.3387 24.5303
24752 1 38.7737 76.7561 26.1129
24753 1 40.3563 78.3387 27.6955
24754 1 41.9389 0.7913 0.7913
24755 1 43.5215 2.3739 2.3739
24756 1 41.9389 0.7913 3.9565
24757 1 43.5215 2.3739 5.5391
24758 1 41.9389 0.7913 7.1217
24759 1 43.5215 2.3739 8.7043
24760 1 41.9389 0.7913 10.2869
24761 1 43.5215 2.3739 11.8695
24762 1 41.9389 0.7913 13.4521
24763 1 43.5215 2.3739 15.0347
24764 1 41.9389 0.7913 16.6173
24765 1 43.5215 2.3739 18.1999
24766 1 41.9389 0.7913 19.7825
24767 1 43.5215 2.3739 21.3651
24768 1 41.9389 0.7913 22.9477
24769 1 43.5215 2.3739 24.5303
24770 1 41.9389 0.7913 26.1129
24771 1 43.5215 2.3739 27.6955
24772 1 41.9389 3.9565 0.7913
24773 1 43.5215 5.5391 2.3739
24774 1 41.9389 3.9565 3.9565
24775 1 43.5215 5.5391 5.5391
24776 1 41.9389 3.9565 7.1217
24777 1 43.5215 5.5391 8.7043
24778 1 41.9389 3.9565 10.2869
24779 1 43.5215 5.5391 11.8695
24780 1 41.9389 3.9565 13.4521
24781 1 43.5215 5.5391 15.0347
24782 1 41.9389 3.9565 16.6173
24783 1 43.5215 5.5391 18.1999
24784 1 41.9389 3.9565 19.7825
24785 1 43.5215 5.5391 21.3651
24786 1 41.9389 3.9565 22.9477
24787 1 43.5215 5.5391 24.5303
24788 1 41.9389 3.9565 26.1129
24789 1 43.5215 5.5391 27.6955
24790 1 41.9389 7.1217 0.7913
24791 1 43.5215 8.7043 2.3739
24792 1 41.9389 7.1217 3.9565
24793 1 43.5215 8.7043 5.5391
24794 1 41.9389 7.1217 7.1217
24795 1 43.5215 8.7043 8.7043
24796 1 41.9389 7.1217 10.2869
24797 1 43.5215 8.7043 11.8695
24798 1 41.9389 7.1217 13.4521
24799 1 43.5215 8.7043 15.0347
24800 1 41.9389 7.1217 16.6173
24801 1 43.5215 8.7043 18.1999
24802 1 41.9389 7.1217 19.7825
24803 1 43.5215 8.7043 21.3651
24804 1 41.9389 7.1217 22.9477
24805 1 43.5215 8.7043 24.5303
24806 1 41.9389 7.1217 26.1129
24807 1 43.5215 8.7043 27.6955
24808 1 41.9389 10.2869 0.7913
24809 1 43.5215 11.8695 2.3739
24810 1 41.9389 10.2869 3.9565
24811 1 43.5215 11.8695 5.5391
24812 1 41.9389 10.2869 7.1217
24813 1 43.5215 11.8695 8.7043
24814 1 41.9389 10.2869 10.2869
24815 1 43.5215 11.8695 11.8695
24816 1 41.9389 10.2869 13.4521
24817 1 43.5215 11.8695 15.0347
24818 1 41.9389 10.2869 16.6173
24819 1 43.5215 11.8695 18.1999
24820 1 41.9389 10.2869 19.7825
24821 1 43.5215 11.8695 21.3651
24822 1 41.9389 10.2869 22.9477
24823 1 43.5215 11.8695 24.5303
24824 1 41.9389 10.2869 26.1129
24825 1 43.5215 11.8695 27.6955
24826 1 41.9389 13.4521 0.7913
24827 1 43.5215 15.0347 2.3739
24828 1 41.9389 13.4521 3.9565
24829 1 43.5215 15.0347 5.5391
24830 1 41.9389 13.4521 7.1217
24831 1 43.5215 15.0347 8.7043
24832 1 41.9389 13.4521 10.2869
24833 1 43.5215 15.0347 11.8695
24834 1 41.9389 13.4521 13.4521
24835 1 43.5215 15.0347 15.0347
24836 1 41.9389 13.4521 16.6173
24837 1 43.5215 15.0347 18.1999
24838 1 41.9389 13.4521 19.7825
24839 1 43.5215 15.0347 21.3651
24840 1 41.9389 13.4521 22.9477
24841 1 43.5215 15.0347 24.5303
24842 1 41.9389 13.4521 26.1129
24843 1 43.5215 15.0347 27.6955
24844 1 41.9389 16.6173 0.7913
24845 1 43.5215 18.1999 2.3739
24846 1 41.9389 16.6173 3.9565
24847 1 43.5215 18.1999 5.5391
24848 1 41.9389 16.6173 7.1217
24849 1 43.5215 18.1999 8.7043
24850 1 41.9389 16.6173 10.2869
24851 1 43.5215 18.1999 11.8695
24852 1 41.9389 16.6173 13.4521
24853 1 43.5215 18.1999 15.0347
24854 1 41.9389 16.6173 16.6173
24855 1 43.5215 18.1999 18.1999
24856 1 41.9389 16.6173 19.7825
24857 1 43.5215 18.1999 21.3651
24858 1 41.9389 16.6173 22.9477
24859 1 43.5215 18.1999 24.5303
24860 1 41.9389 16.6173 26.1129
24861 1 43.5215 18.1999 27.6955
24862 1 41.9389 19.7825 0.7913
24863 1 43.5215 21.3651 2.3739
24864 1 41.9389 19.7825 3.9565
24865 1 43.5215 21.3651 5.5391
24866 1 41.9389 19.7825 7.1217
24867 1 43.5215 21.3651 8.7043
24868 1 41.9389 19.7825 10.2869
24869 1 43.5215 21.3651 11.8695
24870 1 41.9389 19.7825 13.4521
24871 1 43.5215 21.3651 15.0347
24872 1 41.9389 19.7825 16.6173
24873 1 43.5215 21.3651 18.1999
24874 1 41.9389 19.7825 19.7825
24875 1 43.5215 21.3651 21.3651
24876 1 41.9389 19.7825 22.9477
24877 1 43.5215 21.3651 24.5303
24878 1 41.9389 19.7825 26.1129
24879 1 43.5215 21.3651 27.6955
24880 1 41.9389 22.9477 0.7913
24881 1 43.5215 24.5303 2.3739
24882 1 41.9389 22.9477 3.9565
24883 1 43.5215 24.5303 5.5391
24884 1 41.9389 22.9477 7.1217
24885 1 43.5215 24.5303 8.7043
24886 1 41.9389 22.9477 10.2869
24887 1 43.5215 24.5303 11.8695
24888 1 41.9389 22.9477 13.4521
24889 1 43.5215 24.5303 15.0347
24890 1 41.9389 22.9477 16.6173
24891 1 43.5215 24.5303 18.1999
24892 1 41.9389 22.9477 19.7825
24893 1 43.5215 24.5303 21.3651
24894 1 41.9389 22.9477 22.9477
24895 1 43.5215 24.5303 24.5303
24896 1 41.9389 22.9477 26.1129
24897 1 43.5215 24.5303 27.6955
24898 1 41.9389 26.1129 0.7913
24899 1 43.5215 27.6955 2.3739
24900 1 41.9389 26.1129 3.9565
24901 1 43.5215 27.6955 5.5391
24902 1 41.9389 26.1129 7.1217
24903 1 43.5215 27.6955 8.7043
24904 1 41.9389 26.1129 10.2869
24905 1 43.5215 27.6955 11.8695
24906 1 41.9389 26.1129 13.4521
24907 1 43.5215 27.6955 15.0347
24908 1 41.9389 26.1129 16.6173
24909 1 43.5215 27.6955 18.1999
24910 1 41.9389 26.1129 19.7825
24911 1 43.5215 27.6955 21.3651
24912 1 41.9389 26.1129 22.9477
24913 1 43.5215 27.6955 24.5303
24914 1 41.9389 26.1129 26.1129
24915 1 43.5215 27.6955 27.6955
24916 1 41.9389 29.2781 0.7913
24917 1 43.5215 30.8607 2.3739
24918 1 41.9389 29.2781 3.9565
24919 1 43.5215 30.8607 5.5391
24920 1 41.9389 29.2781 7.1217
24921 1 43.5215 30.8607 8.7043
24922 1 41.9389 29.2781 10.2869
24923 1 43.5215 30.8607 11.8695
24924 1 41.9389 29.2781 13.4521
24925 1 43.5215 30.8607 15.0347
24926 1 41.9389 29.2781 16.6173
24927 1 43.5215 30.8607 18.1999
24928 1 41.9389 29.2781 19.7825
24929 1 43.5215 30.8607 21.3651
24930 1 41.9389 29.2781 22.9477
24931 1 43.5215 30.8607 24.5303
24932 1 41.9389 29.2781 26.1129
24933 1 43.5215 30.8607 27.6955
24934 1 41.9389 32.4433 0.7913
24935 1 43.5215 34.0259 2.3739
24936 1 41.9389 32.4433 3.9565
24937 1 43.5215 34.0259 5.5391
24938 1 41.9389 32.4433 7.1217
24939 1 43.5215 34.0259 8.7043
24940 1 41.9389 32.4433 10.2869
24941 1 43.5215 34.0259 11.8695
24942 1 41.9389 32.4433 13.4521
24943 1 43.5215 34.0259 15.0347
24944 1 41.9389 32.4433 16.6173
24945 1 43.5215 34.0259 18.1999
24946 1 41.9389 32.4433 19.7825
24947 1 43.5215 34.0259 21.3651
24948 1 41.9389 32.4433 22.9477
24949 1 43.5215 34.0259 24.5303
24950 1 41.9389 32.4433 26.1129
24951 1 43.5215 34.0259 27.6955
24952 1 41.9389 35.6085 0.7913
24953 1 43.5215 37.1911 2.3739
24954 1 41.9389 35.6085 3.9565
24955 1 43.5215 37.1911 5.5391
24956 1 41.9389 35.6085 7.1217
24957 1 43.5215 37.1911 8.7043
24958 1 41.9389 35.6085 10.2869
24959 1 43.5215 37.1911 11.8695
24960 1 41.9389 35.6085 13.4521
24961 1 43.5215 37.1911 15.0347
24962 1 41.9389 35.6085 16.6173
24963 1 43.5215 37.1911 18.1999
24964 1 41.9389 35.6085 19.7825
24965 1 43.5215 37.1911 21.3651
24966 1 41.9389 35.6085 22.9477
24967 1 43.5215 37.1911 24.5303
24968 1 41.9389 35.6085 26.1129
24969 1 43.5215 37.1911 27.6955
24970 1 41.9389 38.7737 0.7913
24971 1 43.5215 40.3563 2.3739
24972 1 41.9389 38.7737 3.9565
24973 1 43.5215 40.3563 5.5391
24974 1 41.9389 38.7737 7.1217
24975 1 43.5215 40.3563 8.7043
24976 1 41.9389 38.7737 10.2869
24977 1 43.5215 40.3563 11.8695
24978 1 41.9389 38.7737 13.4521
24979 1 43.5215 40.3563 15.0347
24980 1 41.9389 38.7737 16.6173
24981 1 43.5215 40.3563 18.1999
24982 1 41.9389 38.7737 19.7825
24983 1 43.5215 40.3563 21.3651
24984 1 41.9389 38.7737 22.9477
24985 1 43.5215 40.3563 24.5303
24986 1 41.9389 38.7737 26.1129
24987 1 43.5215 40.3563 27.6955
24988 1 41.9389 41.9389 0.7913
24989 1 43.5215 43.5215 2.3739
24990 1 41.9389 41.9389 3.9565
24991 1 43.5215 43.5215 5.5391
24992 1 41.9389 41.9389 7.1217
24993 1 43.5215 43.5215 8.7043
24994 1 41.9389 41.9389 10.2869
24995 1 43.5215 43.5215 11.8695
24996 1 41.9389 41.9389 13.4521
24997 1 43.5215 43.5215 15.0347
24998 1 41.9389 41.9389 16.6173
24999 1 43.5215 43.5215 18.1999
25000 1 41.9389 41.9389 19.7825
25001 1 43.5215 43.5215 21.3651
25002 1 41.9389 41.9389 22.9477
25003 1 43.5215 43.5215 24.5303
25004 1 41.9389 41.9389 26.1129
25005 1 43.5215 43.5215 27.6955
25006 1 41.9389 45.1041 0.7913
25007 1 43.5215 46.6867 2.3739
25008 1 41.9389 45.1041 3.9565
25009 1 43.5215 46.6867 5.5391
25010 1 41.9389 45.1041 7.1217
25011 1 43.5215 46.6867 8.7043
25012 1 41.9389 45.1041 10.2869
25013 1 43.5215 46.6867 11.8695
25014 1 41.9389 45.1041 13.4521
25015 1 43.5215 46.6867 15.0347
25016 1 41.9389 45.1041 16.6173
25017 1 43.5215 46.6867 18.1999
25018 1 41.9389 45.1041 19.7825
25019 1 43.5215 46.6867 21.3651
25020 1 41.9389 45.1041 22.9477
25021 1 43.5215 46.6867 24.5303
25022 1 41.9389 45.1041 26.1129
25023 1 43.5215 46.6867 27.6955
25024 1 41.9389 48.2693 0.7913
25025 1 43.5215 49.8519 2.3739
25026 1 41.9389 48.2693 3.9565
25027 1 43.5215 49.8519 5.5391
25028 1 41.9389 48.2693 7.1217
25029 1 43.5215 49.8519 8.7043
25030 1 41.9389 48.2693 10.2869
25031 1 43.5215 49.8519 11.8695
25032 1 41.9389 48.2693 13.4521
25033 1 43.5215 49.8519 15.0347
25034 1 41.9389 48.2693 16.6173
25035 1 43.5215 49.8519 18.1999
25036 1 41.9389 48.2693 19.7825
25037 1 43.5215 49.8519 21.3651
25038 1 41.9389 48.2693 22.9477
25039 1 43.5215 49.8519 24.5303
25040 1 41.9389 48.2693 26.1129
25041 1 43.5215 49.8519 27.6955
25042 1 41.9389 51.4345 0.7913
25043 1 43.5215 53.0171 2.3739
25044 1 41.9389 51.4345 3.9565
25045 1 43.5215 53.0171 5.5391
25046 1 41.9389 51.4345 7.1217
25047 1 43.5215 53.0171 8.7043
25048 1 41.9389 51.4345 10.2869
25049 1 43.5215 53.0171 11.8695
25050 1 41.9389 51.4345 13.4521
25051 1 43.5215 53.0171 15.0347
25052 1 41.9389 51.4345 16.6173
25053 1 43.5215 53.0171 18.1999
25054 1 41.9389 51.4345 19.7825
25055 1 43.5215 53.0171 21.3651
25056 1 41.9389 51.4345 22.9477
25057 1 43.5215 53.0171 24.5303
25058 1 41.9389 51.4345 26.1129
25059 1 43.5215 53.0171 27.6955
25060 1 41.9389 54.5997 0.7913
25061 1 43.5215 56.1823 2.3739
25062 1 41.9389 54.5997 3.9565
25063 1 43.5215 56.1823 5.5391
25064 1 41.9389 54.5997 7.1217
25065 1 43.5215 56.1823 8.7043
25066 1 41.9389 54.5997 10.2869
25067 1 43.5215 56.1823 11.8695
25068 1 41.9389 54.5997 13.4521
25069 1 43.5215 56.1823 15.0347
25070 1 41.9389 54.5997 16.6173
25071 1 43.5215 56.1823 18.1999
25072 1 41.9389 54.5997 19.7825
25073 1 43.5215 56.1823 21.3651
25074 1 41.9389 54.5997 22.9477
25075 1 43.5215 56.1823 24.5303
25076 1 41.9389 54.5997 26.1129
25077 1 43.5215 56.1823 27.6955
25078 1 41.9389 57.7649 0.7913
25079 1 43.5215 59.3475 2.3739
25080 1 41.9389 57.7649 3.9565
25081 1 43.5215 59.3475 5.5391
25082 1 41.9389 57.7649 7.1217
25083 1 43.5215 59.3475 8.7043
25084 1 41.9389 57.7649 10.2869
25085 1 43.5215 59.3475 11.8695
25086 1 41.9389 57.7649 13.4521
25087 1 43.5215 59.3475 15.0347
25088 1 41.9389 57.7649 16.6173
25089 1 43.5215 59.3475 18.1999
25090 1 41.9389 57.7649 19.7825
25091 1 43.5215 59.3475 21.3651
25092 1 41.9389 57.7649 22.9477
25093 1 43.5215 59.3475 24.5303
25094 1 41.9389 57.7649 26.1129
25095 1 43.5215 59.3475 27.6955
25096 1 41.9389 60.9301 0.7913
25097 1 43.5215 62.5127 2.3739
25098 1 41.9389 60.9301 3.9565
25099 1 43.5215 62.5127 5.5391
25100 1 41.9389 60.9301 7.1217
25101 1 43.5215 62.5127 8.7043
25102 1 41.9389 60.9301 10.2869
25103 1 43.5215 62.5127 11.8695
25104 1 41.9389 60.9301 13.4521
25105 1 43.5215 62.5127 15.0347
25106 1 41.9389 60.9301 16.6173
25107 1 43.5215 62.5127 18.1999
25108 1 41.9389 60.9301 19.7825
25109 1 43.5215 62.5127 21.3651
25110 1 41.9389 60.9301 22.9477
25111 1 43.5215 62.5127 24.5303
25112 1 41.9389 60.9301 26.1129
25113 1 43.5215 62.5127 27.6955
25114 1 41.9389 64.0953 0.7913
25115 1 43.5215 65.6779 2.3739
25116 1 41.9389 64.0953 3.9565
25117 1 43.5215 65.6779 5.5391
25118 1 41.9389 64.0953 7.1217
25119 1 43.5215 65.6779 8.7043
25120 1 41.9389 64.0953 10.2869
25121 1 43.5215 65.6779 11.8695
25122 1 41.9389 64.0953 13.4521
25123 1 43.5215 65.6779 15.0347
25124 1 41.9389 64.0953 16.6173
25125 1 43.5215 65.6779 18.1999
25126 1 41.9389 64.0953 19.7825
25127 1 43.5215 65.6779 21.3651
25128 1 41.9389 64.0953 22.9477
25129 1 43.5215 65.6779 24.5303
25130 1 41.9389 64.0953 26.1129
25131 1 43.5215 65.6779 27.6955
25132 1 41.9389 67.2605 0.7913
25133 1 43.5215 68.8431 2.3739
25134 1 41.9389 67.2605 3.9565
25135 1 43.5215 68.8431 5.5391
25136 1 41.9389 67.2605 7.1217
25137 1 43.5215 68.8431 8.7043
25138 1 41.9389 67.2605 10.2869
25139 1 43.5215 68.8431 11.8695
25140 1 41.9389 67.2605 13.4521
25141 1 43.5215 68.8431 15.0347
25142 1 41.9389 67.2605 16.6173
25143 1 43.5215 68.8431 18.1999
25144 1 41.9389 67.2605 19.7825
25145 1 43.5215 68.8431 21.3651
25146 1 41.9389 67.2605 22.9477
25147 1 43.5215 68.8431 24.5303
25148 1 41.9389 67.2605 26.1129
25149 1 43.5215 68.8431 27.6955
25150 1 41.9389 70.4257 0.7913
25151 1 43.5215 72.0083 2.3739
25152 1 41.9389 70.4257 3.9565
25153 1 43.5215 72.0083 5.5391
25154 1 41.9389 70.4257 7.1217
25155 1 43.5215 72.0083 8.7043
25156 1 41.9389 70.4257 10.2869
25157 1 43.5215 72.0083 11.8695
25158 1 41.9389 70.4257 13.4521
25159 1 43.5215 72.0083 15.0347
25160 1 41.9389 70.4257 16.6173
25161 1 43.5215 72.0083 18.1999
25162 1 41.9389 70.4257 19.7825
25163 1 43.5215 72.0083 21.3651
25164 1 41.9389 70.4257 22.9477
25165 1 43.5215 72.0083 24.5303
25166 1 41.9389 70.4257 26.1129
25167 1 43.5215 72.0083 27.6955
25168 1 41.9389 73.5909 0.7913
25169 1 43.5215 75.1735 2.3739
25170 1 41.9389 73.5909 3.9565
25171 1 43.5215 75.1735 5.5391
25172 1 41.9389 73.5909 7.1217
25173 1 43.5215 75.1735 8.7043
25174 1 41.9389 73.5909 10.2869
25175 1 43.5215 75.1735 11.8695
25176 1 41.9389 73.5909 13.4521
25177 1 43.5215 75.1735 15.0347
25178 1 41.9389 73.5909 16.6173
25179 1 43.5215 75.1735 18.1999
25180 1 41.9389 73.5909 19.7825
25181 1 43.5215 75.1735 21.3651
25182 1 41.9389 73.5909 22.9477
25183 1 43.5215 75.1735 24.5303
25184 1 41.9389 73.5909 26.1129
25185 1 43.5215 75.1735 27.6955
25186 1 41.9389 76.7561 0.7913
25187 1 43.5215 78.3387 2.3739
25188 1 41.9389 76.7561 3.9565
25189 1 43.5215 78.3387 5.5391
25190 1 41.9389 76.7561 7.1217
25191 1 43.5215 78.3387 8.7043
25192 1 41.9389 76.7561 10.2869
25193 1 43.5215 78.3387 11.8695
25194 1 41.9389 76.7561 13.4521
25195 1 43.5215 78.3387 15.0347
25196 1 41.9389 76.7561 16.6173
25197 1 43.5215 78.3387 18.1999
25198 1 41.9389 76.7561 19.7825
25199 1 43.5215 78.3387 21.3651
25200 1 41.9389 76.7561 22.9477
25201 1 43.5215 78.3387 24.5303
25202 1 41.9389 76.7561 26.1129
25203 1 43.5215 78.3387 27.6955
25204 1 45.1041 0.7913 0.7913
25205 1 46.6867 2.3739 2.3739
25206 1 45.1041 0.7913 3.9565
25207 1 46.6867 2.3739 5.5391
25208 1 45.1041 0.7913 7.1217
25209 1 46.6867 2.3739 8.7043
25210 1 45.1041 0.7913 10.2869
25211 1 46.6867 2.3739 11.8695
25212 1 45.1041 0.7913 13.4521
25213 1 46.6867 2.3739 15.0347
25214 1 45.1041 0.7913 16.6173
25215 1 46.6867 2.3739 18.1999
25216 1 45.1041 0.7913 19.7825
25217 1 46.6867 2.3739 21.3651
25218 1 45.1041 0.7913 22.9477
25219 1 46.6867 2.3739 24.5303
25220 1 45.1041 0.7913 26.1129
25221 1 46.6867 2.3739 27.6955
25222 1 45.1041 3.9565 0.7913
25223 1 46.6867 5.5391 2.3739
25224 1 45.1041 3.9565 3.9565
25225 1 46.6867 5.5391 5.5391
25226 1 45.1041 3.9565 7.1217
25227 1 46.6867 5.5391 8.7043
25228 1 45.1041 3.9565 10.2869
25229 1 46.6867 5.5391 11.8695
25230 1 45.1041 3.9565 13.4521
25231 1 46.6867 5.5391 15.0347
25232 1 45.1041 3.9565 16.6173
25233 1 46.6867 5.5391 18.1999
25234 1 45.1041 3.9565 19.7825
25235 1 46.6867 5.5391 21.3651
25236 1 45.1041 3.9565 22.9477
25237 1 46.6867 5.5391 24.5303
25238 1 45.1041 3.9565 26.1129
25239 1 46.6867 5.5391 27.6955
25240 1 45.1041 7.1217 0.7913
25241 1 46.6867 8.7043 2.3739
25242 1 45.1041 7.1217 3.9565
25243 1 46.6867 8.7043 5.5391
25244 1 45.1041 7.1217 7.1217
25245 1 46.6867 8.7043 8.7043
25246 1 45.1041 7.1217 10.2869
25247 1 46.6867 8.7043 11.8695
25248 1 45.1041 7.1217 13.4521
25249 1 46.6867 8.7043 15.0347
25250 1 45.1041 7.1217 16.6173
25251 1 46.6867 8.7043 18.1999
25252 1 45.1041 7.1217 19.7825
25253 1 46.6867 8.7043 21.3651
25254 1 45.1041 7.1217 22.9477
25255 1 46.6867 8.7043 24.5303
25256 1 45.1041 7.1217 26.1129
25257 1 46.6867 8.7043 27.6955
25258 1 45.1041 10.2869 0.7913
25259 1 46.6867 11.8695 2.3739
25260 1 45.1041 10.2869 3.9565
25261 1 46.6867 11.8695 5.5391
25262 1 45.1041 10.2869 7.1217
25263 1 46.6867 11.8695 8.7043
25264 1 45.1041 10.2869 10.2869
25265 1 46.6867 11.8695 11.8695
25266 1 45.1041 10.2869 13.4521
25267 1 46.6867 11.8695 15.0347
25268 1 45.1041 10.2869 16.6173
25269 1 46.6867 11.8695 18.1999
25270 1 45.1041 10.2869 19.7825
25271 1 46.6867 11.8695 21.3651
25272 1 45.1041 10.2869 22.9477
25273 1 46.6867 11.8695 24.5303
25274 1 45.1041 10.2869 26.1129
25275 1 46.6867 11.8695 27.6955
25276 1 45.1041 13.4521 0.7913
25277 1 46.6867 15.0347 2.3739
25278 1 45.1041 13.4521 3.9565
25279 1 46.6867 15.0347 5.5391
25280 1 45.1041 13.4521 7.1217
25281 1 46.6867 15.0347 8.7043
25282 1 45.1041 13.4521 10.2869
25283 1 46.6867 15.0347 11.8695
25284 1 45.1041 13.4521 13.4521
25285 1 46.6867 15.0347 15.0347
25286 1 45.1041 13.4521 16.6173
25287 1 46.6867 15.0347 18.1999
25288 1 45.1041 13.4521 19.7825
25289 1 46.6867 15.0347 21.3651
25290 1 45.1041 13.4521 22.9477
25291 1 46.6867 15.0347 24.5303
25292 1 45.1041 13.4521 26.1129
25293 1 46.6867 15.0347 27.6955
25294 1 45.1041 16.6173 0.7913
25295 1 46.6867 18.1999 2.3739
25296 1 45.1041 16.6173 3.9565
25297 1 46.6867 18.1999 5.5391
25298 1 45.1041 16.6173 7.1217
25299 1 46.6867 18.1999 8.7043
25300 1 45.1041 16.6173 10.2869
25301 1 46.6867 18.1999 11.8695
25302 1 45.1041 16.6173 13.4521
25303 1 46.6867 18.1999 15.0347
25304 1 45.1041 16.6173 16.6173
25305 1 46.6867 18.1999 18.1999
25306 1 45.1041 16.6173 19.7825
25307 1 46.6867 18.1999 21.3651
25308 1 45.1041 16.6173 22.9477
25309 1 46.6867 18.1999 24.5303
25310 1 45.1041 16.6173 26.1129
25311 1 46.6867 18.1999 27.6955
25312 1 45.1041 19.7825 0.7913
25313 1 46.6867 21.3651 2.3739
25314 1 45.1041 19.7825 3.9565
25315 1 46.6867 21.3651 5.5391
25316 1 45.1041 19.7825 7.1217
25317 1 46.6867 21.3651 8.7043
25318 1 45.1041 19.7825 10.2869
25319 1 46.6867 21.3651 11.8695
25320 1 45.1041 19.7825 13.4521
25321 1 46.6867 21.3651 15.0347
25322 1 45.1041 19.7825 16.6173
25323 1 46.6867 21.3651 18.1999
25324 1 45.1041 19.7825 19.7825
25325 1 46.6867 21.3651 21.3651
25326 1 45.1041 19.7825 22.9477
25327 1 46.6867 21.3651 24.5303
25328 1 45.1041 19.7825 26.1129
25329 1 46.6867 21.3651 27.6955
25330 1 45.1041 22.9477 0.7913
25331 1 46.6867 24.5303 2.3739
25332 1 45.1041 22.9477 3.9565
25333 1 46.6867 24.5303 5.5391
25334 1 45.1041 22.9477 7.1217
25335 1 46.6867 24.5303 8.7043
25336 1 45.1041 22.9477 10.2869
25337 1 46.6867 24.5303 11.8695
25338 1 45.1041 22.9477 13.4521
25339 1 46.6867 24.5303 15.0347
25340 1 45.1041 22.9477 16.6173
25341 1 46.6867 24.5303 18.1999
25342 1 45.1041 22.9477 19.7825
25343 1 46.6867 24.5303 21.3651
25344 1 45.1041 22.9477 22.9477
25345 1 46.6867 24.5303 24.5303
25346 1 45.1041 22.9477 26.1129
25347 1 46.6867 24.5303 27.6955
25348 1 45.1041 26.1129 0.7913
25349 1 46.6867 27.6955 2.3739
25350 1 45.1041 26.1129 3.9565
25351 1 46.6867 27.6955 5.5391
25352 1 45.1041 26.1129 7.1217
25353 1 46.6867 27.6955 8.7043
25354 1 45.1041 26.1129 10.2869
25355 1 46.6867 27.6955 11.8695
25356 1 45.1041 26.1129 13.4521
25357 1 46.6867 27.6955 15.0347
25358 1 45.1041 26.1129 16.6173
25359 1 46.6867 27.6955 18.1999
25360 1 45.1041 26.1129 19.7825
25361 1 46.6867 27.6955 21.3651
25362 1 45.1041 26.1129 22.9477
25363 1 46.6867 27.6955 24.5303
25364 1 45.1041 26.1129 26.1129
25365 1 46.6867 27.6955 27.6955
25366 1 45.1041 29.2781 0.7913
25367 1 46.6867 30.8607 2.3739
25368 1 45.1041 29.2781 3.9565
25369 1 46.6867 30.8607 5.5391
25370 1 45.1041 29.2781 7.1217
25371 1 46.6867 30.8607 8.7043
25372 1 45.1041 29.2781 10.2869
25373 1 46.6867 30.8607 11.8695
25374 1 45.1041 29.2781 13.4521
25375 1 46.6867 30.8607 15.0347
25376 1 45.1041 29.2781 16.6173
25377 1 46.6867 30.8607 18.1999
25378 1 45.1041 29.2781 19.7825
25379 1 46.6867 30.8607 21.3651
25380 1 45.1041 29.2781 22.9477
25381 1 46.6867 30.8607 24.5303
25382 1 45.1041 29.2781 26.1129
25383 1 46.6867 30.8607 27.6955
25384 1 45.1041 32.4433 0.7913
25385 1 46.6867 34.0259 2.3739
25386 1 45.1041 32.4433 3.9565
25387 1 46.6867 34.0259 5.5391
25388 1 45.1041 32.4433 7.1217
25389 1 46.6867 34.0259 8.7043
25390 1 45.1041 32.4433 10.2869
25391 1 46.6867 34.0259 11.8695
25392 1 45.1041 32.4433 13.4521
25393 1 46.6867 34.0259 15.0347
25394 1 45.1041 32.4433 16.6173
25395 1 46.6867 34.0259 18.1999
25396 1 45.1041 32.4433 19.7825
25397 1 46.6867 34.0259 21.3651
25398 1 45.1041 32.4433 22.9477
25399 1 46.6867 34.0259 24.5303
25400 1 45.1041 32.4433 26.1129
25401 1 46.6867 34.0259 27.6955
25402 1 45.1041 35.6085 0.7913
25403 1 46.6867 37.1911 2.3739
25404 1 45.1041 35.6085 3.9565
25405 1 46.6867 37.1911 5.5391
25406 1 45.1041 35.6085 7.1217
25407 1 46.6867 37.1911 8.7043
25408 1 45.1041 35.6085 10.2869
25409 1 46.6867 37.1911 11.8695
25410 1 45.1041 35.6085 13.4521
25411 1 46.6867 37.1911 15.0347
25412 1 45.1041 35.6085 16.6173
25413 1 46.6867 37.1911 18.1999
25414 1 45.1041 35.6085 19.7825
25415 1 46.6867 37.1911 21.3651
25416 1 45.1041 35.6085 22.9477
25417 1 46.6867 37.1911 24.5303
25418 1 45.1041 35.6085 26.1129
25419 1 46.6867 37.1911 27.6955
25420 1 45.1041 38.7737 0.7913
25421 1 46.6867 40.3563 2.3739
25422 1 45.1041 38.7737 3.9565
25423 1 46.6867 40.3563 5.5391
25424 1 45.1041 38.7737 7.1217
25425 1 46.6867 40.3563 8.7043
25426 1 45.1041 38.7737 10.2869
25427 1 46.6867 40.3563 11.8695
25428 1 45.1041 38.7737 13.4521
25429 1 46.6867 40.3563 15.0347
25430 1 45.1041 38.7737 16.6173
25431 1 46.6867 40.3563 18.1999
25432 1 45.1041 38.7737 19.7825
25433 1 46.6867 40.3563 21.3651
25434 1 45.1041 38.7737 22.9477
25435 1 46.6867 40.3563 24.5303
25436 1 45.1041 38.7737 26.1129
25437 1 46.6867 40.3563 27.6955
25438 1 45.1041 41.9389 0.7913
25439 1 46.6867 43.5215 2.3739
25440 1 45.1041 41.9389 3.9565
25441 1 46.6867 43.5215 5.5391
25442 1 45.1041 41.9389 7.1217
25443 1 46.6867 43.5215 8.7043
25444 1 45.1041 41.9389 10.2869
25445 1 46.6867 43.5215 11.8695
25446 1 45.1041 41.9389 13.4521
25447 1 46.6867 43.5215 15.0347
25448 1 45.1041 41.9389 16.6173
25449 1 46.6867 43.5215 18.1999
25450 1 45.1041 41.9389 19.7825
25451 1 46.6867 43.5215 21.3651
25452 1 45.1041 41.9389 22.9477
25453 1 46.6867 43.5215 24.5303
25454 1 45.1041 41.9389 26.1129
25455 1 46.6867 43.5215 27.6955
25456 1 45.1041 45.1041 0.7913
25457 1 46.6867 46.6867 2.3739
25458 1 45.1041 45.1041 3.9565
25459 1 46.6867 46.6867 5.5391
25460 1 45.1041 45.1041 7.1217
25461 1 46.6867 46.6867 8.7043
25462 1 45.1041 45.1041 10.2869
25463 1 46.6867 46.6867 11.8695
25464 1 45.1041 45.1041 13.4521
25465 1 46.6867 46.6867 15.0347
25466 1 45.1041 45.1041 16.6173
25467 1 46.6867 46.6867 18.1999
25468 1 45.1041 45.1041 19.7825
25469 1 46.6867 46.6867 21.3651
25470 1 45.1041 45.1041 22.9477
25471 1 46.6867 46.6867 24.5303
25472 1 45.1041 45.1041 26.1129
25473 1 46.6867 46.6867 27.6955
25474 1 45.1041 48.2693 0.7913
25475 1 46.6867 49.8519 2.3739
25476 1 45.1041 48.2693 3.9565
25477 1 46.6867 49.8519 5.5391
25478 1 45.1041 48.2693 7.1217
25479 1 46.6867 49.8519 8.7043
25480 1 45.1041 48.2693 10.2869
25481 1 46.6867 49.8519 11.8695
25482 1 45.1041 48.2693 13.4521
25483 1 46.6867 49.8519 15.0347
25484 1 45.1041 48.2693 16.6173
25485 1 46.6867 49.8519 18.1999
25486 1 45.1041 48.2693 19.7825
25487 1 46.6867 49.8519 21.3651
25488 1 45.1041 48.2693 22.9477
25489 1 46.6867 49.8519 24.5303
25490 1 45.1041 48.2693 26.1129
25491 1 46.6867 49.8519 27.6955
25492 1 45.1041 51.4345 0.7913
25493 1 46.6867 53.0171 2.3739
25494 1 45.1041 51.4345 3.9565
25495 1 46.6867 53.0171 5.5391
25496 1 45.1041 51.4345 7.1217
25497 1 46.6867 53.0171 8.7043
25498 1 45.1041 51.4345 10.2869
25499 1 46.6867 53.0171 11.8695
25500 1 45.1041 51.4345 13.4521
25501 1 46.6867 53.0171 15.0347
25502 1 45.1041 51.4345 16.6173
25503 1 46.6867 53.0171 18.1999
25504 1 45.1041 51.4345 19.7825
25505 1 46.6867 53.0171 21.3651
25506 1 45.1041 51.4345 22.9477
25507 1 46.6867 53.0171 24.5303
25508 1 45.1041 51.4345 26.1129
25509 1 46.6867 53.0171 27.6955
25510 1 45.1041 54.5997 0.7913
25511 1 46.6867 56.1823 2.3739
25512 1 45.1041 54.5997 3.9565
25513 1 46.6867 56.1823 5.5391
25514 1 45.1041 54.5997 7.1217
25515 1 46.6867 56.1823 8.7043
25516 1 45.1041 54.5997 10.2869
25517 1 46.6867 56.1823 11.8695
25518 1 45.1041 54.5997 13.4521
25519 1 46.6867 56.1823 15.0347
25520 1 45.1041 54.5997 16.6173
25521 1 46.6867 56.1823 18.1999
25522 1 45.1041 54.5997 19.7825
25523 1 46.6867 56.1823 21.3651
25524 1 45.1041 54.5997 22.9477
25525 1 46.6867 56.1823 24.5303
25526 1 45.1041 54.5997 26.1129
25527 1 46.6867 56.1823 27.6955
25528 1 45.1041 57.7649 0.7913
25529 1 46.6867 59.3475 2.3739
25530 1 45.1041 57.7649 3.9565
25531 1 46.6867 59.3475 5.5391
25532 1 45.1041 57.7649 7.1217
25533 1 46.6867 59.3475 8.7043
25534 1 45.1041 57.7649 10.2869
25535 1 46.6867 59.3475 11.8695
25536 1 45.1041 57.7649 13.4521
25537 1 46.6867 59.3475 15.0347
25538 1 45.1041 57.7649 16.6173
25539 1 46.6867 59.3475 18.1999
25540 1 45.1041 57.7649 19.7825
25541 1 46.6867 59.3475 21.3651
25542 1 45.1041 57.7649 22.9477
25543 1 46.6867 59.3475 24.5303
25544 1 45.1041 57.7649 26.1129
25545 1 46.6867 59.3475 27.6955
25546 1 45.1041 60.9301 0.7913
25547 1 46.6867 62.5127 2.3739
25548 1 45.1041 60.9301 3.9565
25549 1 46.6867 62.5127 5.5391
25550 1 45.1041 60.9301 7.1217
25551 1 46.6867 62.5127 8.7043
25552 1 45.1041 60.9301 10.2869
25553 1 46.6867 62.5127 11.8695
25554 1 45.1041 60.9301 13.4521
25555 1 46.6867 62.5127 15.0347
25556 1 45.1041 60.9301 16.6173
25557 1 46.6867 62.5127 18.1999
25558 1 45.1041 60.9301 19.7825
25559 1 46.6867 62.5127 21.3651
25560 1 45.1041 60.9301 22.9477
25561 1 46.6867 62.5127 24.5303
25562 1 45.1041 60.9301 26.1129
25563 1 46.6867 62.5127 27.6955
25564 1 45.1041 64.0953 0.7913
25565 1 46.6867 65.6779 2.3739
25566 1 45.1041 64.0953 3.9565
25567 1 46.6867 65.6779 5.5391
25568 1 45.1041 64.0953 7.1217
25569 1 46.6867 65.6779 8.7043
25570 1 45.1041 64.0953 10.2869
25571 1 46.6867 65.6779 11.8695
25572 1 45.1041 64.0953 13.4521
25573 1 46.6867 65.6779 15.0347
25574 1 45.1041 64.0953 16.6173
25575 1 46.6867 65.6779 18.1999
25576 1 45.1041 64.0953 19.7825
25577 1 46.6867 65.6779 21.3651
25578 1 45.1041 64.0953 22.9477
25579 1 46.6867 65.6779 24.5303
25580 1 45.1041 64.0953 26.1129
25581 1 46.6867 65.6779 27.6955
25582 1 45.1041 67.2605 0.7913
25583 1 46.6867 68.8431 2.3739
25584 1 45.1041 67.2605 3.9565
25585 1 46.6867 68.8431 5.5391
25586 1 45.1041 67.2605 7.1217
25587 1 46.6867 68.8431 8.7043
25588 1 45.1041 67.2605 10.2869
25589 1 46.6867 68.8431 11.8695
25590 1 45.1041 67.2605 13.4521
25591 1 46.6867 68.8431 15.0347
25592 1 45.1041 67.2605 16.6173
25593 1 46.6867 68.8431 18.1999
25594 1 45.1041 67.2605 19.7825
25595 1 46.6867 68.8431 21.3651
25596 1 45.1041 67.2605 22.9477
25597 1 46.6867 68.8431 24.5303
25598 1 45.1041 67.2605 26.1129
25599 1 46.6867 68.8431 27.6955
25600 1 45.1041 70.4257 0.7913
25601 1 46.6867 72.0083 2.3739
25602 1 45.1041 70.4257 3.9565
25603 1 46.6867 72.0083 5.5391
25604 1 45.1041 70.4257 7.1217
25605 1 46.6867 72.0083 8.7043
25606 1 45.1041 70.4257 10.2869
25607 1 46.6867 72.0083 11.8695
25608 1 45.1041 70.4257 13.4521
25609 1 46.6867 72.0083 15.0347
25610 1 45.1041 70.4257 16.6173
25611 1 46.6867 72.0083 18.1999
25612 1 45.1041 70.4257 19.7825
25613 1 46.6867 72.0083 21.3651
25614 1 45.1041 70.4257 22.9477
25615 1 46.6867 72.0083 24.5303
25616 1 45.1041 70.4257 26.1129
25617 1 46.6867 72.0083 27.6955
25618 1 45.1041 73.5909 0.7913
25619 1 46.6867 75.1735 2.3739
25620 1 45.1041 73.5909 3.9565
25621 1 46.6867 75.1735 5.5391
25622 1 45.1041 73.5909 7.1217
25623 1 46.6867 75.1735 8.7043
25624 1 45.1041 73.5909 10.2869
25625 1 46.6867 75.1735 11.8695
25626 1 45.1041 73.5909 13.4521
25627 1 46.6867 75.1735 15.0347
25628 1 45.1041 73.5909 16.6173
25629 1 46.6867 75.1735 18.1999
25630 1 45.1041 73.5909 19.7825
25631 1 46.6867 75.1735 21.3651
25632 1 45.1041 73.5909 22.9477
25633 1 46.6867 75.1735 24.5303
25634 1 45.1041 73.5909 26.1129
25635 1 46.6867 75.1735 27.6955
25636 1 45.1041 76.7561 0.7913
25637 1 46.6867 78.3387 2.3739
25638 1 45.1041 76.7561 3.9565
25639 1 46.6867 78.3387 5.5391
25640 1 45.1041 76.7561 7.1217
25641 1 46.6867 78.3387 8.7043
25642 1 45.1041 76.7561 10.2869
25643 1 46.6867 78.3387 11.8695
25644 1 45.1041 76.7561 13.4521
25645 1 46.6867 78.3387 15.0347
25646 1 45.1041 76.7561 16.6173
25647 1 46.6867 78.3387 18.1999
25648 1 45.1041 76.7561 19.7825
25649 1 46.6867 78.3387 21.3651
25650 1 45.1041 76.7561 22.9477
25651 1 46.6867 78.3387 24.5303
25652 1 45.1041 76.7561 26.1129
25653 1 46.6867 78.3387 27.6955
25654 1 48.2693 0.7913 0.7913
25655 1 49.8519 2.3739 2.3739
25656 1 48.2693 0.7913 3.9565
25657 1 49.8519 2.3739 5.5391
25658 1 48.2693 0.7913 7.1217
25659 1 49.8519 2.3739 8.7043
25660 1 48.2693 0.7913 10.2869
25661 1 49.8519 2.3739 11.8695
25662 1 48.2693 0.7913 13.4521
25663 1 49.8519 2.3739 15.0347
25664 1 48.2693 0.7913 16.6173
25665 1 49.8519 2.3739 18.1999
25666 1 48.2693 0.7913 19.7825
25667 1 49.8519 2.3739 21.3651
25668 1 48.2693 0.7913 22.9477
25669 1 49.8519 2.3739 24.5303
25670 1 48.2693 0.7913 26.1129
25671 1 49.8519 2.3739 27.6955
25672 1 48.2693 3.9565 0.7913
25673 1 49.8519 5.5391 2.3739
25674 1 48.2693 3.9565 3.9565
25675 1 49.8519 5.5391 5.5391
25676 1 48.2693 3.9565 7.1217
25677 1 49.8519 5.5391 8.7043
25678 1 48.2693 3.9565 10.2869
25679 1 49.8519 5.5391 11.8695
25680 1 48.2693 3.9565 13.4521
25681 1 49.8519 5.5391 15.0347
25682 1 48.2693 3.9565 16.6173
25683 1 49.8519 5.5391 18.1999
25684 1 48.2693 3.9565 19.7825
25685 1 49.8519 5.5391 21.3651
25686 1 48.2693 3.9565 22.9477
25687 1 49.8519 5.5391 24.5303
25688 1 48.2693 3.9565 26.1129
25689 1 49.8519 5.5391 27.6955
25690 1 48.2693 7.1217 0.7913
25691 1 49.8519 8.7043 2.3739
25692 1 48.2693 7.1217 3.9565
25693 1 49.8519 8.7043 5.5391
25694 1 48.2693 7.1217 7.1217
25695 1 49.8519 8.7043 8.7043
25696 1 48.2693 7.1217 10.2869
25697 1 49.8519 8.7043 11.8695
25698 1 48.2693 7.1217 13.4521
25699 1 49.8519 8.7043 15.0347
25700 1 48.2693 7.1217 16.6173
25701 1 49.8519 8.7043 18.1999
25702 1 48.2693 7.1217 19.7825
25703 1 49.8519 8.7043 21.3651
25704 1 48.2693 7.1217 22.9477
25705 1 49.8519 8.7043 24.5303
25706 1 48.2693 7.1217 26.1129
25707 1 49.8519 8.7043 27.6955
25708 1 48.2693 10.2869 0.7913
25709 1 49.8519 11.8695 2.3739
25710 1 48.2693 10.2869 3.9565
25711 1 49.8519 11.8695 5.5391
25712 1 48.2693 10.2869 7.1217
25713 1 49.8519 11.8695 8.7043
25714 1 48.2693 10.2869 10.2869
25715 1 49.8519 11.8695 11.8695
25716 1 48.2693 10.2869 13.4521
25717 1 49.8519 11.8695 15.0347
25718 1 48.2693 10.2869 16.6173
25719 1 49.8519 11.8695 18.1999
25720 1 48.2693 10.2869 19.7825
25721 1 49.8519 11.8695 21.3651
25722 1 48.2693 10.2869 22.9477
25723 1 49.8519 11.8695 24.5303
25724 1 48.2693 10.2869 26.1129
25725 1 49.8519 11.8695 27.6955
25726 1 48.2693 13.4521 0.7913
25727 1 49.8519 15.0347 2.3739
25728 1 48.2693 13.4521 3.9565
25729 1 49.8519 15.0347 5.5391
25730 1 48.2693 13.4521 7.1217
25731 1 49.8519 15.0347 8.7043
25732 1 48.2693 13.4521 10.2869
25733 1 49.8519 15.0347 11.8695
25734 1 48.2693 13.4521 13.4521
25735 1 49.8519 15.0347 15.0347
25736 1 48.2693 13.4521 16.6173
25737 1 49.8519 15.0347 18.1999
25738 1 48.2693 13.4521 19.7825
25739 1 49.8519 15.0347 21.3651
25740 1 48.2693 13.4521 22.9477
25741 1 49.8519 15.0347 24.5303
25742 1 48.2693 13.4521 26.1129
25743 1 49.8519 15.0347 27.6955
25744 1 48.2693 16.6173 0.7913
25745 1 49.8519 18.1999 2.3739
25746 1 48.2693 16.6173 3.9565
25747 1 49.8519 18.1999 5.5391
25748 1 48.2693 16.6173 7.1217
25749 1 49.8519 18.1999 8.7043
25750 1 48.2693 16.6173 10.2869
25751 1 49.8519 18.1999 11.8695
25752 1 48.2693 16.6173 13.4521
25753 1 49.8519 18.1999 15.0347
25754 1 48.2693 16.6173 16.6173
25755 1 49.8519 18.1999 18.1999
25756 1 48.2693 16.6173 19.7825
25757 1 49.8519 18.1999 21.3651
25758 1 48.2693 16.6173 22.9477
25759 1 49.8519 18.1999 24.5303
25760 1 48.2693 16.6173 26.1129
25761 1 49.8519 18.1999 27.6955
25762 1 48.2693 19.7825 0.7913
25763 1 49.8519 21.3651 2.3739
25764 1 48.2693 19.7825 3.9565
25765 1 49.8519 21.3651 5.5391
25766 1 48.2693 19.7825 7.1217
25767 1 49.8519 21.3651 8.7043
25768 1 48.2693 19.7825 10.2869
25769 1 49.8519 21.3651 11.8695
25770 1 48.2693 19.7825 13.4521
25771 1 49.8519 21.3651 15.0347
25772 1 48.2693 19.7825 16.6173
25773 1 49.8519 21.3651 18.1999
25774 1 48.2693 19.7825 19.7825
25775 1 49.8519 21.3651 21.3651
25776 1 48.2693 19.7825 22.9477
25777 1 49.8519 21.3651 24.5303
25778 1 48.2693 19.7825 26.1129
25779 1 49.8519 21.3651 27.6955
25780 1 48.2693 22.9477 0.7913
25781 1 49.8519 24.5303 2.3739
25782 1 48.2693 22.9477 3.9565
25783 1 49.8519 24.5303 5.5391
25784 1 48.2693 22.9477 7.1217
25785 1 49.8519 24.5303 8.7043
25786 1 48.2693 22.9477 10.2869
25787 1 49.8519 24.5303 11.8695
25788 1 48.2693 22.9477 13.4521
25789 1 49.8519 24.5303 15.0347
25790 1 48.2693 22.9477 16.6173
25791 1 49.8519 24.5303 18.1999
25792 1 48.2693 22.9477 19.7825
25793 1 49.8519 24.5303 21.3651
25794 1 48.2693 22.9477 22.9477
25795 1 49.8519 24.5303 24.5303
25796 1 48.2693 22.9477 26.1129
25797 1 49.8519 24.5303 27.6955
25798 1 48.2693 26.1129 0.7913
25799 1 49.8519 27.6955 2.3739
25800 1 48.2693 26.1129 3.9565
25801 1 49.8519 27.6955 5.5391
25802 1 48.2693 26.1129 7.1217
25803 1 49.8519 27.6955 8.7043
25804 1 48.2693 26.1129 10.2869
25805 1 49.8519 27.6955 11.8695
25806 1 48.2693 26.1129 13.4521
25807 1 49.8519 27.6955 15.0347
25808 1 48.2693 26.1129 16.6173
25809 1 49.8519 27.6955 18.1999
25810 1 48.2693 26.1129 19.7825
25811 1 49.8519 27.6955 21.3651
25812 1 48.2693 26.1129 22.9477
25813 1 49.8519 27.6955 24.5303
25814 1 48.2693 26.1129 26.1129
25815 1 49.8519 27.6955 27.6955
25816 1 48.2693 29.2781 0.7913
25817 1 49.8519 30.8607 2.3739
25818 1 48.2693 29.2781 3.9565
25819 1 49.8519 30.8607 5.5391
25820 1 48.2693 29.2781 7.1217
25821 1 49.8519 30.8607 8.7043
25822 1 48.2693 29.2781 10.2869
25823 1 49.8519 30.8607 11.8695
25824 1 48.2693 29.2781 13.4521
25825 1 49.8519 30.8607 15.0347
25826 1 48.2693 29.2781 16.6173
25827 1 49.8519 30.8607 18.1999
25828 1 48.2693 29.2781 19.7825
25829 1 49.8519 30.8607 21.3651
25830 1 48.2693 29.2781 22.9477
25831 1 49.8519 30.8607 24.5303
25832 1 48.2693 29.2781 26.1129
25833 1 49.8519 30.8607 27.6955
25834 1 48.2693 32.4433 0.7913
25835 1 49.8519 34.0259 2.3739
25836 1 48.2693 32.4433 3.9565
25837 1 49.8519 34.0259 5.5391
25838 1 48.2693 32.4433 7.1217
25839 1 49.8519 34.0259 8.7043
25840 1 48.2693 32.4433 10.2869
25841 1 49.8519 34.0259 11.8695
25842 1 48.2693 32.4433 13.4521
25843 1 49.8519 34.0259 15.0347
25844 1 48.2693 32.4433 16.6173
25845 1 49.8519 34.0259 18.1999
25846 1 48.2693 32.4433 19.7825
25847 1 49.8519 34.0259 21.3651
25848 1 48.2693 32.4433 22.9477
25849 1 49.8519 34.0259 24.5303
25850 1 48.2693 32.4433 26.1129
25851 1 49.8519 34.0259 27.6955
25852 1 48.2693 35.6085 0.7913
25853 1 49.8519 37.1911 2.3739
25854 1 48.2693 35.6085 3.9565
25855 1 49.8519 37.1911 5.5391
25856 1 48.2693 35.6085 7.1217
25857 1 49.8519 37.1911 8.7043
25858 1 48.2693 35.6085 10.2869
25859 1 49.8519 37.1911 11.8695
25860 1 48.2693 35.6085 13.4521
25861 1 49.8519 37.1911 15.0347
25862 1 48.2693 35.6085 16.6173
25863 1 49.8519 37.1911 18.1999
25864 1 48.2693 35.6085 19.7825
25865 1 49.8519 37.1911 21.3651
25866 1 48.2693 35.6085 22.9477
25867 1 49.8519 37.1911 24.5303
25868 1 48.2693 35.6085 26.1129
25869 1 49.8519 37.1911 27.6955
25870 1 48.2693 38.7737 0.7913
25871 1 49.8519 40.3563 2.3739
25872 1 48.2693 38.7737 3.9565
25873 1 49.8519 40.3563 5.5391
25874 1 48.2693 38.7737 7.1217
25875 1 49.8519 40.3563 8.7043
25876 1 48.2693 38.7737 10.2869
25877 1 49.8519 40.3563 11.8695
25878 1 48.2693 38.7737 13.4521
25879 1 49.8519 40.3563 15.0347
25880 1 48.2693 38.7737 16.6173
25881 1 49.8519 40.3563 18.1999
25882 1 48.2693 38.7737 19.7825
25883 1 49.8519 40.3563 21.3651
25884 1 48.2693 38.7737 22.9477
25885 1 49.8519 40.3563 24.5303
25886 1 48.2693 38.7737 26.1129
25887 1 49.8519 40.3563 27.6955
25888 1 48.2693 41.9389 0.7913
25889 1 49.8519 43.5215 2.3739
25890 1 48.2693 41.9389 3.9565
25891 1 49.8519 43.5215 5.5391
25892 1 48.2693 41.9389 7.1217
25893 1 49.8519 43.5215 8.7043
25894 1 48.2693 41.9389 10.2869
25895 1 49.8519 43.5215 11.8695
25896 1 48.2693 41.9389 13.4521
25897 1 49.8519 43.5215 15.0347
25898 1 48.2693 41.9389 16.6173
25899 1 49.8519 43.5215 18.1999
25900 1 48.2693 41.9389 19.7825
25901 1 49.8519 43.5215 21.3651
25902 1 48.2693 41.9389 22.9477
25903 1 49.8519 43.5215 24.5303
25904 1 48.2693 41.9389 26.1129
25905 1 49.8519 43.5215 27.6955
25906 1 48.2693 45.1041 0.7913
25907 1 49.8519 46.6867 2.3739
25908 1 48.2693 45.1041 3.9565
25909 1 49.8519 46.6867 5.5391
25910 1 48.2693 45.1041 7.1217
25911 1 49.8519 46.6867 8.7043
25912 1 48.2693 45.1041 10.2869
25913 1 49.8519 46.6867 11.8695
25914 1 48.2693 45.1041 13.4521
25915 1 49.8519 46.6867 15.0347
25916 1 48.2693 45.1041 16.6173
25917 1 49.8519 46.6867 18.1999
25918 1 48.2693 45.1041 19.7825
25919 1 49.8519 46.6867 21.3651
25920 1 48.2693 45.1041 22.9477
25921 1 49.8519 46.6867 24.5303
25922 1 48.2693 45.1041 26.1129
25923 1 49.8519 46.6867 27.6955
25924 1 48.2693 48.2693 0.7913
25925 1 49.8519 49.8519 2.3739
25926 1 48.2693 48.2693 3.9565
25927 1 49.8519 49.8519 5.5391
25928 1 48.2693 48.2693 7.1217
25929 1 49.8519 49.8519 8.7043
25930 1 48.2693 48.2693 10.2869
25931 1 49.8519 49.8519 11.8695
25932 1 48.2693 48.2693 13.4521
25933 1 49.8519 49.8519 15.0347
25934 1 48.2693 48.2693 16.6173
25935 1 49.8519 49.8519 18.1999
25936 1 48.2693 48.2693 19.7825
25937 1 49.8519 49.8519 21.3651
25938 1 48.2693 48.2693 22.9477
25939 1 49.8519 49.8519 24.5303
25940 1 48.2693 48.2693 26.1129
25941 1 49.8519 49.8519 27.6955
25942 1 48.2693 51.4345 0.7913
25943 1 49.8519 53.0171 2.3739
25944 1 48.2693 51.4345 3.9565
25945 1 49.8519 53.0171 5.5391
25946 1 48.2693 51.4345 7.1217
25947 1 49.8519 53.0171 8.7043
25948 1 48.2693 51.4345 10.2869
25949 1 49.8519 53.0171 11.8695
25950 1 48.2693 51.4345 13.4521
25951 1 49.8519 53.0171 15.0347
25952 1 48.2693 51.4345 16.6173
25953 1 49.8519 53.0171 18.1999
25954 1 48.2693 51.4345 19.7825
25955 1 49.8519 53.0171 21.3651
25956 1 48.2693 51.4345 22.9477
25957 1 49.8519 53.0171 24.5303
25958 1 48.2693 51.4345 26.1129
25959 1 49.8519 53.0171 27.6955
25960 1 48.2693 54.5997 0.7913
25961 1 49.8519 56.1823 2.3739
25962 1 48.2693 54.5997 3.9565
25963 1 49.8519 56.1823 5.5391
25964 1 48.2693 54.5997 7.1217
25965 1 49.8519 56.1823 8.7043
25966 1 48.2693 54.5997 10.2869
25967 1 49.8519 56.1823 11.8695
25968 1 48.2693 54.5997 13.4521
25969 1 49.8519 56.1823 15.0347
25970 1 48.2693 54.5997 16.6173
25971 1 49.8519 56.1823 18.1999
25972 1 48.2693 54.5997 19.7825
25973 1 49.8519 56.1823 21.3651
25974 1 48.2693 54.5997 22.9477
25975 1 49.8519 56.1823 24.5303
25976 1 48.2693 54.5997 26.1129
25977 1 49.8519 56.1823 27.6955
25978 1 48.2693 57.7649 0.7913
25979 1 49.8519 59.3475 2.3739
25980 1 48.2693 57.7649 3.9565
25981 1 49.8519 59.3475 5.5391
25982 1 48.2693 57.7649 7.1217
25983 1 49.8519 59.3475 8.7043
25984 1 48.2693 57.7649 10.2869
25985 1 49.8519 59.3475 11.8695
25986 1 48.2693 57.7649 13.4521
25987 1 49.8519 59.3475 15.0347
25988 1 48.2693 57.7649 16.6173
25989 1 49.8519 59.3475 18.1999
25990 1 48.2693 57.7649 19.7825
25991 1 49.8519 59.3475 21.3651
25992 1 48.2693 57.7649 22.9477
25993 1 49.8519 59.3475 24.5303
25994 1 48.2693 57.7649 26.1129
25995 1 49.8519 59.3475 27.6955
25996 1 48.2693 60.9301 0.7913
25997 1 49.8519 62.5127 2.3739
25998 1 48.2693 60.9301 3.9565
25999 1 49.8519 62.5127 5.5391
26000 1 48.2693 60.9301 7.1217
26001 1 49.8519 62.5127 8.7043
26002 1 48.2693 60.9301 10.2869
26003 1 49.8519 62.5127 11.8695
26004 1 48.2693 60.9301 13.4521
26005 1 49.8519 62.5127 15.0347
26006 1 48.2693 60.9301 16.6173
26007 1 49.8519 62.5127 18.1999
26008 1 48.2693 60.9301 19.7825
26009 1 49.8519 62.5127 21.3651
26010 1 48.2693 60.9301 22.9477
26011 1 49.8519 62.5127 24.5303
26012 1 48.2693 60.9301 26.1129
26013 1 49.8519 62.5127 27.6955
26014 1 48.2693 64.0953 0.7913
26015 1 49.8519 65.6779 2.3739
26016 1 48.2693 64.0953 3.9565
26017 1 49.8519 65.6779 5.5391
26018 1 48.2693 64.0953 7.1217
26019 1 49.8519 65.6779 8.7043
26020 1 48.2693 64.0953 10.2869
26021 1 49.8519 65.6779 11.8695
26022 1 48.2693 64.0953 13.4521
26023 1 49.8519 65.6779 15.0347
26024 1 48.2693 64.0953 16.6173
26025 1 49.8519 65.6779 18.1999
26026 1 48.2693 64.0953 19.7825
26027 1 49.8519 65.6779 21.3651
26028 1 48.2693 64.0953 22.9477
26029 1 49.8519 65.6779 24.5303
26030 1 48.2693 64.0953 26.1129
26031 1 49.8519 65.6779 27.6955
26032 1 48.2693 67.2605 0.7913
26033 1 49.8519 68.8431 2.3739
26034 1 48.2693 67.2605 3.9565
26035 1 49.8519 68.8431 5.5391
26036 1 48.2693 67.2605 7.1217
26037 1 49.8519 68.8431 8.7043
26038 1 48.2693 67.2605 10.2869
26039 1 49.8519 68.8431 11.8695
26040 1 48.2693 67.2605 13.4521
26041 1 49.8519 68.8431 15.0347
26042 1 48.2693 67.2605 16.6173
26043 1 49.8519 68.8431 18.1999
26044 1 48.2693 67.2605 19.7825
26045 1 49.8519 68.8431 21.3651
26046 1 48.2693 67.2605 22.9477
26047 1 49.8519 68.8431 24.5303
26048 1 48.2693 67.2605 26.1129
26049 1 49.8519 68.8431 27.6955
26050 1 48.2693 70.4257 0.7913
26051 1 49.8519 72.0083 2.3739
26052 1 48.2693 70.4257 3.9565
26053 1 49.8519 72.0083 5.5391
26054 1 48.2693 70.4257 7.1217
26055 1 49.8519 72.0083 8.7043
26056 1 48.2693 70.4257 10.2869
26057 1 49.8519 72.0083 11.8695
26058 1 48.2693 70.4257 13.4521
26059 1 49.8519 72.0083 15.0347
26060 1 48.2693 70.4257 16.6173
26061 1 49.8519 72.0083 18.1999
26062 1 48.2693 70.4257 19.7825
26063 1 49.8519 72.0083 21.3651
26064 1 48.2693 70.4257 22.9477
26065 1 49.8519 72.0083 24.5303
26066 1 48.2693 70.4257 26.1129
26067 1 49.8519 72.0083 27.6955
26068 1 48.2693 73.5909 0.7913
26069 1 49.8519 75.1735 2.3739
26070 1 48.2693 73.5909 3.9565
26071 1 49.8519 75.1735 5.5391
26072 1 48.2693 73.5909 7.1217
26073 1 49.8519 75.1735 8.7043
26074 1 48.2693 73.5909 10.2869
26075 1 49.8519 75.1735 11.8695
26076 1 48.2693 73.5909 13.4521
26077 1 49.8519 75.1735 15.0347
26078 1 48.2693 73.5909 16.6173
26079 1 49.8519 75.1735 18.1999
26080 1 48.2693 73.5909 19.7825
26081 1 49.8519 75.1735 21.3651
26082 1 48.2693 73.5909 22.9477
26083 1 49.8519 75.1735 24.5303
26084 1 48.2693 73.5909 26.1129
26085 1 49.8519 75.1735 27.6955
26086 1 48.2693 76.7561 0.7913
26087 1 49.8519 78.3387 2.3739
26088 1 48.2693 76.7561 3.9565
26089 1 49.8519 78.3387 5.5391
26090 1 48.2693 76.7561 7.1217
26091 1 49.8519 78.3387 8.7043
26092 1 48.2693 76.7561 10.2869
26093 1 49.8519 78.3387 11.8695
26094 1 48.2693 76.7561 13.4521
26095 1 49.8519 78.3387 15.0347
26096 1 48.2693 76.7561 16.6173
26097 1 49.8519 78.3387 18.1999
26098 1 48.2693 76.7561 19.7825
26099 1 49.8519 78.3387 21.3651
26100 1 48.2693 76.7561 22.9477
26101 1 49.8519 78.3387 24.5303
26102 1 48.2693 76.7561 26.1129
26103 1 49.8519 78.3387 27.6955
26104 1 26.1129 0.7913 51.4345
26105 1 27.6955 2.3739 53.0171
26106 1 26.1129 0.7913 54.5997
26107 1 27.6955 2.3739 56.1823
26108 1 26.1129 0.7913 57.7649
26109 1 27.6955 2.3739 59.3475
26110 1 26.1129 0.7913 60.9301
26111 1 27.6955 2.3739 62.5127
26112 1 26.1129 0.7913 64.0953
26113 1 27.6955 2.3739 65.6779
26114 1 26.1129 0.7913 67.2605
26115 1 27.6955 2.3739 68.8431
26116 1 26.1129 0.7913 70.4257
26117 1 27.6955 2.3739 72.0083
26118 1 26.1129 0.7913 73.5909
26119 1 27.6955 2.3739 75.1735
26120 1 26.1129 0.7913 76.7561
26121 1 27.6955 2.3739 78.3387
26122 1 26.1129 3.9565 51.4345
26123 1 27.6955 5.5391 53.0171
26124 1 26.1129 3.9565 54.5997
26125 1 27.6955 5.5391 56.1823
26126 1 26.1129 3.9565 57.7649
26127 1 27.6955 5.5391 59.3475
26128 1 26.1129 3.9565 60.9301
26129 1 27.6955 5.5391 62.5127
26130 1 26.1129 3.9565 64.0953
26131 1 27.6955 5.5391 65.6779
26132 1 26.1129 3.9565 67.2605
26133 1 27.6955 5.5391 68.8431
26134 1 26.1129 3.9565 70.4257
26135 1 27.6955 5.5391 72.0083
26136 1 26.1129 3.9565 73.5909
26137 1 27.6955 5.5391 75.1735
26138 1 26.1129 3.9565 76.7561
26139 1 27.6955 5.5391 78.3387
26140 1 26.1129 7.1217 51.4345
26141 1 27.6955 8.7043 53.0171
26142 1 26.1129 7.1217 54.5997
26143 1 27.6955 8.7043 56.1823
26144 1 26.1129 7.1217 57.7649
26145 1 27.6955 8.7043 59.3475
26146 1 26.1129 7.1217 60.9301
26147 1 27.6955 8.7043 62.5127
26148 1 26.1129 7.1217 64.0953
26149 1 27.6955 8.7043 65.6779
26150 1 26.1129 7.1217 67.2605
26151 1 27.6955 8.7043 68.8431
26152 1 26.1129 7.1217 70.4257
26153 1 27.6955 8.7043 72.0083
26154 1 26.1129 7.1217 73.5909
26155 1 27.6955 8.7043 75.1735
26156 1 26.1129 7.1217 76.7561
26157 1 27.6955 8.7043 78.3387
26158 1 26.1129 10.2869 51.4345
26159 1 27.6955 11.8695 53.0171
26160 1 26.1129 10.2869 54.5997
26161 1 27.6955 11.8695 56.1823
26162 1 26.1129 10.2869 57.7649
26163 1 27.6955 11.8695 59.3475
26164 1 26.1129 10.2869 60.9301
26165 1 27.6955 11.8695 62.5127
26166 1 26.1129 10.2869 64.0953
26167 1 27.6955 11.8695 65.6779
26168 1 26.1129 10.2869 67.2605
26169 1 27.6955 11.8695 68.8431
26170 1 26.1129 10.2869 70.4257
26171 1 27.6955 11.8695 72.0083
26172 1 26.1129 10.2869 73.5909
26173 1 27.6955 11.8695 75.1735
26174 1 26.1129 10.2869 76.7561
26175 1 27.6955 11.8695 78.3387
26176 1 26.1129 13.4521 51.4345
26177 1 27.6955 15.0347 53.0171
26178 1 26.1129 13.4521 54.5997
26179 1 27.6955 15.0347 56.1823
26180 1 26.1129 13.4521 57.7649
26181 1 27.6955 15.0347 59.3475
26182 1 26.1129 13.4521 60.9301
26183 1 27.6955 15.0347 62.5127
26184 1 26.1129 13.4521 64.0953
26185 1 27.6955 15.0347 65.6779
26186 1 26.1129 13.4521 67.2605
26187 1 27.6955 15.0347 68.8431
26188 1 26.1129 13.4521 70.4257
26189 1 27.6955 15.0347 72.0083
26190 1 26.1129 13.4521 73.5909
26191 1 27.6955 15.0347 75.1735
26192 1 26.1129 13.4521 76.7561
26193 1 27.6955 15.0347 78.3387
26194 1 26.1129 16.6173 51.4345
26195 1 27.6955 18.1999 53.0171
26196 1 26.1129 16.6173 54.5997
26197 1 27.6955 18.1999 56.1823
26198 1 26.1129 16.6173 57.7649
26199 1 27.6955 18.1999 59.3475
26200 1 26.1129 16.6173 60.9301
26201 1 27.6955 18.1999 62.5127
26202 1 26.1129 16.6173 64.0953
26203 1 27.6955 18.1999 65.6779
26204 1 26.1129 16.6173 67.2605
26205 1 27.6955 18.1999 68.8431
26206 1 26.1129 16.6173 70.4257
26207 1 27.6955 18.1999 72.0083
26208 1 26.1129 16.6173 73.5909
26209 1 27.6955 18.1999 75.1735
26210 1 26.1129 16.6173 76.7561
26211 1 27.6955 18.1999 78.3387
26212 1 26.1129 19.7825 51.4345
26213 1 27.6955 21.3651 53.0171
26214 1 26.1129 19.7825 54.5997
26215 1 27.6955 21.3651 56.1823
26216 1 26.1129 19.7825 57.7649
26217 1 27.6955 21.3651 59.3475
26218 1 26.1129 19.7825 60.9301
26219 1 27.6955 21.3651 62.5127
26220 1 26.1129 19.7825 64.0953
26221 1 27.6955 21.3651 65.6779
26222 1 26.1129 19.7825 67.2605
26223 1 27.6955 21.3651 68.8431
26224 1 26.1129 19.7825 70.4257
26225 1 27.6955 21.3651 72.0083
26226 1 26.1129 19.7825 73.5909
26227 1 27.6955 21.3651 75.1735
26228 1 26.1129 19.7825 76.7561
26229 1 27.6955 21.3651 78.3387
26230 1 26.1129 22.9477 51.4345
26231 1 27.6955 24.5303 53.0171
26232 1 26.1129 22.9477 54.5997
26233 1 27.6955 24.5303 56.1823
26234 1 26.1129 22.9477 57.7649
26235 1 27.6955 24.5303 59.3475
26236 1 26.1129 22.9477 60.9301
26237 1 27.6955 24.5303 62.5127
26238 1 26.1129 22.9477 64.0953
26239 1 27.6955 24.5303 65.6779
26240 1 26.1129 22.9477 67.2605
26241 1 27.6955 24.5303 68.8431
26242 1 26.1129 22.9477 70.4257
26243 1 27.6955 24.5303 72.0083
26244 1 26.1129 22.9477 73.5909
26245 1 27.6955 24.5303 75.1735
26246 1 26.1129 22.9477 76.7561
26247 1 27.6955 24.5303 78.3387
26248 1 26.1129 26.1129 51.4345
26249 1 27.6955 27.6955 53.0171
26250 1 26.1129 26.1129 54.5997
26251 1 27.6955 27.6955 56.1823
26252 1 26.1129 26.1129 57.7649
26253 1 27.6955 27.6955 59.3475
26254 1 26.1129 26.1129 60.9301
26255 1 27.6955 27.6955 62.5127
26256 1 26.1129 26.1129 64.0953
26257 1 27.6955 27.6955 65.6779
26258 1 26.1129 26.1129 67.2605
26259 1 27.6955 27.6955 68.8431
26260 1 26.1129 26.1129 70.4257
26261 1 27.6955 27.6955 72.0083
26262 1 26.1129 26.1129 73.5909
26263 1 27.6955 27.6955 75.1735
26264 1 26.1129 26.1129 76.7561
26265 1 27.6955 27.6955 78.3387
26266 1 26.1129 29.2781 51.4345
26267 1 27.6955 30.8607 53.0171
26268 1 26.1129 29.2781 54.5997
26269 1 27.6955 30.8607 56.1823
26270 1 26.1129 29.2781 57.7649
26271 1 27.6955 30.8607 59.3475
26272 1 26.1129 29.2781 60.9301
26273 1 27.6955 30.8607 62.5127
26274 1 26.1129 29.2781 64.0953
26275 1 27.6955 30.8607 65.6779
26276 1 26.1129 29.2781 67.2605
26277 1 27.6955 30.8607 68.8431
26278 1 26.1129 29.2781 70.4257
26279 1 27.6955 30.8607 72.0083
26280 1 26.1129 29.2781 73.5909
26281 1 27.6955 30.8607 75.1735
26282 1 26.1129 29.2781 76.7561
26283 1 27.6955 30.8607 78.3387
26284 1 26.1129 32.4433 51.4345
26285 1 27.6955 34.0259 53.0171
26286 1 26.1129 32.4433 54.5997
26287 1 27.6955 34.0259 56.1823
26288 1 26.1129 32.4433 57.7649
26289 1 27.6955 34.0259 59.3475
26290 1 26.1129 32.4433 60.9301
26291 1 27.6955 34.0259 62.5127
26292 1 26.1129 32.4433 64.0953
26293 1 27.6955 34.0259 65.6779
26294 1 26.1129 32.4433 67.2605
26295 1 27.6955 34.0259 68.8431
26296 1 26.1129 32.4433 70.4257
26297 1 27.6955 34.0259 72.0083
26298 1 26.1129 32.4433 73.5909
26299 1 27.6955 34.0259 75.1735
26300 1 26.1129 32.4433 76.7561
26301 1 27.6955 34.0259 78.3387
26302 1 26.1129 35.6085 51.4345
26303 1 27.6955 37.1911 53.0171
26304 1 26.1129 35.6085 54.5997
26305 1 27.6955 37.1911 56.1823
26306 1 26.1129 35.6085 57.7649
26307 1 27.6955 37.1911 59.3475
26308 1 26.1129 35.6085 60.9301
26309 1 27.6955 37.1911 62.5127
26310 1 26.1129 35.6085 64.0953
26311 1 27.6955 37.1911 65.6779
26312 1 26.1129 35.6085 67.2605
26313 1 27.6955 37.1911 68.8431
26314 1 26.1129 35.6085 70.4257
26315 1 27.6955 37.1911 72.0083
26316 1 26.1129 35.6085 73.5909
26317 1 27.6955 37.1911 75.1735
26318 1 26.1129 35.6085 76.7561
26319 1 27.6955 37.1911 78.3387
26320 1 26.1129 38.7737 51.4345
26321 1 27.6955 40.3563 53.0171
26322 1 26.1129 38.7737 54.5997
26323 1 27.6955 40.3563 56.1823
26324 1 26.1129 38.7737 57.7649
26325 1 27.6955 40.3563 59.3475
26326 1 26.1129 38.7737 60.9301
26327 1 27.6955 40.3563 62.5127
26328 1 26.1129 38.7737 64.0953
26329 1 27.6955 40.3563 65.6779
26330 1 26.1129 38.7737 67.2605
26331 1 27.6955 40.3563 68.8431
26332 1 26.1129 38.7737 70.4257
26333 1 27.6955 40.3563 72.0083
26334 1 26.1129 38.7737 73.5909
26335 1 27.6955 40.3563 75.1735
26336 1 26.1129 38.7737 76.7561
26337 1 27.6955 40.3563 78.3387
26338 1 26.1129 41.9389 51.4345
26339 1 27.6955 43.5215 53.0171
26340 1 26.1129 41.9389 54.5997
26341 1 27.6955 43.5215 56.1823
26342 1 26.1129 41.9389 57.7649
26343 1 27.6955 43.5215 59.3475
26344 1 26.1129 41.9389 60.9301
26345 1 27.6955 43.5215 62.5127
26346 1 26.1129 41.9389 64.0953
26347 1 27.6955 43.5215 65.6779
26348 1 26.1129 41.9389 67.2605
26349 1 27.6955 43.5215 68.8431
26350 1 26.1129 41.9389 70.4257
26351 1 27.6955 43.5215 72.0083
26352 1 26.1129 41.9389 73.5909
26353 1 27.6955 43.5215 75.1735
26354 1 26.1129 41.9389 76.7561
26355 1 27.6955 43.5215 78.3387
26356 1 26.1129 45.1041 51.4345
26357 1 27.6955 46.6867 53.0171
26358 1 26.1129 45.1041 54.5997
26359 1 27.6955 46.6867 56.1823
26360 1 26.1129 45.1041 57.7649
26361 1 27.6955 46.6867 59.3475
26362 1 26.1129 45.1041 60.9301
26363 1 27.6955 46.6867 62.5127
26364 1 26.1129 45.1041 64.0953
26365 1 27.6955 46.6867 65.6779
26366 1 26.1129 45.1041 67.2605
26367 1 27.6955 46.6867 68.8431
26368 1 26.1129 45.1041 70.4257
26369 1 27.6955 46.6867 72.0083
26370 1 26.1129 45.1041 73.5909
26371 1 27.6955 46.6867 75.1735
26372 1 26.1129 45.1041 76.7561
26373 1 27.6955 46.6867 78.3387
26374 1 26.1129 48.2693 51.4345
26375 1 27.6955 49.8519 53.0171
26376 1 26.1129 48.2693 54.5997
26377 1 27.6955 49.8519 56.1823
26378 1 26.1129 48.2693 57.7649
26379 1 27.6955 49.8519 59.3475
26380 1 26.1129 48.2693 60.9301
26381 1 27.6955 49.8519 62.5127
26382 1 26.1129 48.2693 64.0953
26383 1 27.6955 49.8519 65.6779
26384 1 26.1129 48.2693 67.2605
26385 1 27.6955 49.8519 68.8431
26386 1 26.1129 48.2693 70.4257
26387 1 27.6955 49.8519 72.0083
26388 1 26.1129 48.2693 73.5909
26389 1 27.6955 49.8519 75.1735
26390 1 26.1129 48.2693 76.7561
26391 1 27.6955 49.8519 78.3387
26392 1 26.1129 51.4345 51.4345
26393 1 27.6955 53.0171 53.0171
26394 1 26.1129 51.4345 54.5997
26395 1 27.6955 53.0171 56.1823
26396 1 26.1129 51.4345 57.7649
26397 1 27.6955 53.0171 59.3475
26398 1 26.1129 51.4345 60.9301
26399 1 27.6955 53.0171 62.5127
26400 1 26.1129 51.4345 64.0953
26401 1 27.6955 53.0171 65.6779
26402 1 26.1129 51.4345 67.2605
26403 1 27.6955 53.0171 68.8431
26404 1 26.1129 51.4345 70.4257
26405 1 27.6955 53.0171 72.0083
26406 1 26.1129 51.4345 73.5909
26407 1 27.6955 53.0171 75.1735
26408 1 26.1129 51.4345 76.7561
26409 1 27.6955 53.0171 78.3387
26410 1 26.1129 54.5997 51.4345
26411 1 27.6955 56.1823 53.0171
26412 1 26.1129 54.5997 54.5997
26413 1 27.6955 56.1823 56.1823
26414 1 26.1129 54.5997 57.7649
26415 1 27.6955 56.1823 59.3475
26416 1 26.1129 54.5997 60.9301
26417 1 27.6955 56.1823 62.5127
26418 1 26.1129 54.5997 64.0953
26419 1 27.6955 56.1823 65.6779
26420 1 26.1129 54.5997 67.2605
26421 1 27.6955 56.1823 68.8431
26422 1 26.1129 54.5997 70.4257
26423 1 27.6955 56.1823 72.0083
26424 1 26.1129 54.5997 73.5909
26425 1 27.6955 56.1823 75.1735
26426 1 26.1129 54.5997 76.7561
26427 1 27.6955 56.1823 78.3387
26428 1 26.1129 57.7649 51.4345
26429 1 27.6955 59.3475 53.0171
26430 1 26.1129 57.7649 54.5997
26431 1 27.6955 59.3475 56.1823
26432 1 26.1129 57.7649 57.7649
26433 1 27.6955 59.3475 59.3475
26434 1 26.1129 57.7649 60.9301
26435 1 27.6955 59.3475 62.5127
26436 1 26.1129 57.7649 64.0953
26437 1 27.6955 59.3475 65.6779
26438 1 26.1129 57.7649 67.2605
26439 1 27.6955 59.3475 68.8431
26440 1 26.1129 57.7649 70.4257
26441 1 27.6955 59.3475 72.0083
26442 1 26.1129 57.7649 73.5909
26443 1 27.6955 59.3475 75.1735
26444 1 26.1129 57.7649 76.7561
26445 1 27.6955 59.3475 78.3387
26446 1 26.1129 60.9301 51.4345
26447 1 27.6955 62.5127 53.0171
26448 1 26.1129 60.9301 54.5997
26449 1 27.6955 62.5127 56.1823
26450 1 26.1129 60.9301 57.7649
26451 1 27.6955 62.5127 59.3475
26452 1 26.1129 60.9301 60.9301
26453 1 27.6955 62.5127 62.5127
26454 1 26.1129 60.9301 64.0953
26455 1 27.6955 62.5127 65.6779
26456 1 26.1129 60.9301 67.2605
26457 1 27.6955 62.5127 68.8431
26458 1 26.1129 60.9301 70.4257
26459 1 27.6955 62.5127 72.0083
26460 1 26.1129 60.9301 73.5909
26461 1 27.6955 62.5127 75.1735
26462 1 26.1129 60.9301 76.7561
26463 1 27.6955 62.5127 78.3387
26464 1 26.1129 64.0953 51.4345
26465 1 27.6955 65.6779 53.0171
26466 1 26.1129 64.0953 54.5997
26467 1 27.6955 65.6779 56.1823
26468 1 26.1129 64.0953 57.7649
26469 1 27.6955 65.6779 59.3475
26470 1 26.1129 64.0953 60.9301
26471 1 27.6955 65.6779 62.5127
26472 1 26.1129 64.0953 64.0953
26473 1 27.6955 65.6779 65.6779
26474 1 26.1129 64.0953 67.2605
26475 1 27.6955 65.6779 68.8431
26476 1 26.1129 64.0953 70.4257
26477 1 27.6955 65.6779 72.0083
26478 1 26.1129 64.0953 73.5909
26479 1 27.6955 65.6779 75.1735
26480 1 26.1129 64.0953 76.7561
26481 1 27.6955 65.6779 78.3387
26482 1 26.1129 67.2605 51.4345
26483 1 27.6955 68.8431 53.0171
26484 1 26.1129 67.2605 54.5997
26485 1 27.6955 68.8431 56.1823
26486 1 26.1129 67.2605 57.7649
26487 1 27.6955 68.8431 59.3475
26488 1 26.1129 67.2605 60.9301
26489 1 27.6955 68.8431 62.5127
26490 1 26.1129 67.2605 64.0953
26491 1 27.6955 68.8431 65.6779
26492 1 26.1129 67.2605 67.2605
26493 1 27.6955 68.8431 68.8431
26494 1 26.1129 67.2605 70.4257
26495 1 27.6955 68.8431 72.0083
26496 1 26.1129 67.2605 73.5909
26497 1 27.6955 68.8431 75.1735
26498 1 26.1129 67.2605 76.7561
26499 1 27.6955 68.8431 78.3387
26500 1 26.1129 70.4257 51.4345
26501 1 27.6955 72.0083 53.0171
26502 1 26.1129 70.4257 54.5997
26503 1 27.6955 72.0083 56.1823
26504 1 26.1129 70.4257 57.7649
26505 1 27.6955 72.0083 59.3475
26506 1 26.1129 70.4257 60.9301
26507 1 27.6955 72.0083 62.5127
26508 1 26.1129 70.4257 64.0953
26509 1 27.6955 72.0083 65.6779
26510 1 26.1129 70.4257 67.2605
26511 1 27.6955 72.0083 68.8431
26512 1 26.1129 70.4257 70.4257
26513 1 27.6955 72.0083 72.0083
26514 1 26.1129 70.4257 73.5909
26515 1 27.6955 72.0083 75.1735
26516 1 26.1129 70.4257 76.7561
26517 1 27.6955 72.0083 78.3387
26518 1 26.1129 73.5909 51.4345
26519 1 27.6955 75.1735 53.0171
26520 1 26.1129 73.5909 54.5997
26521 1 27.6955 75.1735 56.1823
26522 1 26.1129 73.5909 57.7649
26523 1 27.6955 75.1735 59.3475
26524 1 26.1129 73.5909 60.9301
26525 1 27.6955 75.1735 62.5127
26526 1 26.1129 73.5909 64.0953
26527 1 27.6955 75.1735 65.6779
26528 1 26.1129 73.5909 67.2605
26529 1 27.6955 75.1735 68.8431
26530 1 26.1129 73.5909 70.4257
26531 1 27.6955 75.1735 72.0083
26532 1 26.1129 73.5909 73.5909
26533 1 27.6955 75.1735 75.1735
26534 1 26.1129 73.5909 76.7561
26535 1 27.6955 75.1735 78.3387
26536 1 26.1129 76.7561 51.4345
26537 1 27.6955 78.3387 53.0171
26538 1 26.1129 76.7561 54.5997
26539 1 27.6955 78.3387 56.1823
26540 1 26.1129 76.7561 57.7649
26541 1 27.6955 78.3387 59.3475
26542 1 26.1129 76.7561 60.9301
26543 1 27.6955 78.3387 62.5127
26544 1 26.1129 76.7561 64.0953
26545 1 27.6955 78.3387 65.6779
26546 1 26.1129 76.7561 67.2605
26547 1 27.6955 78.3387 68.8431
26548 1 26.1129 76.7561 70.4257
26549 1 27.6955 78.3387 72.0083
26550 1 26.1129 76.7561 73.5909
26551 1 27.6955 78.3387 75.1735
26552 1 26.1129 76.7561 76.7561
26553 1 27.6955 78.3387 78.3387
26554 1 29.2781 0.7913 51.4345
26555 1 30.8607 2.3739 53.0171
26556 1 29.2781 0.7913 54.5997
26557 1 30.8607 2.3739 56.1823
26558 1 29.2781 0.7913 57.7649
26559 1 30.8607 2.3739 59.3475
26560 1 29.2781 0.7913 60.9301
26561 1 30.8607 2.3739 62.5127
26562 1 29.2781 0.7913 64.0953
26563 1 30.8607 2.3739 65.6779
26564 1 29.2781 0.7913 67.2605
26565 1 30.8607 2.3739 68.8431
26566 1 29.2781 0.7913 70.4257
26567 1 30.8607 2.3739 72.0083
26568 1 29.2781 0.7913 73.5909
26569 1 30.8607 2.3739 75.1735
26570 1 29.2781 0.7913 76.7561
26571 1 30.8607 2.3739 78.3387
26572 1 29.2781 3.9565 51.4345
26573 1 30.8607 5.5391 53.0171
26574 1 29.2781 3.9565 54.5997
26575 1 30.8607 5.5391 56.1823
26576 1 29.2781 3.9565 57.7649
26577 1 30.8607 5.5391 59.3475
26578 1 29.2781 3.9565 60.9301
26579 1 30.8607 5.5391 62.5127
26580 1 29.2781 3.9565 64.0953
26581 1 30.8607 5.5391 65.6779
26582 1 29.2781 3.9565 67.2605
26583 1 30.8607 5.5391 68.8431
26584 1 29.2781 3.9565 70.4257
26585 1 30.8607 5.5391 72.0083
26586 1 29.2781 3.9565 73.5909
26587 1 30.8607 5.5391 75.1735
26588 1 29.2781 3.9565 76.7561
26589 1 30.8607 5.5391 78.3387
26590 1 29.2781 7.1217 51.4345
26591 1 30.8607 8.7043 53.0171
26592 1 29.2781 7.1217 54.5997
26593 1 30.8607 8.7043 56.1823
26594 1 29.2781 7.1217 57.7649
26595 1 30.8607 8.7043 59.3475
26596 1 29.2781 7.1217 60.9301
26597 1 30.8607 8.7043 62.5127
26598 1 29.2781 7.1217 64.0953
26599 1 30.8607 8.7043 65.6779
26600 1 29.2781 7.1217 67.2605
26601 1 30.8607 8.7043 68.8431
26602 1 29.2781 7.1217 70.4257
26603 1 30.8607 8.7043 72.0083
26604 1 29.2781 7.1217 73.5909
26605 1 30.8607 8.7043 75.1735
26606 1 29.2781 7.1217 76.7561
26607 1 30.8607 8.7043 78.3387
26608 1 29.2781 10.2869 51.4345
26609 1 30.8607 11.8695 53.0171
26610 1 29.2781 10.2869 54.5997
26611 1 30.8607 11.8695 56.1823
26612 1 29.2781 10.2869 57.7649
26613 1 30.8607 11.8695 59.3475
26614 1 29.2781 10.2869 60.9301
26615 1 30.8607 11.8695 62.5127
26616 1 29.2781 10.2869 64.0953
26617 1 30.8607 11.8695 65.6779
26618 1 29.2781 10.2869 67.2605
26619 1 30.8607 11.8695 68.8431
26620 1 29.2781 10.2869 70.4257
26621 1 30.8607 11.8695 72.0083
26622 1 29.2781 10.2869 73.5909
26623 1 30.8607 11.8695 75.1735
26624 1 29.2781 10.2869 76.7561
26625 1 30.8607 11.8695 78.3387
26626 1 29.2781 13.4521 51.4345
26627 1 30.8607 15.0347 53.0171
26628 1 29.2781 13.4521 54.5997
26629 1 30.8607 15.0347 56.1823
26630 1 29.2781 13.4521 57.7649
26631 1 30.8607 15.0347 59.3475
26632 1 29.2781 13.4521 60.9301
26633 1 30.8607 15.0347 62.5127
26634 1 29.2781 13.4521 64.0953
26635 1 30.8607 15.0347 65.6779
26636 1 29.2781 13.4521 67.2605
26637 1 30.8607 15.0347 68.8431
26638 1 29.2781 13.4521 70.4257
26639 1 30.8607 15.0347 72.0083
26640 1 29.2781 13.4521 73.5909
26641 1 30.8607 15.0347 75.1735
26642 1 29.2781 13.4521 76.7561
26643 1 30.8607 15.0347 78.3387
26644 1 29.2781 16.6173 51.4345
26645 1 30.8607 18.1999 53.0171
26646 1 29.2781 16.6173 54.5997
26647 1 30.8607 18.1999 56.1823
26648 1 29.2781 16.6173 57.7649
26649 1 30.8607 18.1999 59.3475
26650 1 29.2781 16.6173 60.9301
26651 1 30.8607 18.1999 62.5127
26652 1 29.2781 16.6173 64.0953
26653 1 30.8607 18.1999 65.6779
26654 1 29.2781 16.6173 67.2605
26655 1 30.8607 18.1999 68.8431
26656 1 29.2781 16.6173 70.4257
26657 1 30.8607 18.1999 72.0083
26658 1 29.2781 16.6173 73.5909
26659 1 30.8607 18.1999 75.1735
26660 1 29.2781 16.6173 76.7561
26661 1 30.8607 18.1999 78.3387
26662 1 29.2781 19.7825 51.4345
26663 1 30.8607 21.3651 53.0171
26664 1 29.2781 19.7825 54.5997
26665 1 30.8607 21.3651 56.1823
26666 1 29.2781 19.7825 57.7649
26667 1 30.8607 21.3651 59.3475
26668 1 29.2781 19.7825 60.9301
26669 1 30.8607 21.3651 62.5127
26670 1 29.2781 19.7825 64.0953
26671 1 30.8607 21.3651 65.6779
26672 1 29.2781 19.7825 67.2605
26673 1 30.8607 21.3651 68.8431
26674 1 29.2781 19.7825 70.4257
26675 1 30.8607 21.3651 72.0083
26676 1 29.2781 19.7825 73.5909
26677 1 30.8607 21.3651 75.1735
26678 1 29.2781 19.7825 76.7561
26679 1 30.8607 21.3651 78.3387
26680 1 29.2781 22.9477 51.4345
26681 1 30.8607 24.5303 53.0171
26682 1 29.2781 22.9477 54.5997
26683 1 30.8607 24.5303 56.1823
26684 1 29.2781 22.9477 57.7649
26685 1 30.8607 24.5303 59.3475
26686 1 29.2781 22.9477 60.9301
26687 1 30.8607 24.5303 62.5127
26688 1 29.2781 22.9477 64.0953
26689 1 30.8607 24.5303 65.6779
26690 1 29.2781 22.9477 67.2605
26691 1 30.8607 24.5303 68.8431
26692 1 29.2781 22.9477 70.4257
26693 1 30.8607 24.5303 72.0083
26694 1 29.2781 22.9477 73.5909
26695 1 30.8607 24.5303 75.1735
26696 1 29.2781 22.9477 76.7561
26697 1 30.8607 24.5303 78.3387
26698 1 29.2781 26.1129 51.4345
26699 1 30.8607 27.6955 53.0171
26700 1 29.2781 26.1129 54.5997
26701 1 30.8607 27.6955 56.1823
26702 1 29.2781 26.1129 57.7649
26703 1 30.8607 27.6955 59.3475
26704 1 29.2781 26.1129 60.9301
26705 1 30.8607 27.6955 62.5127
26706 1 29.2781 26.1129 64.0953
26707 1 30.8607 27.6955 65.6779
26708 1 29.2781 26.1129 67.2605
26709 1 30.8607 27.6955 68.8431
26710 1 29.2781 26.1129 70.4257
26711 1 30.8607 27.6955 72.0083
26712 1 29.2781 26.1129 73.5909
26713 1 30.8607 27.6955 75.1735
26714 1 29.2781 26.1129 76.7561
26715 1 30.8607 27.6955 78.3387
26716 1 29.2781 29.2781 51.4345
26717 1 30.8607 30.8607 53.0171
26718 1 29.2781 29.2781 54.5997
26719 1 30.8607 30.8607 56.1823
26720 1 29.2781 29.2781 57.7649
26721 1 30.8607 30.8607 59.3475
26722 1 29.2781 29.2781 60.9301
26723 1 30.8607 30.8607 62.5127
26724 1 29.2781 29.2781 64.0953
26725 1 30.8607 30.8607 65.6779
26726 1 29.2781 29.2781 67.2605
26727 1 30.8607 30.8607 68.8431
26728 1 29.2781 29.2781 70.4257
26729 1 30.8607 30.8607 72.0083
26730 1 29.2781 29.2781 73.5909
26731 1 30.8607 30.8607 75.1735
26732 1 29.2781 29.2781 76.7561
26733 1 30.8607 30.8607 78.3387
26734 1 29.2781 32.4433 51.4345
26735 1 30.8607 34.0259 53.0171
26736 1 29.2781 32.4433 54.5997
26737 1 30.8607 34.0259 56.1823
26738 1 29.2781 32.4433 57.7649
26739 1 30.8607 34.0259 59.3475
26740 1 29.2781 32.4433 60.9301
26741 1 30.8607 34.0259 62.5127
26742 1 29.2781 32.4433 64.0953
26743 1 30.8607 34.0259 65.6779
26744 1 29.2781 32.4433 67.2605
26745 1 30.8607 34.0259 68.8431
26746 1 29.2781 32.4433 70.4257
26747 1 30.8607 34.0259 72.0083
26748 1 29.2781 32.4433 73.5909
26749 1 30.8607 34.0259 75.1735
26750 1 29.2781 32.4433 76.7561
26751 1 30.8607 34.0259 78.3387
26752 1 29.2781 35.6085 51.4345
26753 1 30.8607 37.1911 53.0171
26754 1 29.2781 35.6085 54.5997
26755 1 30.8607 37.1911 56.1823
26756 1 29.2781 35.6085 57.7649
26757 1 30.8607 37.1911 59.3475
26758 1 29.2781 35.6085 60.9301
26759 1 30.8607 37.1911 62.5127
26760 1 29.2781 35.6085 64.0953
26761 1 30.8607 37.1911 65.6779
26762 1 29.2781 35.6085 67.2605
26763 1 30.8607 37.1911 68.8431
26764 1 29.2781 35.6085 70.4257
26765 1 30.8607 37.1911 72.0083
26766 1 29.2781 35.6085 73.5909
26767 1 30.8607 37.1911 75.1735
26768 1 29.2781 35.6085 76.7561
26769 1 30.8607 37.1911 78.3387
26770 1 29.2781 38.7737 51.4345
26771 1 30.8607 40.3563 53.0171
26772 1 29.2781 38.7737 54.5997
26773 1 30.8607 40.3563 56.1823
26774 1 29.2781 38.7737 57.7649
26775 1 30.8607 40.3563 59.3475
26776 1 29.2781 38.7737 60.9301
26777 1 30.8607 40.3563 62.5127
26778 1 29.2781 38.7737 64.0953
26779 1 30.8607 40.3563 65.6779
26780 1 29.2781 38.7737 67.2605
26781 1 30.8607 40.3563 68.8431
26782 1 29.2781 38.7737 70.4257
26783 1 30.8607 40.3563 72.0083
26784 1 29.2781 38.7737 73.5909
26785 1 30.8607 40.3563 75.1735
26786 1 29.2781 38.7737 76.7561
26787 1 30.8607 40.3563 78.3387
26788 1 29.2781 41.9389 51.4345
26789 1 30.8607 43.5215 53.0171
26790 1 29.2781 41.9389 54.5997
26791 1 30.8607 43.5215 56.1823
26792 1 29.2781 41.9389 57.7649
26793 1 30.8607 43.5215 59.3475
26794 1 29.2781 41.9389 60.9301
26795 1 30.8607 43.5215 62.5127
26796 1 29.2781 41.9389 64.0953
26797 1 30.8607 43.5215 65.6779
26798 1 29.2781 41.9389 67.2605
26799 1 30.8607 43.5215 68.8431
26800 1 29.2781 41.9389 70.4257
26801 1 30.8607 43.5215 72.0083
26802 1 29.2781 41.9389 73.5909
26803 1 30.8607 43.5215 75.1735
26804 1 29.2781 41.9389 76.7561
26805 1 30.8607 43.5215 78.3387
26806 1 29.2781 45.1041 51.4345
26807 1 30.8607 46.6867 53.0171
26808 1 29.2781 45.1041 54.5997
26809 1 30.8607 46.6867 56.1823
26810 1 29.2781 45.1041 57.7649
26811 1 30.8607 46.6867 59.3475
26812 1 29.2781 45.1041 60.9301
26813 1 30.8607 46.6867 62.5127
26814 1 29.2781 45.1041 64.0953
26815 1 30.8607 46.6867 65.6779
26816 1 29.2781 45.1041 67.2605
26817 1 30.8607 46.6867 68.8431
26818 1 29.2781 45.1041 70.4257
26819 1 30.8607 46.6867 72.0083
26820 1 29.2781 45.1041 73.5909
26821 1 30.8607 46.6867 75.1735
26822 1 29.2781 45.1041 76.7561
26823 1 30.8607 46.6867 78.3387
26824 1 29.2781 48.2693 51.4345
26825 1 30.8607 49.8519 53.0171
26826 1 29.2781 48.2693 54.5997
26827 1 30.8607 49.8519 56.1823
26828 1 29.2781 48.2693 57.7649
26829 1 30.8607 49.8519 59.3475
26830 1 29.2781 48.2693 60.9301
26831 1 30.8607 49.8519 62.5127
26832 1 29.2781 48.2693 64.0953
26833 1 30.8607 49.8519 65.6779
26834 1 29.2781 48.2693 67.2605
26835 1 30.8607 49.8519 68.8431
26836 1 29.2781 48.2693 70.4257
26837 1 30.8607 49.8519 72.0083
26838 1 29.2781 48.2693 73.5909
26839 1 30.8607 49.8519 75.1735
26840 1 29.2781 48.2693 76.7561
26841 1 30.8607 49.8519 78.3387
26842 1 29.2781 51.4345 51.4345
26843 1 30.8607 53.0171 53.0171
26844 1 29.2781 51.4345 54.5997
26845 1 30.8607 53.0171 56.1823
26846 1 29.2781 51.4345 57.7649
26847 1 30.8607 53.0171 59.3475
26848 1 29.2781 51.4345 60.9301
26849 1 30.8607 53.0171 62.5127
26850 1 29.2781 51.4345 64.0953
26851 1 30.8607 53.0171 65.6779
26852 1 29.2781 51.4345 67.2605
26853 1 30.8607 53.0171 68.8431
26854 1 29.2781 51.4345 70.4257
26855 1 30.8607 53.0171 72.0083
26856 1 29.2781 51.4345 73.5909
26857 1 30.8607 53.0171 75.1735
26858 1 29.2781 51.4345 76.7561
26859 1 30.8607 53.0171 78.3387
26860 1 29.2781 54.5997 51.4345
26861 1 30.8607 56.1823 53.0171
26862 1 29.2781 54.5997 54.5997
26863 1 30.8607 56.1823 56.1823
26864 1 29.2781 54.5997 57.7649
26865 1 30.8607 56.1823 59.3475
26866 1 29.2781 54.5997 60.9301
26867 1 30.8607 56.1823 62.5127
26868 1 29.2781 54.5997 64.0953
26869 1 30.8607 56.1823 65.6779
26870 1 29.2781 54.5997 67.2605
26871 1 30.8607 56.1823 68.8431
26872 1 29.2781 54.5997 70.4257
26873 1 30.8607 56.1823 72.0083
26874 1 29.2781 54.5997 73.5909
26875 1 30.8607 56.1823 75.1735
26876 1 29.2781 54.5997 76.7561
26877 1 30.8607 56.1823 78.3387
26878 1 29.2781 57.7649 51.4345
26879 1 30.8607 59.3475 53.0171
26880 1 29.2781 57.7649 54.5997
26881 1 30.8607 59.3475 56.1823
26882 1 29.2781 57.7649 57.7649
26883 1 30.8607 59.3475 59.3475
26884 1 29.2781 57.7649 60.9301
26885 1 30.8607 59.3475 62.5127
26886 1 29.2781 57.7649 64.0953
26887 1 30.8607 59.3475 65.6779
26888 1 29.2781 57.7649 67.2605
26889 1 30.8607 59.3475 68.8431
26890 1 29.2781 57.7649 70.4257
26891 1 30.8607 59.3475 72.0083
26892 1 29.2781 57.7649 73.5909
26893 1 30.8607 59.3475 75.1735
26894 1 29.2781 57.7649 76.7561
26895 1 30.8607 59.3475 78.3387
26896 1 29.2781 60.9301 51.4345
26897 1 30.8607 62.5127 53.0171
26898 1 29.2781 60.9301 54.5997
26899 1 30.8607 62.5127 56.1823
26900 1 29.2781 60.9301 57.7649
26901 1 30.8607 62.5127 59.3475
26902 1 29.2781 60.9301 60.9301
26903 1 30.8607 62.5127 62.5127
26904 1 29.2781 60.9301 64.0953
26905 1 30.8607 62.5127 65.6779
26906 1 29.2781 60.9301 67.2605
26907 1 30.8607 62.5127 68.8431
26908 1 29.2781 60.9301 70.4257
26909 1 30.8607 62.5127 72.0083
26910 1 29.2781 60.9301 73.5909
26911 1 30.8607 62.5127 75.1735
26912 1 29.2781 60.9301 76.7561
26913 1 30.8607 62.5127 78.3387
26914 1 29.2781 64.0953 51.4345
26915 1 30.8607 65.6779 53.0171
26916 1 29.2781 64.0953 54.5997
26917 1 30.8607 65.6779 56.1823
26918 1 29.2781 64.0953 57.7649
26919 1 30.8607 65.6779 59.3475
26920 1 29.2781 64.0953 60.9301
26921 1 30.8607 65.6779 62.5127
26922 1 29.2781 64.0953 64.0953
26923 1 30.8607 65.6779 65.6779
26924 1 29.2781 64.0953 67.2605
26925 1 30.8607 65.6779 68.8431
26926 1 29.2781 64.0953 70.4257
26927 1 30.8607 65.6779 72.0083
26928 1 29.2781 64.0953 73.5909
26929 1 30.8607 65.6779 75.1735
26930 1 29.2781 64.0953 76.7561
26931 1 30.8607 65.6779 78.3387
26932 1 29.2781 67.2605 51.4345
26933 1 30.8607 68.8431 53.0171
26934 1 29.2781 67.2605 54.5997
26935 1 30.8607 68.8431 56.1823
26936 1 29.2781 67.2605 57.7649
26937 1 30.8607 68.8431 59.3475
26938 1 29.2781 67.2605 60.9301
26939 1 30.8607 68.8431 62.5127
26940 1 29.2781 67.2605 64.0953
26941 1 30.8607 68.8431 65.6779
26942 1 29.2781 67.2605 67.2605
26943 1 30.8607 68.8431 68.8431
26944 1 29.2781 67.2605 70.4257
26945 1 30.8607 68.8431 72.0083
26946 1 29.2781 67.2605 73.5909
26947 1 30.8607 68.8431 75.1735
26948 1 29.2781 67.2605 76.7561
26949 1 30.8607 68.8431 78.3387
26950 1 29.2781 70.4257 51.4345
26951 1 30.8607 72.0083 53.0171
26952 1 29.2781 70.4257 54.5997
26953 1 30.8607 72.0083 56.1823
26954 1 29.2781 70.4257 57.7649
26955 1 30.8607 72.0083 59.3475
26956 1 29.2781 70.4257 60.9301
26957 1 30.8607 72.0083 62.5127
26958 1 29.2781 70.4257 64.0953
26959 1 30.8607 72.0083 65.6779
26960 1 29.2781 70.4257 67.2605
26961 1 30.8607 72.0083 68.8431
26962 1 29.2781 70.4257 70.4257
26963 1 30.8607 72.0083 72.0083
26964 1 29.2781 70.4257 73.5909
26965 1 30.8607 72.0083 75.1735
26966 1 29.2781 70.4257 76.7561
26967 1 30.8607 72.0083 78.3387
26968 1 29.2781 73.5909 51.4345
26969 1 30.8607 75.1735 53.0171
26970 1 29.2781 73.5909 54.5997
26971 1 30.8607 75.1735 56.1823
26972 1 29.2781 73.5909 57.7649
26973 1 30.8607 75.1735 59.3475
26974 1 29.2781 73.5909 60.9301
26975 1 30.8607 75.1735 62.5127
26976 1 29.2781 73.5909 64.0953
26977 1 30.8607 75.1735 65.6779
26978 1 29.2781 73.5909 67.2605
26979 1 30.8607 75.1735 68.8431
26980 1 29.2781 73.5909 70.4257
26981 1 30.8607 75.1735 72.0083
26982 1 29.2781 73.5909 73.5909
26983 1 30.8607 75.1735 75.1735
26984 1 29.2781 73.5909 76.7561
26985 1 30.8607 75.1735 78.3387
26986 1 29.2781 76.7561 51.4345
26987 1 30.8607 78.3387 53.0171
26988 1 29.2781 76.7561 54.5997
26989 1 30.8607 78.3387 56.1823
26990 1 29.2781 76.7561 57.7649
26991 1 30.8607 78.3387 59.3475
26992 1 29.2781 76.7561 60.9301
26993 1 30.8607 78.3387 62.5127
26994 1 29.2781 76.7561 64.0953
26995 1 30.8607 78.3387 65.6779
26996 1 29.2781 76.7561 67.2605
26997 1 30.8607 78.3387 68.8431
26998 1 29.2781 76.7561 70.4257
26999 1 30.8607 78.3387 72.0083
27000 1 29.2781 76.7561 73.5909
27001 1 30.8607 78.3387 75.1735
27002 1 29.2781 76.7561 76.7561
27003 1 30.8607 78.3387 78.3387
27004 1 32.4433 0.7913 51.4345
27005 1 34.0259 2.3739 53.0171
27006 1 32.4433 0.7913 54.5997
27007 1 34.0259 2.3739 56.1823
27008 1 32.4433 0.7913 57.7649
27009 1 34.0259 2.3739 59.3475
27010 1 32.4433 0.7913 60.9301
27011 1 34.0259 2.3739 62.5127
27012 1 32.4433 0.7913 64.0953
27013 1 34.0259 2.3739 65.6779
27014 1 32.4433 0.7913 67.2605
27015 1 34.0259 2.3739 68.8431
27016 1 32.4433 0.7913 70.4257
27017 1 34.0259 2.3739 72.0083
27018 1 32.4433 0.7913 73.5909
27019 1 34.0259 2.3739 75.1735
27020 1 32.4433 0.7913 76.7561
27021 1 34.0259 2.3739 78.3387
27022 1 32.4433 3.9565 51.4345
27023 1 34.0259 5.5391 53.0171
27024 1 32.4433 3.9565 54.5997
27025 1 34.0259 5.5391 56.1823
27026 1 32.4433 3.9565 57.7649
27027 1 34.0259 5.5391 59.3475
27028 1 32.4433 3.9565 60.9301
27029 1 34.0259 5.5391 62.5127
27030 1 32.4433 3.9565 64.0953
27031 1 34.0259 5.5391 65.6779
27032 1 32.4433 3.9565 67.2605
27033 1 34.0259 5.5391 68.8431
27034 1 32.4433 3.9565 70.4257
27035 1 34.0259 5.5391 72.0083
27036 1 32.4433 3.9565 73.5909
27037 1 34.0259 5.5391 75.1735
27038 1 32.4433 3.9565 76.7561
27039 1 34.0259 5.5391 78.3387
27040 1 32.4433 7.1217 51.4345
27041 1 34.0259 8.7043 53.0171
27042 1 32.4433 7.1217 54.5997
27043 1 34.0259 8.7043 56.1823
27044 1 32.4433 7.1217 57.7649
27045 1 34.0259 8.7043 59.3475
27046 1 32.4433 7.1217 60.9301
27047 1 34.0259 8.7043 62.5127
27048 1 32.4433 7.1217 64.0953
27049 1 34.0259 8.7043 65.6779
27050 1 32.4433 7.1217 67.2605
27051 1 34.0259 8.7043 68.8431
27052 1 32.4433 7.1217 70.4257
27053 1 34.0259 8.7043 72.0083
27054 1 32.4433 7.1217 73.5909
27055 1 34.0259 8.7043 75.1735
27056 1 32.4433 7.1217 76.7561
27057 1 34.0259 8.7043 78.3387
27058 1 32.4433 10.2869 51.4345
27059 1 34.0259 11.8695 53.0171
27060 1 32.4433 10.2869 54.5997
27061 1 34.0259 11.8695 56.1823
27062 1 32.4433 10.2869 57.7649
27063 1 34.0259 11.8695 59.3475
27064 1 32.4433 10.2869 60.9301
27065 1 34.0259 11.8695 62.5127
27066 1 32.4433 10.2869 64.0953
27067 1 34.0259 11.8695 65.6779
27068 1 32.4433 10.2869 67.2605
27069 1 34.0259 11.8695 68.8431
27070 1 32.4433 10.2869 70.4257
27071 1 34.0259 11.8695 72.0083
27072 1 32.4433 10.2869 73.5909
27073 1 34.0259 11.8695 75.1735
27074 1 32.4433 10.2869 76.7561
27075 1 34.0259 11.8695 78.3387
27076 1 32.4433 13.4521 51.4345
27077 1 34.0259 15.0347 53.0171
27078 1 32.4433 13.4521 54.5997
27079 1 34.0259 15.0347 56.1823
27080 1 32.4433 13.4521 57.7649
27081 1 34.0259 15.0347 59.3475
27082 1 32.4433 13.4521 60.9301
27083 1 34.0259 15.0347 62.5127
27084 1 32.4433 13.4521 64.0953
27085 1 34.0259 15.0347 65.6779
27086 1 32.4433 13.4521 67.2605
27087 1 34.0259 15.0347 68.8431
27088 1 32.4433 13.4521 70.4257
27089 1 34.0259 15.0347 72.0083
27090 1 32.4433 13.4521 73.5909
27091 1 34.0259 15.0347 75.1735
27092 1 32.4433 13.4521 76.7561
27093 1 34.0259 15.0347 78.3387
27094 1 32.4433 16.6173 51.4345
27095 1 34.0259 18.1999 53.0171
27096 1 32.4433 16.6173 54.5997
27097 1 34.0259 18.1999 56.1823
27098 1 32.4433 16.6173 57.7649
27099 1 34.0259 18.1999 59.3475
27100 1 32.4433 16.6173 60.9301
27101 1 34.0259 18.1999 62.5127
27102 1 32.4433 16.6173 64.0953
27103 1 34.0259 18.1999 65.6779
27104 1 32.4433 16.6173 67.2605
27105 1 34.0259 18.1999 68.8431
27106 1 32.4433 16.6173 70.4257
27107 1 34.0259 18.1999 72.0083
27108 1 32.4433 16.6173 73.5909
27109 1 34.0259 18.1999 75.1735
27110 1 32.4433 16.6173 76.7561
27111 1 34.0259 18.1999 78.3387
27112 1 32.4433 19.7825 51.4345
27113 1 34.0259 21.3651 53.0171
27114 1 32.4433 19.7825 54.5997
27115 1 34.0259 21.3651 56.1823
27116 1 32.4433 19.7825 57.7649
27117 1 34.0259 21.3651 59.3475
27118 1 32.4433 19.7825 60.9301
27119 1 34.0259 21.3651 62.5127
27120 1 32.4433 19.7825 64.0953
27121 1 34.0259 21.3651 65.6779
27122 1 32.4433 19.7825 67.2605
27123 1 34.0259 21.3651 68.8431
27124 1 32.4433 19.7825 70.4257
27125 1 34.0259 21.3651 72.0083
27126 1 32.4433 19.7825 73.5909
27127 1 34.0259 21.3651 75.1735
27128 1 32.4433 19.7825 76.7561
27129 1 34.0259 21.3651 78.3387
27130 1 32.4433 22.9477 51.4345
27131 1 34.0259 24.5303 53.0171
27132 1 32.4433 22.9477 54.5997
27133 1 34.0259 24.5303 56.1823
27134 1 32.4433 22.9477 57.7649
27135 1 34.0259 24.5303 59.3475
27136 1 32.4433 22.9477 60.9301
27137 1 34.0259 24.5303 62.5127
27138 1 32.4433 22.9477 64.0953
27139 1 34.0259 24.5303 65.6779
27140 1 32.4433 22.9477 67.2605
27141 1 34.0259 24.5303 68.8431
27142 1 32.4433 22.9477 70.4257
27143 1 34.0259 24.5303 72.0083
27144 1 32.4433 22.9477 73.5909
27145 1 34.0259 24.5303 75.1735
27146 1 32.4433 22.9477 76.7561
27147 1 34.0259 24.5303 78.3387
27148 1 32.4433 26.1129 51.4345
27149 1 34.0259 27.6955 53.0171
27150 1 32.4433 26.1129 54.5997
27151 1 34.0259 27.6955 56.1823
27152 1 32.4433 26.1129 57.7649
27153 1 34.0259 27.6955 59.3475
27154 1 32.4433 26.1129 60.9301
27155 1 34.0259 27.6955 62.5127
27156 1 32.4433 26.1129 64.0953
27157 1 34.0259 27.6955 65.6779
27158 1 32.4433 26.1129 67.2605
27159 1 34.0259 27.6955 68.8431
27160 1 32.4433 26.1129 70.4257
27161 1 34.0259 27.6955 72.0083
27162 1 32.4433 26.1129 73.5909
27163 1 34.0259 27.6955 75.1735
27164 1 32.4433 26.1129 76.7561
27165 1 34.0259 27.6955 78.3387
27166 1 32.4433 29.2781 51.4345
27167 1 34.0259 30.8607 53.0171
27168 1 32.4433 29.2781 54.5997
27169 1 34.0259 30.8607 56.1823
27170 1 32.4433 29.2781 57.7649
27171 1 34.0259 30.8607 59.3475
27172 1 32.4433 29.2781 60.9301
27173 1 34.0259 30.8607 62.5127
27174 1 32.4433 29.2781 64.0953
27175 1 34.0259 30.8607 65.6779
27176 1 32.4433 29.2781 67.2605
27177 1 34.0259 30.8607 68.8431
27178 1 32.4433 29.2781 70.4257
27179 1 34.0259 30.8607 72.0083
27180 1 32.4433 29.2781 73.5909
27181 1 34.0259 30.8607 75.1735
27182 1 32.4433 29.2781 76.7561
27183 1 34.0259 30.8607 78.3387
27184 1 32.4433 32.4433 51.4345
27185 1 34.0259 34.0259 53.0171
27186 1 32.4433 32.4433 54.5997
27187 1 34.0259 34.0259 56.1823
27188 1 32.4433 32.4433 57.7649
27189 1 34.0259 34.0259 59.3475
27190 1 32.4433 32.4433 60.9301
27191 1 34.0259 34.0259 62.5127
27192 1 32.4433 32.4433 64.0953
27193 1 34.0259 34.0259 65.6779
27194 1 32.4433 32.4433 67.2605
27195 1 34.0259 34.0259 68.8431
27196 1 32.4433 32.4433 70.4257
27197 1 34.0259 34.0259 72.0083
27198 1 32.4433 32.4433 73.5909
27199 1 34.0259 34.0259 75.1735
27200 1 32.4433 32.4433 76.7561
27201 1 34.0259 34.0259 78.3387
27202 1 32.4433 35.6085 51.4345
27203 1 34.0259 37.1911 53.0171
27204 1 32.4433 35.6085 54.5997
27205 1 34.0259 37.1911 56.1823
27206 1 32.4433 35.6085 57.7649
27207 1 34.0259 37.1911 59.3475
27208 1 32.4433 35.6085 60.9301
27209 1 34.0259 37.1911 62.5127
27210 1 32.4433 35.6085 64.0953
27211 1 34.0259 37.1911 65.6779
27212 1 32.4433 35.6085 67.2605
27213 1 34.0259 37.1911 68.8431
27214 1 32.4433 35.6085 70.4257
27215 1 34.0259 37.1911 72.0083
27216 1 32.4433 35.6085 73.5909
27217 1 34.0259 37.1911 75.1735
27218 1 32.4433 35.6085 76.7561
27219 1 34.0259 37.1911 78.3387
27220 1 32.4433 38.7737 51.4345
27221 1 34.0259 40.3563 53.0171
27222 1 32.4433 38.7737 54.5997
27223 1 34.0259 40.3563 56.1823
27224 1 32.4433 38.7737 57.7649
27225 1 34.0259 40.3563 59.3475
27226 1 32.4433 38.7737 60.9301
27227 1 34.0259 40.3563 62.5127
27228 1 32.4433 38.7737 64.0953
27229 1 34.0259 40.3563 65.6779
27230 1 32.4433 38.7737 67.2605
27231 1 34.0259 40.3563 68.8431
27232 1 32.4433 38.7737 70.4257
27233 1 34.0259 40.3563 72.0083
27234 1 32.4433 38.7737 73.5909
27235 1 34.0259 40.3563 75.1735
27236 1 32.4433 38.7737 76.7561
27237 1 34.0259 40.3563 78.3387
27238 1 32.4433 41.9389 51.4345
27239 1 34.0259 43.5215 53.0171
27240 1 32.4433 41.9389 54.5997
27241 1 34.0259 43.5215 56.1823
27242 1 32.4433 41.9389 57.7649
27243 1 34.0259 43.5215 59.3475
27244 1 32.4433 41.9389 60.9301
27245 1 34.0259 43.5215 62.5127
27246 1 32.4433 41.9389 64.0953
27247 1 34.0259 43.5215 65.6779
27248 1 32.4433 41.9389 67.2605
27249 1 34.0259 43.5215 68.8431
27250 1 32.4433 41.9389 70.4257
27251 1 34.0259 43.5215 72.0083
27252 1 32.4433 41.9389 73.5909
27253 1 34.0259 43.5215 75.1735
27254 1 32.4433 41.9389 76.7561
27255 1 34.0259 43.5215 78.3387
27256 1 32.4433 45.1041 51.4345
27257 1 34.0259 46.6867 53.0171
27258 1 32.4433 45.1041 54.5997
27259 1 34.0259 46.6867 56.1823
27260 1 32.4433 45.1041 57.7649
27261 1 34.0259 46.6867 59.3475
27262 1 32.4433 45.1041 60.9301
27263 1 34.0259 46.6867 62.5127
27264 1 32.4433 45.1041 64.0953
27265 1 34.0259 46.6867 65.6779
27266 1 32.4433 45.1041 67.2605
27267 1 34.0259 46.6867 68.8431
27268 1 32.4433 45.1041 70.4257
27269 1 34.0259 46.6867 72.0083
27270 1 32.4433 45.1041 73.5909
27271 1 34.0259 46.6867 75.1735
27272 1 32.4433 45.1041 76.7561
27273 1 34.0259 46.6867 78.3387
27274 1 32.4433 48.2693 51.4345
27275 1 34.0259 49.8519 53.0171
27276 1 32.4433 48.2693 54.5997
27277 1 34.0259 49.8519 56.1823
27278 1 32.4433 48.2693 57.7649
27279 1 34.0259 49.8519 59.3475
27280 1 32.4433 48.2693 60.9301
27281 1 34.0259 49.8519 62.5127
27282 1 32.4433 48.2693 64.0953
27283 1 34.0259 49.8519 65.6779
27284 1 32.4433 48.2693 67.2605
27285 1 34.0259 49.8519 68.8431
27286 1 32.4433 48.2693 70.4257
27287 1 34.0259 49.8519 72.0083
27288 1 32.4433 48.2693 73.5909
27289 1 34.0259 49.8519 75.1735
27290 1 32.4433 48.2693 76.7561
27291 1 34.0259 49.8519 78.3387
27292 1 32.4433 51.4345 51.4345
27293 1 34.0259 53.0171 53.0171
27294 1 32.4433 51.4345 54.5997
27295 1 34.0259 53.0171 56.1823
27296 1 32.4433 51.4345 57.7649
27297 1 34.0259 53.0171 59.3475
27298 1 32.4433 51.4345 60.9301
27299 1 34.0259 53.0171 62.5127
27300 1 32.4433 51.4345 64.0953
27301 1 34.0259 53.0171 65.6779
27302 1 32.4433 51.4345 67.2605
27303 1 34.0259 53.0171 68.8431
27304 1 32.4433 51.4345 70.4257
27305 1 34.0259 53.0171 72.0083
27306 1 32.4433 51.4345 73.5909
27307 1 34.0259 53.0171 75.1735
27308 1 32.4433 51.4345 76.7561
27309 1 34.0259 53.0171 78.3387
27310 1 32.4433 54.5997 51.4345
27311 1 34.0259 56.1823 53.0171
27312 1 32.4433 54.5997 54.5997
27313 1 34.0259 56.1823 56.1823
27314 1 32.4433 54.5997 57.7649
27315 1 34.0259 56.1823 59.3475
27316 1 32.4433 54.5997 60.9301
27317 1 34.0259 56.1823 62.5127
27318 1 32.4433 54.5997 64.0953
27319 1 34.0259 56.1823 65.6779
27320 1 32.4433 54.5997 67.2605
27321 1 34.0259 56.1823 68.8431
27322 1 32.4433 54.5997 70.4257
27323 1 34.0259 56.1823 72.0083
27324 1 32.4433 54.5997 73.5909
27325 1 34.0259 56.1823 75.1735
27326 1 32.4433 54.5997 76.7561
27327 1 34.0259 56.1823 78.3387
27328 1 32.4433 57.7649 51.4345
27329 1 34.0259 59.3475 53.0171
27330 1 32.4433 57.7649 54.5997
27331 1 34.0259 59.3475 56.1823
27332 1 32.4433 57.7649 57.7649
27333 1 34.0259 59.3475 59.3475
27334 1 32.4433 57.7649 60.9301
27335 1 34.0259 59.3475 62.5127
27336 1 32.4433 57.7649 64.0953
27337 1 34.0259 59.3475 65.6779
27338 1 32.4433 57.7649 67.2605
27339 1 34.0259 59.3475 68.8431
27340 1 32.4433 57.7649 70.4257
27341 1 34.0259 59.3475 72.0083
27342 1 32.4433 57.7649 73.5909
27343 1 34.0259 59.3475 75.1735
27344 1 32.4433 57.7649 76.7561
27345 1 34.0259 59.3475 78.3387
27346 1 32.4433 60.9301 51.4345
27347 1 34.0259 62.5127 53.0171
27348 1 32.4433 60.9301 54.5997
27349 1 34.0259 62.5127 56.1823
27350 1 32.4433 60.9301 57.7649
27351 1 34.0259 62.5127 59.3475
27352 1 32.4433 60.9301 60.9301
27353 1 34.0259 62.5127 62.5127
27354 1 32.4433 60.9301 64.0953
27355 1 34.0259 62.5127 65.6779
27356 1 32.4433 60.9301 67.2605
27357 1 34.0259 62.5127 68.8431
27358 1 32.4433 60.9301 70.4257
27359 1 34.0259 62.5127 72.0083
27360 1 32.4433 60.9301 73.5909
27361 1 34.0259 62.5127 75.1735
27362 1 32.4433 60.9301 76.7561
27363 1 34.0259 62.5127 78.3387
27364 1 32.4433 64.0953 51.4345
27365 1 34.0259 65.6779 53.0171
27366 1 32.4433 64.0953 54.5997
27367 1 34.0259 65.6779 56.1823
27368 1 32.4433 64.0953 57.7649
27369 1 34.0259 65.6779 59.3475
27370 1 32.4433 64.0953 60.9301
27371 1 34.0259 65.6779 62.5127
27372 1 32.4433 64.0953 64.0953
27373 1 34.0259 65.6779 65.6779
27374 1 32.4433 64.0953 67.2605
27375 1 34.0259 65.6779 68.8431
27376 1 32.4433 64.0953 70.4257
27377 1 34.0259 65.6779 72.0083
27378 1 32.4433 64.0953 73.5909
27379 1 34.0259 65.6779 75.1735
27380 1 32.4433 64.0953 76.7561
27381 1 34.0259 65.6779 78.3387
27382 1 32.4433 67.2605 51.4345
27383 1 34.0259 68.8431 53.0171
27384 1 32.4433 67.2605 54.5997
27385 1 34.0259 68.8431 56.1823
27386 1 32.4433 67.2605 57.7649
27387 1 34.0259 68.8431 59.3475
27388 1 32.4433 67.2605 60.9301
27389 1 34.0259 68.8431 62.5127
27390 1 32.4433 67.2605 64.0953
27391 1 34.0259 68.8431 65.6779
27392 1 32.4433 67.2605 67.2605
27393 1 34.0259 68.8431 68.8431
27394 1 32.4433 67.2605 70.4257
27395 1 34.0259 68.8431 72.0083
27396 1 32.4433 67.2605 73.5909
27397 1 34.0259 68.8431 75.1735
27398 1 32.4433 67.2605 76.7561
27399 1 34.0259 68.8431 78.3387
27400 1 32.4433 70.4257 51.4345
27401 1 34.0259 72.0083 53.0171
27402 1 32.4433 70.4257 54.5997
27403 1 34.0259 72.0083 56.1823
27404 1 32.4433 70.4257 57.7649
27405 1 34.0259 72.0083 59.3475
27406 1 32.4433 70.4257 60.9301
27407 1 34.0259 72.0083 62.5127
27408 1 32.4433 70.4257 64.0953
27409 1 34.0259 72.0083 65.6779
27410 1 32.4433 70.4257 67.2605
27411 1 34.0259 72.0083 68.8431
27412 1 32.4433 70.4257 70.4257
27413 1 34.0259 72.0083 72.0083
27414 1 32.4433 70.4257 73.5909
27415 1 34.0259 72.0083 75.1735
27416 1 32.4433 70.4257 76.7561
27417 1 34.0259 72.0083 78.3387
27418 1 32.4433 73.5909 51.4345
27419 1 34.0259 75.1735 53.0171
27420 1 32.4433 73.5909 54.5997
27421 1 34.0259 75.1735 56.1823
27422 1 32.4433 73.5909 57.7649
27423 1 34.0259 75.1735 59.3475
27424 1 32.4433 73.5909 60.9301
27425 1 34.0259 75.1735 62.5127
27426 1 32.4433 73.5909 64.0953
27427 1 34.0259 75.1735 65.6779
27428 1 32.4433 73.5909 67.2605
27429 1 34.0259 75.1735 68.8431
27430 1 32.4433 73.5909 70.4257
27431 1 34.0259 75.1735 72.0083
27432 1 32.4433 73.5909 73.5909
27433 1 34.0259 75.1735 75.1735
27434 1 32.4433 73.5909 76.7561
27435 1 34.0259 75.1735 78.3387
27436 1 32.4433 76.7561 51.4345
27437 1 34.0259 78.3387 53.0171
27438 1 32.4433 76.7561 54.5997
27439 1 34.0259 78.3387 56.1823
27440 1 32.4433 76.7561 57.7649
27441 1 34.0259 78.3387 59.3475
27442 1 32.4433 76.7561 60.9301
27443 1 34.0259 78.3387 62.5127
27444 1 32.4433 76.7561 64.0953
27445 1 34.0259 78.3387 65.6779
27446 1 32.4433 76.7561 67.2605
27447 1 34.0259 78.3387 68.8431
27448 1 32.4433 76.7561 70.4257
27449 1 34.0259 78.3387 72.0083
27450 1 32.4433 76.7561 73.5909
27451 1 34.0259 78.3387 75.1735
27452 1 32.4433 76.7561 76.7561
27453 1 34.0259 78.3387 78.3387
27454 1 35.6085 0.7913 51.4345
27455 1 37.1911 2.3739 53.0171
27456 1 35.6085 0.7913 54.5997
27457 1 37.1911 2.3739 56.1823
27458 1 35.6085 0.7913 57.7649
27459 1 37.1911 2.3739 59.3475
27460 1 35.6085 0.7913 60.9301
27461 1 37.1911 2.3739 62.5127
27462 1 35.6085 0.7913 64.0953
27463 1 37.1911 2.3739 65.6779
27464 1 35.6085 0.7913 67.2605
27465 1 37.1911 2.3739 68.8431
27466 1 35.6085 0.7913 70.4257
27467 1 37.1911 2.3739 72.0083
27468 1 35.6085 0.7913 73.5909
27469 1 37.1911 2.3739 75.1735
27470 1 35.6085 0.7913 76.7561
27471 1 37.1911 2.3739 78.3387
27472 1 35.6085 3.9565 51.4345
27473 1 37.1911 5.5391 53.0171
27474 1 35.6085 3.9565 54.5997
27475 1 37.1911 5.5391 56.1823
27476 1 35.6085 3.9565 57.7649
27477 1 37.1911 5.5391 59.3475
27478 1 35.6085 3.9565 60.9301
27479 1 37.1911 5.5391 62.5127
27480 1 35.6085 3.9565 64.0953
27481 1 37.1911 5.5391 65.6779
27482 1 35.6085 3.9565 67.2605
27483 1 37.1911 5.5391 68.8431
27484 1 35.6085 3.9565 70.4257
27485 1 37.1911 5.5391 72.0083
27486 1 35.6085 3.9565 73.5909
27487 1 37.1911 5.5391 75.1735
27488 1 35.6085 3.9565 76.7561
27489 1 37.1911 5.5391 78.3387
27490 1 35.6085 7.1217 51.4345
27491 1 37.1911 8.7043 53.0171
27492 1 35.6085 7.1217 54.5997
27493 1 37.1911 8.7043 56.1823
27494 1 35.6085 7.1217 57.7649
27495 1 37.1911 8.7043 59.3475
27496 1 35.6085 7.1217 60.9301
27497 1 37.1911 8.7043 62.5127
27498 1 35.6085 7.1217 64.0953
27499 1 37.1911 8.7043 65.6779
27500 1 35.6085 7.1217 67.2605
27501 1 37.1911 8.7043 68.8431
27502 1 35.6085 7.1217 70.4257
27503 1 37.1911 8.7043 72.0083
27504 1 35.6085 7.1217 73.5909
27505 1 37.1911 8.7043 75.1735
27506 1 35.6085 7.1217 76.7561
27507 1 37.1911 8.7043 78.3387
27508 1 35.6085 10.2869 51.4345
27509 1 37.1911 11.8695 53.0171
27510 1 35.6085 10.2869 54.5997
27511 1 37.1911 11.8695 56.1823
27512 1 35.6085 10.2869 57.7649
27513 1 37.1911 11.8695 59.3475
27514 1 35.6085 10.2869 60.9301
27515 1 37.1911 11.8695 62.5127
27516 1 35.6085 10.2869 64.0953
27517 1 37.1911 11.8695 65.6779
27518 1 35.6085 10.2869 67.2605
27519 1 37.1911 11.8695 68.8431
27520 1 35.6085 10.2869 70.4257
27521 1 37.1911 11.8695 72.0083
27522 1 35.6085 10.2869 73.5909
27523 1 37.1911 11.8695 75.1735
27524 1 35.6085 10.2869 76.7561
27525 1 37.1911 11.8695 78.3387
27526 1 35.6085 13.4521 51.4345
27527 1 37.1911 15.0347 53.0171
27528 1 35.6085 13.4521 54.5997
27529 1 37.1911 15.0347 56.1823
27530 1 35.6085 13.4521 57.7649
27531 1 37.1911 15.0347 59.3475
27532 1 35.6085 13.4521 60.9301
27533 1 37.1911 15.0347 62.5127
27534 1 35.6085 13.4521 64.0953
27535 1 37.1911 15.0347 65.6779
27536 1 35.6085 13.4521 67.2605
27537 1 37.1911 15.0347 68.8431
27538 1 35.6085 13.4521 70.4257
27539 1 37.1911 15.0347 72.0083
27540 1 35.6085 13.4521 73.5909
27541 1 37.1911 15.0347 75.1735
27542 1 35.6085 13.4521 76.7561
27543 1 37.1911 15.0347 78.3387
27544 1 35.6085 16.6173 51.4345
27545 1 37.1911 18.1999 53.0171
27546 1 35.6085 16.6173 54.5997
27547 1 37.1911 18.1999 56.1823
27548 1 35.6085 16.6173 57.7649
27549 1 37.1911 18.1999 59.3475
27550 1 35.6085 16.6173 60.9301
27551 1 37.1911 18.1999 62.5127
27552 1 35.6085 16.6173 64.0953
27553 1 37.1911 18.1999 65.6779
27554 1 35.6085 16.6173 67.2605
27555 1 37.1911 18.1999 68.8431
27556 1 35.6085 16.6173 70.4257
27557 1 37.1911 18.1999 72.0083
27558 1 35.6085 16.6173 73.5909
27559 1 37.1911 18.1999 75.1735
27560 1 35.6085 16.6173 76.7561
27561 1 37.1911 18.1999 78.3387
27562 1 35.6085 19.7825 51.4345
27563 1 37.1911 21.3651 53.0171
27564 1 35.6085 19.7825 54.5997
27565 1 37.1911 21.3651 56.1823
27566 1 35.6085 19.7825 57.7649
27567 1 37.1911 21.3651 59.3475
27568 1 35.6085 19.7825 60.9301
27569 1 37.1911 21.3651 62.5127
27570 1 35.6085 19.7825 64.0953
27571 1 37.1911 21.3651 65.6779
27572 1 35.6085 19.7825 67.2605
27573 1 37.1911 21.3651 68.8431
27574 1 35.6085 19.7825 70.4257
27575 1 37.1911 21.3651 72.0083
27576 1 35.6085 19.7825 73.5909
27577 1 37.1911 21.3651 75.1735
27578 1 35.6085 19.7825 76.7561
27579 1 37.1911 21.3651 78.3387
27580 1 35.6085 22.9477 51.4345
27581 1 37.1911 24.5303 53.0171
27582 1 35.6085 22.9477 54.5997
27583 1 37.1911 24.5303 56.1823
27584 1 35.6085 22.9477 57.7649
27585 1 37.1911 24.5303 59.3475
27586 1 35.6085 22.9477 60.9301
27587 1 37.1911 24.5303 62.5127
27588 1 35.6085 22.9477 64.0953
27589 1 37.1911 24.5303 65.6779
27590 1 35.6085 22.9477 67.2605
27591 1 37.1911 24.5303 68.8431
27592 1 35.6085 22.9477 70.4257
27593 1 37.1911 24.5303 72.0083
27594 1 35.6085 22.9477 73.5909
27595 1 37.1911 24.5303 75.1735
27596 1 35.6085 22.9477 76.7561
27597 1 37.1911 24.5303 78.3387
27598 1 35.6085 26.1129 51.4345
27599 1 37.1911 27.6955 53.0171
27600 1 35.6085 26.1129 54.5997
27601 1 37.1911 27.6955 56.1823
27602 1 35.6085 26.1129 57.7649
27603 1 37.1911 27.6955 59.3475
27604 1 35.6085 26.1129 60.9301
27605 1 37.1911 27.6955 62.5127
27606 1 35.6085 26.1129 64.0953
27607 1 37.1911 27.6955 65.6779
27608 1 35.6085 26.1129 67.2605
27609 1 37.1911 27.6955 68.8431
27610 1 35.6085 26.1129 70.4257
27611 1 37.1911 27.6955 72.0083
27612 1 35.6085 26.1129 73.5909
27613 1 37.1911 27.6955 75.1735
27614 1 35.6085 26.1129 76.7561
27615 1 37.1911 27.6955 78.3387
27616 1 35.6085 29.2781 51.4345
27617 1 37.1911 30.8607 53.0171
27618 1 35.6085 29.2781 54.5997
27619 1 37.1911 30.8607 56.1823
27620 1 35.6085 29.2781 57.7649
27621 1 37.1911 30.8607 59.3475
27622 1 35.6085 29.2781 60.9301
27623 1 37.1911 30.8607 62.5127
27624 1 35.6085 29.2781 64.0953
27625 1 37.1911 30.8607 65.6779
27626 1 35.6085 29.2781 67.2605
27627 1 37.1911 30.8607 68.8431
27628 1 35.6085 29.2781 70.4257
27629 1 37.1911 30.8607 72.0083
27630 1 35.6085 29.2781 73.5909
27631 1 37.1911 30.8607 75.1735
27632 1 35.6085 29.2781 76.7561
27633 1 37.1911 30.8607 78.3387
27634 1 35.6085 32.4433 51.4345
27635 1 37.1911 34.0259 53.0171
27636 1 35.6085 32.4433 54.5997
27637 1 37.1911 34.0259 56.1823
27638 1 35.6085 32.4433 57.7649
27639 1 37.1911 34.0259 59.3475
27640 1 35.6085 32.4433 60.9301
27641 1 37.1911 34.0259 62.5127
27642 1 35.6085 32.4433 64.0953
27643 1 37.1911 34.0259 65.6779
27644 1 35.6085 32.4433 67.2605
27645 1 37.1911 34.0259 68.8431
27646 1 35.6085 32.4433 70.4257
27647 1 37.1911 34.0259 72.0083
27648 1 35.6085 32.4433 73.5909
27649 1 37.1911 34.0259 75.1735
27650 1 35.6085 32.4433 76.7561
27651 1 37.1911 34.0259 78.3387
27652 1 35.6085 35.6085 51.4345
27653 1 37.1911 37.1911 53.0171
27654 1 35.6085 35.6085 54.5997
27655 1 37.1911 37.1911 56.1823
27656 1 35.6085 35.6085 57.7649
27657 1 37.1911 37.1911 59.3475
27658 1 35.6085 35.6085 60.9301
27659 1 37.1911 37.1911 62.5127
27660 1 35.6085 35.6085 64.0953
27661 1 37.1911 37.1911 65.6779
27662 1 35.6085 35.6085 67.2605
27663 1 37.1911 37.1911 68.8431
27664 1 35.6085 35.6085 70.4257
27665 1 37.1911 37.1911 72.0083
27666 1 35.6085 35.6085 73.5909
27667 1 37.1911 37.1911 75.1735
27668 1 35.6085 35.6085 76.7561
27669 1 37.1911 37.1911 78.3387
27670 1 35.6085 38.7737 51.4345
27671 1 37.1911 40.3563 53.0171
27672 1 35.6085 38.7737 54.5997
27673 1 37.1911 40.3563 56.1823
27674 1 35.6085 38.7737 57.7649
27675 1 37.1911 40.3563 59.3475
27676 1 35.6085 38.7737 60.9301
27677 1 37.1911 40.3563 62.5127
27678 1 35.6085 38.7737 64.0953
27679 1 37.1911 40.3563 65.6779
27680 1 35.6085 38.7737 67.2605
27681 1 37.1911 40.3563 68.8431
27682 1 35.6085 38.7737 70.4257
27683 1 37.1911 40.3563 72.0083
27684 1 35.6085 38.7737 73.5909
27685 1 37.1911 40.3563 75.1735
27686 1 35.6085 38.7737 76.7561
27687 1 37.1911 40.3563 78.3387
27688 1 35.6085 41.9389 51.4345
27689 1 37.1911 43.5215 53.0171
27690 1 35.6085 41.9389 54.5997
27691 1 37.1911 43.5215 56.1823
27692 1 35.6085 41.9389 57.7649
27693 1 37.1911 43.5215 59.3475
27694 1 35.6085 41.9389 60.9301
27695 1 37.1911 43.5215 62.5127
27696 1 35.6085 41.9389 64.0953
27697 1 37.1911 43.5215 65.6779
27698 1 35.6085 41.9389 67.2605
27699 1 37.1911 43.5215 68.8431
27700 1 35.6085 41.9389 70.4257
27701 1 37.1911 43.5215 72.0083
27702 1 35.6085 41.9389 73.5909
27703 1 37.1911 43.5215 75.1735
27704 1 35.6085 41.9389 76.7561
27705 1 37.1911 43.5215 78.3387
27706 1 35.6085 45.1041 51.4345
27707 1 37.1911 46.6867 53.0171
27708 1 35.6085 45.1041 54.5997
27709 1 37.1911 46.6867 56.1823
27710 1 35.6085 45.1041 57.7649
27711 1 37.1911 46.6867 59.3475
27712 1 35.6085 45.1041 60.9301
27713 1 37.1911 46.6867 62.5127
27714 1 35.6085 45.1041 64.0953
27715 1 37.1911 46.6867 65.6779
27716 1 35.6085 45.1041 67.2605
27717 1 37.1911 46.6867 68.8431
27718 1 35.6085 45.1041 70.4257
27719 1 37.1911 46.6867 72.0083
27720 1 35.6085 45.1041 73.5909
27721 1 37.1911 46.6867 75.1735
27722 1 35.6085 45.1041 76.7561
27723 1 37.1911 46.6867 78.3387
27724 1 35.6085 48.2693 51.4345
27725 1 37.1911 49.8519 53.0171
27726 1 35.6085 48.2693 54.5997
27727 1 37.1911 49.8519 56.1823
27728 1 35.6085 48.2693 57.7649
27729 1 37.1911 49.8519 59.3475
27730 1 35.6085 48.2693 60.9301
27731 1 37.1911 49.8519 62.5127
27732 1 35.6085 48.2693 64.0953
27733 1 37.1911 49.8519 65.6779
27734 1 35.6085 48.2693 67.2605
27735 1 37.1911 49.8519 68.8431
27736 1 35.6085 48.2693 70.4257
27737 1 37.1911 49.8519 72.0083
27738 1 35.6085 48.2693 73.5909
27739 1 37.1911 49.8519 75.1735
27740 1 35.6085 48.2693 76.7561
27741 1 37.1911 49.8519 78.3387
27742 1 35.6085 51.4345 51.4345
27743 1 37.1911 53.0171 53.0171
27744 1 35.6085 51.4345 54.5997
27745 1 37.1911 53.0171 56.1823
27746 1 35.6085 51.4345 57.7649
27747 1 37.1911 53.0171 59.3475
27748 1 35.6085 51.4345 60.9301
27749 1 37.1911 53.0171 62.5127
27750 1 35.6085 51.4345 64.0953
27751 1 37.1911 53.0171 65.6779
27752 1 35.6085 51.4345 67.2605
27753 1 37.1911 53.0171 68.8431
27754 1 35.6085 51.4345 70.4257
27755 1 37.1911 53.0171 72.0083
27756 1 35.6085 51.4345 73.5909
27757 1 37.1911 53.0171 75.1735
27758 1 35.6085 51.4345 76.7561
27759 1 37.1911 53.0171 78.3387
27760 1 35.6085 54.5997 51.4345
27761 1 37.1911 56.1823 53.0171
27762 1 35.6085 54.5997 54.5997
27763 1 37.1911 56.1823 56.1823
27764 1 35.6085 54.5997 57.7649
27765 1 37.1911 56.1823 59.3475
27766 1 35.6085 54.5997 60.9301
27767 1 37.1911 56.1823 62.5127
27768 1 35.6085 54.5997 64.0953
27769 1 37.1911 56.1823 65.6779
27770 1 35.6085 54.5997 67.2605
27771 1 37.1911 56.1823 68.8431
27772 1 35.6085 54.5997 70.4257
27773 1 37.1911 56.1823 72.0083
27774 1 35.6085 54.5997 73.5909
27775 1 37.1911 56.1823 75.1735
27776 1 35.6085 54.5997 76.7561
27777 1 37.1911 56.1823 78.3387
27778 1 35.6085 57.7649 51.4345
27779 1 37.1911 59.3475 53.0171
27780 1 35.6085 57.7649 54.5997
27781 1 37.1911 59.3475 56.1823
27782 1 35.6085 57.7649 57.7649
27783 1 37.1911 59.3475 59.3475
27784 1 35.6085 57.7649 60.9301
27785 1 37.1911 59.3475 62.5127
27786 1 35.6085 57.7649 64.0953
27787 1 37.1911 59.3475 65.6779
27788 1 35.6085 57.7649 67.2605
27789 1 37.1911 59.3475 68.8431
27790 1 35.6085 57.7649 70.4257
27791 1 37.1911 59.3475 72.0083
27792 1 35.6085 57.7649 73.5909
27793 1 37.1911 59.3475 75.1735
27794 1 35.6085 57.7649 76.7561
27795 1 37.1911 59.3475 78.3387
27796 1 35.6085 60.9301 51.4345
27797 1 37.1911 62.5127 53.0171
27798 1 35.6085 60.9301 54.5997
27799 1 37.1911 62.5127 56.1823
27800 1 35.6085 60.9301 57.7649
27801 1 37.1911 62.5127 59.3475
27802 1 35.6085 60.9301 60.9301
27803 1 37.1911 62.5127 62.5127
27804 1 35.6085 60.9301 64.0953
27805 1 37.1911 62.5127 65.6779
27806 1 35.6085 60.9301 67.2605
27807 1 37.1911 62.5127 68.8431
27808 1 35.6085 60.9301 70.4257
27809 1 37.1911 62.5127 72.0083
27810 1 35.6085 60.9301 73.5909
27811 1 37.1911 62.5127 75.1735
27812 1 35.6085 60.9301 76.7561
27813 1 37.1911 62.5127 78.3387
27814 1 35.6085 64.0953 51.4345
27815 1 37.1911 65.6779 53.0171
27816 1 35.6085 64.0953 54.5997
27817 1 37.1911 65.6779 56.1823
27818 1 35.6085 64.0953 57.7649
27819 1 37.1911 65.6779 59.3475
27820 1 35.6085 64.0953 60.9301
27821 1 37.1911 65.6779 62.5127
27822 1 35.6085 64.0953 64.0953
27823 1 37.1911 65.6779 65.6779
27824 1 35.6085 64.0953 67.2605
27825 1 37.1911 65.6779 68.8431
27826 1 35.6085 64.0953 70.4257
27827 1 37.1911 65.6779 72.0083
27828 1 35.6085 64.0953 73.5909
27829 1 37.1911 65.6779 75.1735
27830 1 35.6085 64.0953 76.7561
27831 1 37.1911 65.6779 78.3387
27832 1 35.6085 67.2605 51.4345
27833 1 37.1911 68.8431 53.0171
27834 1 35.6085 67.2605 54.5997
27835 1 37.1911 68.8431 56.1823
27836 1 35.6085 67.2605 57.7649
27837 1 37.1911 68.8431 59.3475
27838 1 35.6085 67.2605 60.9301
27839 1 37.1911 68.8431 62.5127
27840 1 35.6085 67.2605 64.0953
27841 1 37.1911 68.8431 65.6779
27842 1 35.6085 67.2605 67.2605
27843 1 37.1911 68.8431 68.8431
27844 1 35.6085 67.2605 70.4257
27845 1 37.1911 68.8431 72.0083
27846 1 35.6085 67.2605 73.5909
27847 1 37.1911 68.8431 75.1735
27848 1 35.6085 67.2605 76.7561
27849 1 37.1911 68.8431 78.3387
27850 1 35.6085 70.4257 51.4345
27851 1 37.1911 72.0083 53.0171
27852 1 35.6085 70.4257 54.5997
27853 1 37.1911 72.0083 56.1823
27854 1 35.6085 70.4257 57.7649
27855 1 37.1911 72.0083 59.3475
27856 1 35.6085 70.4257 60.9301
27857 1 37.1911 72.0083 62.5127
27858 1 35.6085 70.4257 64.0953
27859 1 37.1911 72.0083 65.6779
27860 1 35.6085 70.4257 67.2605
27861 1 37.1911 72.0083 68.8431
27862 1 35.6085 70.4257 70.4257
27863 1 37.1911 72.0083 72.0083
27864 1 35.6085 70.4257 73.5909
27865 1 37.1911 72.0083 75.1735
27866 1 35.6085 70.4257 76.7561
27867 1 37.1911 72.0083 78.3387
27868 1 35.6085 73.5909 51.4345
27869 1 37.1911 75.1735 53.0171
27870 1 35.6085 73.5909 54.5997
27871 1 37.1911 75.1735 56.1823
27872 1 35.6085 73.5909 57.7649
27873 1 37.1911 75.1735 59.3475
27874 1 35.6085 73.5909 60.9301
27875 1 37.1911 75.1735 62.5127
27876 1 35.6085 73.5909 64.0953
27877 1 37.1911 75.1735 65.6779
27878 1 35.6085 73.5909 67.2605
27879 1 37.1911 75.1735 68.8431
27880 1 35.6085 73.5909 70.4257
27881 1 37.1911 75.1735 72.0083
27882 1 35.6085 73.5909 73.5909
27883 1 37.1911 75.1735 75.1735
27884 1 35.6085 73.5909 76.7561
27885 1 37.1911 75.1735 78.3387
27886 1 35.6085 76.7561 51.4345
27887 1 37.1911 78.3387 53.0171
27888 1 35.6085 76.7561 54.5997
27889 1 37.1911 78.3387 56.1823
27890 1 35.6085 76.7561 57.7649
27891 1 37.1911 78.3387 59.3475
27892 1 35.6085 76.7561 60.9301
27893 1 37.1911 78.3387 62.5127
27894 1 35.6085 76.7561 64.0953
27895 1 37.1911 78.3387 65.6779
27896 1 35.6085 76.7561 67.2605
27897 1 37.1911 78.3387 68.8431
27898 1 35.6085 76.7561 70.4257
27899 1 37.1911 78.3387 72.0083
27900 1 35.6085 76.7561 73.5909
27901 1 37.1911 78.3387 75.1735
27902 1 35.6085 76.7561 76.7561
27903 1 37.1911 78.3387 78.3387
27904 1 38.7737 0.7913 51.4345
27905 1 40.3563 2.3739 53.0171
27906 1 38.7737 0.7913 54.5997
27907 1 40.3563 2.3739 56.1823
27908 1 38.7737 0.7913 57.7649
27909 1 40.3563 2.3739 59.3475
27910 1 38.7737 0.7913 60.9301
27911 1 40.3563 2.3739 62.5127
27912 1 38.7737 0.7913 64.0953
27913 1 40.3563 2.3739 65.6779
27914 1 38.7737 0.7913 67.2605
27915 1 40.3563 2.3739 68.8431
27916 1 38.7737 0.7913 70.4257
27917 1 40.3563 2.3739 72.0083
27918 1 38.7737 0.7913 73.5909
27919 1 40.3563 2.3739 75.1735
27920 1 38.7737 0.7913 76.7561
27921 1 40.3563 2.3739 78.3387
27922 1 38.7737 3.9565 51.4345
27923 1 40.3563 5.5391 53.0171
27924 1 38.7737 3.9565 54.5997
27925 1 40.3563 5.5391 56.1823
27926 1 38.7737 3.9565 57.7649
27927 1 40.3563 5.5391 59.3475
27928 1 38.7737 3.9565 60.9301
27929 1 40.3563 5.5391 62.5127
27930 1 38.7737 3.9565 64.0953
27931 1 40.3563 5.5391 65.6779
27932 1 38.7737 3.9565 67.2605
27933 1 40.3563 5.5391 68.8431
27934 1 38.7737 3.9565 70.4257
27935 1 40.3563 5.5391 72.0083
27936 1 38.7737 3.9565 73.5909
27937 1 40.3563 5.5391 75.1735
27938 1 38.7737 3.9565 76.7561
27939 1 40.3563 5.5391 78.3387
27940 1 38.7737 7.1217 51.4345
27941 1 40.3563 8.7043 53.0171
27942 1 38.7737 7.1217 54.5997
27943 1 40.3563 8.7043 56.1823
27944 1 38.7737 7.1217 57.7649
27945 1 40.3563 8.7043 59.3475
27946 1 38.7737 7.1217 60.9301
27947 1 40.3563 8.7043 62.5127
27948 1 38.7737 7.1217 64.0953
27949 1 40.3563 8.7043 65.6779
27950 1 38.7737 7.1217 67.2605
27951 1 40.3563 8.7043 68.8431
27952 1 38.7737 7.1217 70.4257
27953 1 40.3563 8.7043 72.0083
27954 1 38.7737 7.1217 73.5909
27955 1 40.3563 8.7043 75.1735
27956 1 38.7737 7.1217 76.7561
27957 1 40.3563 8.7043 78.3387
27958 1 38.7737 10.2869 51.4345
27959 1 40.3563 11.8695 53.0171
27960 1 38.7737 10.2869 54.5997
27961 1 40.3563 11.8695 56.1823
27962 1 38.7737 10.2869 57.7649
27963 1 40.3563 11.8695 59.3475
27964 1 38.7737 10.2869 60.9301
27965 1 40.3563 11.8695 62.5127
27966 1 38.7737 10.2869 64.0953
27967 1 40.3563 11.8695 65.6779
27968 1 38.7737 10.2869 67.2605
27969 1 40.3563 11.8695 68.8431
27970 1 38.7737 10.2869 70.4257
27971 1 40.3563 11.8695 72.0083
27972 1 38.7737 10.2869 73.5909
27973 1 40.3563 11.8695 75.1735
27974 1 38.7737 10.2869 76.7561
27975 1 40.3563 11.8695 78.3387
27976 1 38.7737 13.4521 51.4345
27977 1 40.3563 15.0347 53.0171
27978 1 38.7737 13.4521 54.5997
27979 1 40.3563 15.0347 56.1823
27980 1 38.7737 13.4521 57.7649
27981 1 40.3563 15.0347 59.3475
27982 1 38.7737 13.4521 60.9301
27983 1 40.3563 15.0347 62.5127
27984 1 38.7737 13.4521 64.0953
27985 1 40.3563 15.0347 65.6779
27986 1 38.7737 13.4521 67.2605
27987 1 40.3563 15.0347 68.8431
27988 1 38.7737 13.4521 70.4257
27989 1 40.3563 15.0347 72.0083
27990 1 38.7737 13.4521 73.5909
27991 1 40.3563 15.0347 75.1735
27992 1 38.7737 13.4521 76.7561
27993 1 40.3563 15.0347 78.3387
27994 1 38.7737 16.6173 51.4345
27995 1 40.3563 18.1999 53.0171
27996 1 38.7737 16.6173 54.5997
27997 1 40.3563 18.1999 56.1823
27998 1 38.7737 16.6173 57.7649
27999 1 40.3563 18.1999 59.3475
28000 1 38.7737 16.6173 60.9301
28001 1 40.3563 18.1999 62.5127
28002 1 38.7737 16.6173 64.0953
28003 1 40.3563 18.1999 65.6779
28004 1 38.7737 16.6173 67.2605
28005 1 40.3563 18.1999 68.8431
28006 1 38.7737 16.6173 70.4257
28007 1 40.3563 18.1999 72.0083
28008 1 38.7737 16.6173 73.5909
28009 1 40.3563 18.1999 75.1735
28010 1 38.7737 16.6173 76.7561
28011 1 40.3563 18.1999 78.3387
28012 1 38.7737 19.7825 51.4345
28013 1 40.3563 21.3651 53.0171
28014 1 38.7737 19.7825 54.5997
28015 1 40.3563 21.3651 56.1823
28016 1 38.7737 19.7825 57.7649
28017 1 40.3563 21.3651 59.3475
28018 1 38.7737 19.7825 60.9301
28019 1 40.3563 21.3651 62.5127
28020 1 38.7737 19.7825 64.0953
28021 1 40.3563 21.3651 65.6779
28022 1 38.7737 19.7825 67.2605
28023 1 40.3563 21.3651 68.8431
28024 1 38.7737 19.7825 70.4257
28025 1 40.3563 21.3651 72.0083
28026 1 38.7737 19.7825 73.5909
28027 1 40.3563 21.3651 75.1735
28028 1 38.7737 19.7825 76.7561
28029 1 40.3563 21.3651 78.3387
28030 1 38.7737 22.9477 51.4345
28031 1 40.3563 24.5303 53.0171
28032 1 38.7737 22.9477 54.5997
28033 1 40.3563 24.5303 56.1823
28034 1 38.7737 22.9477 57.7649
28035 1 40.3563 24.5303 59.3475
28036 1 38.7737 22.9477 60.9301
28037 1 40.3563 24.5303 62.5127
28038 1 38.7737 22.9477 64.0953
28039 1 40.3563 24.5303 65.6779
28040 1 38.7737 22.9477 67.2605
28041 1 40.3563 24.5303 68.8431
28042 1 38.7737 22.9477 70.4257
28043 1 40.3563 24.5303 72.0083
28044 1 38.7737 22.9477 73.5909
28045 1 40.3563 24.5303 75.1735
28046 1 38.7737 22.9477 76.7561
28047 1 40.3563 24.5303 78.3387
28048 1 38.7737 26.1129 51.4345
28049 1 40.3563 27.6955 53.0171
28050 1 38.7737 26.1129 54.5997
28051 1 40.3563 27.6955 56.1823
28052 1 38.7737 26.1129 57.7649
28053 1 40.3563 27.6955 59.3475
28054 1 38.7737 26.1129 60.9301
28055 1 40.3563 27.6955 62.5127
28056 1 38.7737 26.1129 64.0953
28057 1 40.3563 27.6955 65.6779
28058 1 38.7737 26.1129 67.2605
28059 1 40.3563 27.6955 68.8431
28060 1 38.7737 26.1129 70.4257
28061 1 40.3563 27.6955 72.0083
28062 1 38.7737 26.1129 73.5909
28063 1 40.3563 27.6955 75.1735
28064 1 38.7737 26.1129 76.7561
28065 1 40.3563 27.6955 78.3387
28066 1 38.7737 29.2781 51.4345
28067 1 40.3563 30.8607 53.0171
28068 1 38.7737 29.2781 54.5997
28069 1 40.3563 30.8607 56.1823
28070 1 38.7737 29.2781 57.7649
28071 1 40.3563 30.8607 59.3475
28072 1 38.7737 29.2781 60.9301
28073 1 40.3563 30.8607 62.5127
28074 1 38.7737 29.2781 64.0953
28075 1 40.3563 30.8607 65.6779
28076 1 38.7737 29.2781 67.2605
28077 1 40.3563 30.8607 68.8431
28078 1 38.7737 29.2781 70.4257
28079 1 40.3563 30.8607 72.0083
28080 1 38.7737 29.2781 73.5909
28081 1 40.3563 30.8607 75.1735
28082 1 38.7737 29.2781 76.7561
28083 1 40.3563 30.8607 78.3387
28084 1 38.7737 32.4433 51.4345
28085 1 40.3563 34.0259 53.0171
28086 1 38.7737 32.4433 54.5997
28087 1 40.3563 34.0259 56.1823
28088 1 38.7737 32.4433 57.7649
28089 1 40.3563 34.0259 59.3475
28090 1 38.7737 32.4433 60.9301
28091 1 40.3563 34.0259 62.5127
28092 1 38.7737 32.4433 64.0953
28093 1 40.3563 34.0259 65.6779
28094 1 38.7737 32.4433 67.2605
28095 1 40.3563 34.0259 68.8431
28096 1 38.7737 32.4433 70.4257
28097 1 40.3563 34.0259 72.0083
28098 1 38.7737 32.4433 73.5909
28099 1 40.3563 34.0259 75.1735
28100 1 38.7737 32.4433 76.7561
28101 1 40.3563 34.0259 78.3387
28102 1 38.7737 35.6085 51.4345
28103 1 40.3563 37.1911 53.0171
28104 1 38.7737 35.6085 54.5997
28105 1 40.3563 37.1911 56.1823
28106 1 38.7737 35.6085 57.7649
28107 1 40.3563 37.1911 59.3475
28108 1 38.7737 35.6085 60.9301
28109 1 40.3563 37.1911 62.5127
28110 1 38.7737 35.6085 64.0953
28111 1 40.3563 37.1911 65.6779
28112 1 38.7737 35.6085 67.2605
28113 1 40.3563 37.1911 68.8431
28114 1 38.7737 35.6085 70.4257
28115 1 40.3563 37.1911 72.0083
28116 1 38.7737 35.6085 73.5909
28117 1 40.3563 37.1911 75.1735
28118 1 38.7737 35.6085 76.7561
28119 1 40.3563 37.1911 78.3387
28120 1 38.7737 38.7737 51.4345
28121 1 40.3563 40.3563 53.0171
28122 1 38.7737 38.7737 54.5997
28123 1 40.3563 40.3563 56.1823
28124 1 38.7737 38.7737 57.7649
28125 1 40.3563 40.3563 59.3475
28126 1 38.7737 38.7737 60.9301
28127 1 40.3563 40.3563 62.5127
28128 1 38.7737 38.7737 64.0953
28129 1 40.3563 40.3563 65.6779
28130 1 38.7737 38.7737 67.2605
28131 1 40.3563 40.3563 68.8431
28132 1 38.7737 38.7737 70.4257
28133 1 40.3563 40.3563 72.0083
28134 1 38.7737 38.7737 73.5909
28135 1 40.3563 40.3563 75.1735
28136 1 38.7737 38.7737 76.7561
28137 1 40.3563 40.3563 78.3387
28138 1 38.7737 41.9389 51.4345
28139 1 40.3563 43.5215 53.0171
28140 1 38.7737 41.9389 54.5997
28141 1 40.3563 43.5215 56.1823
28142 1 38.7737 41.9389 57.7649
28143 1 40.3563 43.5215 59.3475
28144 1 38.7737 41.9389 60.9301
28145 1 40.3563 43.5215 62.5127
28146 1 38.7737 41.9389 64.0953
28147 1 40.3563 43.5215 65.6779
28148 1 38.7737 41.9389 67.2605
28149 1 40.3563 43.5215 68.8431
28150 1 38.7737 41.9389 70.4257
28151 1 40.3563 43.5215 72.0083
28152 1 38.7737 41.9389 73.5909
28153 1 40.3563 43.5215 75.1735
28154 1 38.7737 41.9389 76.7561
28155 1 40.3563 43.5215 78.3387
28156 1 38.7737 45.1041 51.4345
28157 1 40.3563 46.6867 53.0171
28158 1 38.7737 45.1041 54.5997
28159 1 40.3563 46.6867 56.1823
28160 1 38.7737 45.1041 57.7649
28161 1 40.3563 46.6867 59.3475
28162 1 38.7737 45.1041 60.9301
28163 1 40.3563 46.6867 62.5127
28164 1 38.7737 45.1041 64.0953
28165 1 40.3563 46.6867 65.6779
28166 1 38.7737 45.1041 67.2605
28167 1 40.3563 46.6867 68.8431
28168 1 38.7737 45.1041 70.4257
28169 1 40.3563 46.6867 72.0083
28170 1 38.7737 45.1041 73.5909
28171 1 40.3563 46.6867 75.1735
28172 1 38.7737 45.1041 76.7561
28173 1 40.3563 46.6867 78.3387
28174 1 38.7737 48.2693 51.4345
28175 1 40.3563 49.8519 53.0171
28176 1 38.7737 48.2693 54.5997
28177 1 40.3563 49.8519 56.1823
28178 1 38.7737 48.2693 57.7649
28179 1 40.3563 49.8519 59.3475
28180 1 38.7737 48.2693 60.9301
28181 1 40.3563 49.8519 62.5127
28182 1 38.7737 48.2693 64.0953
28183 1 40.3563 49.8519 65.6779
28184 1 38.7737 48.2693 67.2605
28185 1 40.3563 49.8519 68.8431
28186 1 38.7737 48.2693 70.4257
28187 1 40.3563 49.8519 72.0083
28188 1 38.7737 48.2693 73.5909
28189 1 40.3563 49.8519 75.1735
28190 1 38.7737 48.2693 76.7561
28191 1 40.3563 49.8519 78.3387
28192 1 38.7737 51.4345 51.4345
28193 1 40.3563 53.0171 53.0171
28194 1 38.7737 51.4345 54.5997
28195 1 40.3563 53.0171 56.1823
28196 1 38.7737 51.4345 57.7649
28197 1 40.3563 53.0171 59.3475
28198 1 38.7737 51.4345 60.9301
28199 1 40.3563 53.0171 62.5127
28200 1 38.7737 51.4345 64.0953
28201 1 40.3563 53.0171 65.6779
28202 1 38.7737 51.4345 67.2605
28203 1 40.3563 53.0171 68.8431
28204 1 38.7737 51.4345 70.4257
28205 1 40.3563 53.0171 72.0083
28206 1 38.7737 51.4345 73.5909
28207 1 40.3563 53.0171 75.1735
28208 1 38.7737 51.4345 76.7561
28209 1 40.3563 53.0171 78.3387
28210 1 38.7737 54.5997 51.4345
28211 1 40.3563 56.1823 53.0171
28212 1 38.7737 54.5997 54.5997
28213 1 40.3563 56.1823 56.1823
28214 1 38.7737 54.5997 57.7649
28215 1 40.3563 56.1823 59.3475
28216 1 38.7737 54.5997 60.9301
28217 1 40.3563 56.1823 62.5127
28218 1 38.7737 54.5997 64.0953
28219 1 40.3563 56.1823 65.6779
28220 1 38.7737 54.5997 67.2605
28221 1 40.3563 56.1823 68.8431
28222 1 38.7737 54.5997 70.4257
28223 1 40.3563 56.1823 72.0083
28224 1 38.7737 54.5997 73.5909
28225 1 40.3563 56.1823 75.1735
28226 1 38.7737 54.5997 76.7561
28227 1 40.3563 56.1823 78.3387
28228 1 38.7737 57.7649 51.4345
28229 1 40.3563 59.3475 53.0171
28230 1 38.7737 57.7649 54.5997
28231 1 40.3563 59.3475 56.1823
28232 1 38.7737 57.7649 57.7649
28233 1 40.3563 59.3475 59.3475
28234 1 38.7737 57.7649 60.9301
28235 1 40.3563 59.3475 62.5127
28236 1 38.7737 57.7649 64.0953
28237 1 40.3563 59.3475 65.6779
28238 1 38.7737 57.7649 67.2605
28239 1 40.3563 59.3475 68.8431
28240 1 38.7737 57.7649 70.4257
28241 1 40.3563 59.3475 72.0083
28242 1 38.7737 57.7649 73.5909
28243 1 40.3563 59.3475 75.1735
28244 1 38.7737 57.7649 76.7561
28245 1 40.3563 59.3475 78.3387
28246 1 38.7737 60.9301 51.4345
28247 1 40.3563 62.5127 53.0171
28248 1 38.7737 60.9301 54.5997
28249 1 40.3563 62.5127 56.1823
28250 1 38.7737 60.9301 57.7649
28251 1 40.3563 62.5127 59.3475
28252 1 38.7737 60.9301 60.9301
28253 1 40.3563 62.5127 62.5127
28254 1 38.7737 60.9301 64.0953
28255 1 40.3563 62.5127 65.6779
28256 1 38.7737 60.9301 67.2605
28257 1 40.3563 62.5127 68.8431
28258 1 38.7737 60.9301 70.4257
28259 1 40.3563 62.5127 72.0083
28260 1 38.7737 60.9301 73.5909
28261 1 40.3563 62.5127 75.1735
28262 1 38.7737 60.9301 76.7561
28263 1 40.3563 62.5127 78.3387
28264 1 38.7737 64.0953 51.4345
28265 1 40.3563 65.6779 53.0171
28266 1 38.7737 64.0953 54.5997
28267 1 40.3563 65.6779 56.1823
28268 1 38.7737 64.0953 57.7649
28269 1 40.3563 65.6779 59.3475
28270 1 38.7737 64.0953 60.9301
28271 1 40.3563 65.6779 62.5127
28272 1 38.7737 64.0953 64.0953
28273 1 40.3563 65.6779 65.6779
28274 1 38.7737 64.0953 67.2605
28275 1 40.3563 65.6779 68.8431
28276 1 38.7737 64.0953 70.4257
28277 1 40.3563 65.6779 72.0083
28278 1 38.7737 64.0953 73.5909
28279 1 40.3563 65.6779 75.1735
28280 1 38.7737 64.0953 76.7561
28281 1 40.3563 65.6779 78.3387
28282 1 38.7737 67.2605 51.4345
28283 1 40.3563 68.8431 53.0171
28284 1 38.7737 67.2605 54.5997
28285 1 40.3563 68.8431 56.1823
28286 1 38.7737 67.2605 57.7649
28287 1 40.3563 68.8431 59.3475
28288 1 38.7737 67.2605 60.9301
28289 1 40.3563 68.8431 62.5127
28290 1 38.7737 67.2605 64.0953
28291 1 40.3563 68.8431 65.6779
28292 1 38.7737 67.2605 67.2605
28293 1 40.3563 68.8431 68.8431
28294 1 38.7737 67.2605 70.4257
28295 1 40.3563 68.8431 72.0083
28296 1 38.7737 67.2605 73.5909
28297 1 40.3563 68.8431 75.1735
28298 1 38.7737 67.2605 76.7561
28299 1 40.3563 68.8431 78.3387
28300 1 38.7737 70.4257 51.4345
28301 1 40.3563 72.0083 53.0171
28302 1 38.7737 70.4257 54.5997
28303 1 40.3563 72.0083 56.1823
28304 1 38.7737 70.4257 57.7649
28305 1 40.3563 72.0083 59.3475
28306 1 38.7737 70.4257 60.9301
28307 1 40.3563 72.0083 62.5127
28308 1 38.7737 70.4257 64.0953
28309 1 40.3563 72.0083 65.6779
28310 1 38.7737 70.4257 67.2605
28311 1 40.3563 72.0083 68.8431
28312 1 38.7737 70.4257 70.4257
28313 1 40.3563 72.0083 72.0083
28314 1 38.7737 70.4257 73.5909
28315 1 40.3563 72.0083 75.1735
28316 1 38.7737 70.4257 76.7561
28317 1 40.3563 72.0083 78.3387
28318 1 38.7737 73.5909 51.4345
28319 1 40.3563 75.1735 53.0171
28320 1 38.7737 73.5909 54.5997
28321 1 40.3563 75.1735 56.1823
28322 1 38.7737 73.5909 57.7649
28323 1 40.3563 75.1735 59.3475
28324 1 38.7737 73.5909 60.9301
28325 1 40.3563 75.1735 62.5127
28326 1 38.7737 73.5909 64.0953
28327 1 40.3563 75.1735 65.6779
28328 1 38.7737 73.5909 67.2605
28329 1 40.3563 75.1735 68.8431
28330 1 38.7737 73.5909 70.4257
28331 1 40.3563 75.1735 72.0083
28332 1 38.7737 73.5909 73.5909
28333 1 40.3563 75.1735 75.1735
28334 1 38.7737 73.5909 76.7561
28335 1 40.3563 75.1735 78.3387
28336 1 38.7737 76.7561 51.4345
28337 1 40.3563 78.3387 53.0171
28338 1 38.7737 76.7561 54.5997
28339 1 40.3563 78.3387 56.1823
28340 1 38.7737 76.7561 57.7649
28341 1 40.3563 78.3387 59.3475
28342 1 38.7737 76.7561 60.9301
28343 1 40.3563 78.3387 62.5127
28344 1 38.7737 76.7561 64.0953
28345 1 40.3563 78.3387 65.6779
28346 1 38.7737 76.7561 67.2605
28347 1 40.3563 78.3387 68.8431
28348 1 38.7737 76.7561 70.4257
28349 1 40.3563 78.3387 72.0083
28350 1 38.7737 76.7561 73.5909
28351 1 40.3563 78.3387 75.1735
28352 1 38.7737 76.7561 76.7561
28353 1 40.3563 78.3387 78.3387
28354 1 41.9389 0.7913 51.4345
28355 1 43.5215 2.3739 53.0171
28356 1 41.9389 0.7913 54.5997
28357 1 43.5215 2.3739 56.1823
28358 1 41.9389 0.7913 57.7649
28359 1 43.5215 2.3739 59.3475
28360 1 41.9389 0.7913 60.9301
28361 1 43.5215 2.3739 62.5127
28362 1 41.9389 0.7913 64.0953
28363 1 43.5215 2.3739 65.6779
28364 1 41.9389 0.7913 67.2605
28365 1 43.5215 2.3739 68.8431
28366 1 41.9389 0.7913 70.4257
28367 1 43.5215 2.3739 72.0083
28368 1 41.9389 0.7913 73.5909
28369 1 43.5215 2.3739 75.1735
28370 1 41.9389 0.7913 76.7561
28371 1 43.5215 2.3739 78.3387
28372 1 41.9389 3.9565 51.4345
28373 1 43.5215 5.5391 53.0171
28374 1 41.9389 3.9565 54.5997
28375 1 43.5215 5.5391 56.1823
28376 1 41.9389 3.9565 57.7649
28377 1 43.5215 5.5391 59.3475
28378 1 41.9389 3.9565 60.9301
28379 1 43.5215 5.5391 62.5127
28380 1 41.9389 3.9565 64.0953
28381 1 43.5215 5.5391 65.6779
28382 1 41.9389 3.9565 67.2605
28383 1 43.5215 5.5391 68.8431
28384 1 41.9389 3.9565 70.4257
28385 1 43.5215 5.5391 72.0083
28386 1 41.9389 3.9565 73.5909
28387 1 43.5215 5.5391 75.1735
28388 1 41.9389 3.9565 76.7561
28389 1 43.5215 5.5391 78.3387
28390 1 41.9389 7.1217 51.4345
28391 1 43.5215 8.7043 53.0171
28392 1 41.9389 7.1217 54.5997
28393 1 43.5215 8.7043 56.1823
28394 1 41.9389 7.1217 57.7649
28395 1 43.5215 8.7043 59.3475
28396 1 41.9389 7.1217 60.9301
28397 1 43.5215 8.7043 62.5127
28398 1 41.9389 7.1217 64.0953
28399 1 43.5215 8.7043 65.6779
28400 1 41.9389 7.1217 67.2605
28401 1 43.5215 8.7043 68.8431
28402 1 41.9389 7.1217 70.4257
28403 1 43.5215 8.7043 72.0083
28404 1 41.9389 7.1217 73.5909
28405 1 43.5215 8.7043 75.1735
28406 1 41.9389 7.1217 76.7561
28407 1 43.5215 8.7043 78.3387
28408 1 41.9389 10.2869 51.4345
28409 1 43.5215 11.8695 53.0171
28410 1 41.9389 10.2869 54.5997
28411 1 43.5215 11.8695 56.1823
28412 1 41.9389 10.2869 57.7649
28413 1 43.5215 11.8695 59.3475
28414 1 41.9389 10.2869 60.9301
28415 1 43.5215 11.8695 62.5127
28416 1 41.9389 10.2869 64.0953
28417 1 43.5215 11.8695 65.6779
28418 1 41.9389 10.2869 67.2605
28419 1 43.5215 11.8695 68.8431
28420 1 41.9389 10.2869 70.4257
28421 1 43.5215 11.8695 72.0083
28422 1 41.9389 10.2869 73.5909
28423 1 43.5215 11.8695 75.1735
28424 1 41.9389 10.2869 76.7561
28425 1 43.5215 11.8695 78.3387
28426 1 41.9389 13.4521 51.4345
28427 1 43.5215 15.0347 53.0171
28428 1 41.9389 13.4521 54.5997
28429 1 43.5215 15.0347 56.1823
28430 1 41.9389 13.4521 57.7649
28431 1 43.5215 15.0347 59.3475
28432 1 41.9389 13.4521 60.9301
28433 1 43.5215 15.0347 62.5127
28434 1 41.9389 13.4521 64.0953
28435 1 43.5215 15.0347 65.6779
28436 1 41.9389 13.4521 67.2605
28437 1 43.5215 15.0347 68.8431
28438 1 41.9389 13.4521 70.4257
28439 1 43.5215 15.0347 72.0083
28440 1 41.9389 13.4521 73.5909
28441 1 43.5215 15.0347 75.1735
28442 1 41.9389 13.4521 76.7561
28443 1 43.5215 15.0347 78.3387
28444 1 41.9389 16.6173 51.4345
28445 1 43.5215 18.1999 53.0171
28446 1 41.9389 16.6173 54.5997
28447 1 43.5215 18.1999 56.1823
28448 1 41.9389 16.6173 57.7649
28449 1 43.5215 18.1999 59.3475
28450 1 41.9389 16.6173 60.9301
28451 1 43.5215 18.1999 62.5127
28452 1 41.9389 16.6173 64.0953
28453 1 43.5215 18.1999 65.6779
28454 1 41.9389 16.6173 67.2605
28455 1 43.5215 18.1999 68.8431
28456 1 41.9389 16.6173 70.4257
28457 1 43.5215 18.1999 72.0083
28458 1 41.9389 16.6173 73.5909
28459 1 43.5215 18.1999 75.1735
28460 1 41.9389 16.6173 76.7561
28461 1 43.5215 18.1999 78.3387
28462 1 41.9389 19.7825 51.4345
28463 1 43.5215 21.3651 53.0171
28464 1 41.9389 19.7825 54.5997
28465 1 43.5215 21.3651 56.1823
28466 1 41.9389 19.7825 57.7649
28467 1 43.5215 21.3651 59.3475
28468 1 41.9389 19.7825 60.9301
28469 1 43.5215 21.3651 62.5127
28470 1 41.9389 19.7825 64.0953
28471 1 43.5215 21.3651 65.6779
28472 1 41.9389 19.7825 67.2605
28473 1 43.5215 21.3651 68.8431
28474 1 41.9389 19.7825 70.4257
28475 1 43.5215 21.3651 72.0083
28476 1 41.9389 19.7825 73.5909
28477 1 43.5215 21.3651 75.1735
28478 1 41.9389 19.7825 76.7561
28479 1 43.5215 21.3651 78.3387
28480 1 41.9389 22.9477 51.4345
28481 1 43.5215 24.5303 53.0171
28482 1 41.9389 22.9477 54.5997
28483 1 43.5215 24.5303 56.1823
28484 1 41.9389 22.9477 57.7649
28485 1 43.5215 24.5303 59.3475
28486 1 41.9389 22.9477 60.9301
28487 1 43.5215 24.5303 62.5127
28488 1 41.9389 22.9477 64.0953
28489 1 43.5215 24.5303 65.6779
28490 1 41.9389 22.9477 67.2605
28491 1 43.5215 24.5303 68.8431
28492 1 41.9389 22.9477 70.4257
28493 1 43.5215 24.5303 72.0083
28494 1 41.9389 22.9477 73.5909
28495 1 43.5215 24.5303 75.1735
28496 1 41.9389 22.9477 76.7561
28497 1 43.5215 24.5303 78.3387
28498 1 41.9389 26.1129 51.4345
28499 1 43.5215 27.6955 53.0171
28500 1 41.9389 26.1129 54.5997
28501 1 43.5215 27.6955 56.1823
28502 1 41.9389 26.1129 57.7649
28503 1 43.5215 27.6955 59.3475
28504 1 41.9389 26.1129 60.9301
28505 1 43.5215 27.6955 62.5127
28506 1 41.9389 26.1129 64.0953
28507 1 43.5215 27.6955 65.6779
28508 1 41.9389 26.1129 67.2605
28509 1 43.5215 27.6955 68.8431
28510 1 41.9389 26.1129 70.4257
28511 1 43.5215 27.6955 72.0083
28512 1 41.9389 26.1129 73.5909
28513 1 43.5215 27.6955 75.1735
28514 1 41.9389 26.1129 76.7561
28515 1 43.5215 27.6955 78.3387
28516 1 41.9389 29.2781 51.4345
28517 1 43.5215 30.8607 53.0171
28518 1 41.9389 29.2781 54.5997
28519 1 43.5215 30.8607 56.1823
28520 1 41.9389 29.2781 57.7649
28521 1 43.5215 30.8607 59.3475
28522 1 41.9389 29.2781 60.9301
28523 1 43.5215 30.8607 62.5127
28524 1 41.9389 29.2781 64.0953
28525 1 43.5215 30.8607 65.6779
28526 1 41.9389 29.2781 67.2605
28527 1 43.5215 30.8607 68.8431
28528 1 41.9389 29.2781 70.4257
28529 1 43.5215 30.8607 72.0083
28530 1 41.9389 29.2781 73.5909
28531 1 43.5215 30.8607 75.1735
28532 1 41.9389 29.2781 76.7561
28533 1 43.5215 30.8607 78.3387
28534 1 41.9389 32.4433 51.4345
28535 1 43.5215 34.0259 53.0171
28536 1 41.9389 32.4433 54.5997
28537 1 43.5215 34.0259 56.1823
28538 1 41.9389 32.4433 57.7649
28539 1 43.5215 34.0259 59.3475
28540 1 41.9389 32.4433 60.9301
28541 1 43.5215 34.0259 62.5127
28542 1 41.9389 32.4433 64.0953
28543 1 43.5215 34.0259 65.6779
28544 1 41.9389 32.4433 67.2605
28545 1 43.5215 34.0259 68.8431
28546 1 41.9389 32.4433 70.4257
28547 1 43.5215 34.0259 72.0083
28548 1 41.9389 32.4433 73.5909
28549 1 43.5215 34.0259 75.1735
28550 1 41.9389 32.4433 76.7561
28551 1 43.5215 34.0259 78.3387
28552 1 41.9389 35.6085 51.4345
28553 1 43.5215 37.1911 53.0171
28554 1 41.9389 35.6085 54.5997
28555 1 43.5215 37.1911 56.1823
28556 1 41.9389 35.6085 57.7649
28557 1 43.5215 37.1911 59.3475
28558 1 41.9389 35.6085 60.9301
28559 1 43.5215 37.1911 62.5127
28560 1 41.9389 35.6085 64.0953
28561 1 43.5215 37.1911 65.6779
28562 1 41.9389 35.6085 67.2605
28563 1 43.5215 37.1911 68.8431
28564 1 41.9389 35.6085 70.4257
28565 1 43.5215 37.1911 72.0083
28566 1 41.9389 35.6085 73.5909
28567 1 43.5215 37.1911 75.1735
28568 1 41.9389 35.6085 76.7561
28569 1 43.5215 37.1911 78.3387
28570 1 41.9389 38.7737 51.4345
28571 1 43.5215 40.3563 53.0171
28572 1 41.9389 38.7737 54.5997
28573 1 43.5215 40.3563 56.1823
28574 1 41.9389 38.7737 57.7649
28575 1 43.5215 40.3563 59.3475
28576 1 41.9389 38.7737 60.9301
28577 1 43.5215 40.3563 62.5127
28578 1 41.9389 38.7737 64.0953
28579 1 43.5215 40.3563 65.6779
28580 1 41.9389 38.7737 67.2605
28581 1 43.5215 40.3563 68.8431
28582 1 41.9389 38.7737 70.4257
28583 1 43.5215 40.3563 72.0083
28584 1 41.9389 38.7737 73.5909
28585 1 43.5215 40.3563 75.1735
28586 1 41.9389 38.7737 76.7561
28587 1 43.5215 40.3563 78.3387
28588 1 41.9389 41.9389 51.4345
28589 1 43.5215 43.5215 53.0171
28590 1 41.9389 41.9389 54.5997
28591 1 43.5215 43.5215 56.1823
28592 1 41.9389 41.9389 57.7649
28593 1 43.5215 43.5215 59.3475
28594 1 41.9389 41.9389 60.9301
28595 1 43.5215 43.5215 62.5127
28596 1 41.9389 41.9389 64.0953
28597 1 43.5215 43.5215 65.6779
28598 1 41.9389 41.9389 67.2605
28599 1 43.5215 43.5215 68.8431
28600 1 41.9389 41.9389 70.4257
28601 1 43.5215 43.5215 72.0083
28602 1 41.9389 41.9389 73.5909
28603 1 43.5215 43.5215 75.1735
28604 1 41.9389 41.9389 76.7561
28605 1 43.5215 43.5215 78.3387
28606 1 41.9389 45.1041 51.4345
28607 1 43.5215 46.6867 53.0171
28608 1 41.9389 45.1041 54.5997
28609 1 43.5215 46.6867 56.1823
28610 1 41.9389 45.1041 57.7649
28611 1 43.5215 46.6867 59.3475
28612 1 41.9389 45.1041 60.9301
28613 1 43.5215 46.6867 62.5127
28614 1 41.9389 45.1041 64.0953
28615 1 43.5215 46.6867 65.6779
28616 1 41.9389 45.1041 67.2605
28617 1 43.5215 46.6867 68.8431
28618 1 41.9389 45.1041 70.4257
28619 1 43.5215 46.6867 72.0083
28620 1 41.9389 45.1041 73.5909
28621 1 43.5215 46.6867 75.1735
28622 1 41.9389 45.1041 76.7561
28623 1 43.5215 46.6867 78.3387
28624 1 41.9389 48.2693 51.4345
28625 1 43.5215 49.8519 53.0171
28626 1 41.9389 48.2693 54.5997
28627 1 43.5215 49.8519 56.1823
28628 1 41.9389 48.2693 57.7649
28629 1 43.5215 49.8519 59.3475
28630 1 41.9389 48.2693 60.9301
28631 1 43.5215 49.8519 62.5127
28632 1 41.9389 48.2693 64.0953
28633 1 43.5215 49.8519 65.6779
28634 1 41.9389 48.2693 67.2605
28635 1 43.5215 49.8519 68.8431
28636 1 41.9389 48.2693 70.4257
28637 1 43.5215 49.8519 72.0083
28638 1 41.9389 48.2693 73.5909
28639 1 43.5215 49.8519 75.1735
28640 1 41.9389 48.2693 76.7561
28641 1 43.5215 49.8519 78.3387
28642 1 41.9389 51.4345 51.4345
28643 1 43.5215 53.0171 53.0171
28644 1 41.9389 51.4345 54.5997
28645 1 43.5215 53.0171 56.1823
28646 1 41.9389 51.4345 57.7649
28647 1 43.5215 53.0171 59.3475
28648 1 41.9389 51.4345 60.9301
28649 1 43.5215 53.0171 62.5127
28650 1 41.9389 51.4345 64.0953
28651 1 43.5215 53.0171 65.6779
28652 1 41.9389 51.4345 67.2605
28653 1 43.5215 53.0171 68.8431
28654 1 41.9389 51.4345 70.4257
28655 1 43.5215 53.0171 72.0083
28656 1 41.9389 51.4345 73.5909
28657 1 43.5215 53.0171 75.1735
28658 1 41.9389 51.4345 76.7561
28659 1 43.5215 53.0171 78.3387
28660 1 41.9389 54.5997 51.4345
28661 1 43.5215 56.1823 53.0171
28662 1 41.9389 54.5997 54.5997
28663 1 43.5215 56.1823 56.1823
28664 1 41.9389 54.5997 57.7649
28665 1 43.5215 56.1823 59.3475
28666 1 41.9389 54.5997 60.9301
28667 1 43.5215 56.1823 62.5127
28668 1 41.9389 54.5997 64.0953
28669 1 43.5215 56.1823 65.6779
28670 1 41.9389 54.5997 67.2605
28671 1 43.5215 56.1823 68.8431
28672 1 41.9389 54.5997 70.4257
28673 1 43.5215 56.1823 72.0083
28674 1 41.9389 54.5997 73.5909
28675 1 43.5215 56.1823 75.1735
28676 1 41.9389 54.5997 76.7561
28677 1 43.5215 56.1823 78.3387
28678 1 41.9389 57.7649 51.4345
28679 1 43.5215 59.3475 53.0171
28680 1 41.9389 57.7649 54.5997
28681 1 43.5215 59.3475 56.1823
28682 1 41.9389 57.7649 57.7649
28683 1 43.5215 59.3475 59.3475
28684 1 41.9389 57.7649 60.9301
28685 1 43.5215 59.3475 62.5127
28686 1 41.9389 57.7649 64.0953
28687 1 43.5215 59.3475 65.6779
28688 1 41.9389 57.7649 67.2605
28689 1 43.5215 59.3475 68.8431
28690 1 41.9389 57.7649 70.4257
28691 1 43.5215 59.3475 72.0083
28692 1 41.9389 57.7649 73.5909
28693 1 43.5215 59.3475 75.1735
28694 1 41.9389 57.7649 76.7561
28695 1 43.5215 59.3475 78.3387
28696 1 41.9389 60.9301 51.4345
28697 1 43.5215 62.5127 53.0171
28698 1 41.9389 60.9301 54.5997
28699 1 43.5215 62.5127 56.1823
28700 1 41.9389 60.9301 57.7649
28701 1 43.5215 62.5127 59.3475
28702 1 41.9389 60.9301 60.9301
28703 1 43.5215 62.5127 62.5127
28704 1 41.9389 60.9301 64.0953
28705 1 43.5215 62.5127 65.6779
28706 1 41.9389 60.9301 67.2605
28707 1 43.5215 62.5127 68.8431
28708 1 41.9389 60.9301 70.4257
28709 1 43.5215 62.5127 72.0083
28710 1 41.9389 60.9301 73.5909
28711 1 43.5215 62.5127 75.1735
28712 1 41.9389 60.9301 76.7561
28713 1 43.5215 62.5127 78.3387
28714 1 41.9389 64.0953 51.4345
28715 1 43.5215 65.6779 53.0171
28716 1 41.9389 64.0953 54.5997
28717 1 43.5215 65.6779 56.1823
28718 1 41.9389 64.0953 57.7649
28719 1 43.5215 65.6779 59.3475
28720 1 41.9389 64.0953 60.9301
28721 1 43.5215 65.6779 62.5127
28722 1 41.9389 64.0953 64.0953
28723 1 43.5215 65.6779 65.6779
28724 1 41.9389 64.0953 67.2605
28725 1 43.5215 65.6779 68.8431
28726 1 41.9389 64.0953 70.4257
28727 1 43.5215 65.6779 72.0083
28728 1 41.9389 64.0953 73.5909
28729 1 43.5215 65.6779 75.1735
28730 1 41.9389 64.0953 76.7561
28731 1 43.5215 65.6779 78.3387
28732 1 41.9389 67.2605 51.4345
28733 1 43.5215 68.8431 53.0171
28734 1 41.9389 67.2605 54.5997
28735 1 43.5215 68.8431 56.1823
28736 1 41.9389 67.2605 57.7649
28737 1 43.5215 68.8431 59.3475
28738 1 41.9389 67.2605 60.9301
28739 1 43.5215 68.8431 62.5127
28740 1 41.9389 67.2605 64.0953
28741 1 43.5215 68.8431 65.6779
28742 1 41.9389 67.2605 67.2605
28743 1 43.5215 68.8431 68.8431
28744 1 41.9389 67.2605 70.4257
28745 1 43.5215 68.8431 72.0083
28746 1 41.9389 67.2605 73.5909
28747 1 43.5215 68.8431 75.1735
28748 1 41.9389 67.2605 76.7561
28749 1 43.5215 68.8431 78.3387
28750 1 41.9389 70.4257 51.4345
28751 1 43.5215 72.0083 53.0171
28752 1 41.9389 70.4257 54.5997
28753 1 43.5215 72.0083 56.1823
28754 1 41.9389 70.4257 57.7649
28755 1 43.5215 72.0083 59.3475
28756 1 41.9389 70.4257 60.9301
28757 1 43.5215 72.0083 62.5127
28758 1 41.9389 70.4257 64.0953
28759 1 43.5215 72.0083 65.6779
28760 1 41.9389 70.4257 67.2605
28761 1 43.5215 72.0083 68.8431
28762 1 41.9389 70.4257 70.4257
28763 1 43.5215 72.0083 72.0083
28764 1 41.9389 70.4257 73.5909
28765 1 43.5215 72.0083 75.1735
28766 1 41.9389 70.4257 76.7561
28767 1 43.5215 72.0083 78.3387
28768 1 41.9389 73.5909 51.4345
28769 1 43.5215 75.1735 53.0171
28770 1 41.9389 73.5909 54.5997
28771 1 43.5215 75.1735 56.1823
28772 1 41.9389 73.5909 57.7649
28773 1 43.5215 75.1735 59.3475
28774 1 41.9389 73.5909 60.9301
28775 1 43.5215 75.1735 62.5127
28776 1 41.9389 73.5909 64.0953
28777 1 43.5215 75.1735 65.6779
28778 1 41.9389 73.5909 67.2605
28779 1 43.5215 75.1735 68.8431
28780 1 41.9389 73.5909 70.4257
28781 1 43.5215 75.1735 72.0083
28782 1 41.9389 73.5909 73.5909
28783 1 43.5215 75.1735 75.1735
28784 1 41.9389 73.5909 76.7561
28785 1 43.5215 75.1735 78.3387
28786 1 41.9389 76.7561 51.4345
28787 1 43.5215 78.3387 53.0171
28788 1 41.9389 76.7561 54.5997
28789 1 43.5215 78.3387 56.1823
28790 1 41.9389 76.7561 57.7649
28791 1 43.5215 78.3387 59.3475
28792 1 41.9389 76.7561 60.9301
28793 1 43.5215 78.3387 62.5127
28794 1 41.9389 76.7561 64.0953
28795 1 43.5215 78.3387 65.6779
28796 1 41.9389 76.7561 67.2605
28797 1 43.5215 78.3387 68.8431
28798 1 41.9389 76.7561 70.4257
28799 1 43.5215 78.3387 72.0083
28800 1 41.9389 76.7561 73.5909
28801 1 43.5215 78.3387 75.1735
28802 1 41.9389 76.7561 76.7561
28803 1 43.5215 78.3387 78.3387
28804 1 45.1041 0.7913 51.4345
28805 1 46.6867 2.3739 53.0171
28806 1 45.1041 0.7913 54.5997
28807 1 46.6867 2.3739 56.1823
28808 1 45.1041 0.7913 57.7649
28809 1 46.6867 2.3739 59.3475
28810 1 45.1041 0.7913 60.9301
28811 1 46.6867 2.3739 62.5127
28812 1 45.1041 0.7913 64.0953
28813 1 46.6867 2.3739 65.6779
28814 1 45.1041 0.7913 67.2605
28815 1 46.6867 2.3739 68.8431
28816 1 45.1041 0.7913 70.4257
28817 1 46.6867 2.3739 72.0083
28818 1 45.1041 0.7913 73.5909
28819 1 46.6867 2.3739 75.1735
28820 1 45.1041 0.7913 76.7561
28821 1 46.6867 2.3739 78.3387
28822 1 45.1041 3.9565 51.4345
28823 1 46.6867 5.5391 53.0171
28824 1 45.1041 3.9565 54.5997
28825 1 46.6867 5.5391 56.1823
28826 1 45.1041 3.9565 57.7649
28827 1 46.6867 5.5391 59.3475
28828 1 45.1041 3.9565 60.9301
28829 1 46.6867 5.5391 62.5127
28830 1 45.1041 3.9565 64.0953
28831 1 46.6867 5.5391 65.6779
28832 1 45.1041 3.9565 67.2605
28833 1 46.6867 5.5391 68.8431
28834 1 45.1041 3.9565 70.4257
28835 1 46.6867 5.5391 72.0083
28836 1 45.1041 3.9565 73.5909
28837 1 46.6867 5.5391 75.1735
28838 1 45.1041 3.9565 76.7561
28839 1 46.6867 5.5391 78.3387
28840 1 45.1041 7.1217 51.4345
28841 1 46.6867 8.7043 53.0171
28842 1 45.1041 7.1217 54.5997
28843 1 46.6867 8.7043 56.1823
28844 1 45.1041 7.1217 57.7649
28845 1 46.6867 8.7043 59.3475
28846 1 45.1041 7.1217 60.9301
28847 1 46.6867 8.7043 62.5127
28848 1 45.1041 7.1217 64.0953
28849 1 46.6867 8.7043 65.6779
28850 1 45.1041 7.1217 67.2605
28851 1 46.6867 8.7043 68.8431
28852 1 45.1041 7.1217 70.4257
28853 1 46.6867 8.7043 72.0083
28854 1 45.1041 7.1217 73.5909
28855 1 46.6867 8.7043 75.1735
28856 1 45.1041 7.1217 76.7561
28857 1 46.6867 8.7043 78.3387
28858 1 45.1041 10.2869 51.4345
28859 1 46.6867 11.8695 53.0171
28860 1 45.1041 10.2869 54.5997
28861 1 46.6867 11.8695 56.1823
28862 1 45.1041 10.2869 57.7649
28863 1 46.6867 11.8695 59.3475
28864 1 45.1041 10.2869 60.9301
28865 1 46.6867 11.8695 62.5127
28866 1 45.1041 10.2869 64.0953
28867 1 46.6867 11.8695 65.6779
28868 1 45.1041 10.2869 67.2605
28869 1 46.6867 11.8695 68.8431
28870 1 45.1041 10.2869 70.4257
28871 1 46.6867 11.8695 72.0083
28872 1 45.1041 10.2869 73.5909
28873 1 46.6867 11.8695 75.1735
28874 1 45.1041 10.2869 76.7561
28875 1 46.6867 11.8695 78.3387
28876 1 45.1041 13.4521 51.4345
28877 1 46.6867 15.0347 53.0171
28878 1 45.1041 13.4521 54.5997
28879 1 46.6867 15.0347 56.1823
28880 1 45.1041 13.4521 57.7649
28881 1 46.6867 15.0347 59.3475
28882 1 45.1041 13.4521 60.9301
28883 1 46.6867 15.0347 62.5127
28884 1 45.1041 13.4521 64.0953
28885 1 46.6867 15.0347 65.6779
28886 1 45.1041 13.4521 67.2605
28887 1 46.6867 15.0347 68.8431
28888 1 45.1041 13.4521 70.4257
28889 1 46.6867 15.0347 72.0083
28890 1 45.1041 13.4521 73.5909
28891 1 46.6867 15.0347 75.1735
28892 1 45.1041 13.4521 76.7561
28893 1 46.6867 15.0347 78.3387
28894 1 45.1041 16.6173 51.4345
28895 1 46.6867 18.1999 53.0171
28896 1 45.1041 16.6173 54.5997
28897 1 46.6867 18.1999 56.1823
28898 1 45.1041 16.6173 57.7649
28899 1 46.6867 18.1999 59.3475
28900 1 45.1041 16.6173 60.9301
28901 1 46.6867 18.1999 62.5127
28902 1 45.1041 16.6173 64.0953
28903 1 46.6867 18.1999 65.6779
28904 1 45.1041 16.6173 67.2605
28905 1 46.6867 18.1999 68.8431
28906 1 45.1041 16.6173 70.4257
28907 1 46.6867 18.1999 72.0083
28908 1 45.1041 16.6173 73.5909
28909 1 46.6867 18.1999 75.1735
28910 1 45.1041 16.6173 76.7561
28911 1 46.6867 18.1999 78.3387
28912 1 45.1041 19.7825 51.4345
28913 1 46.6867 21.3651 53.0171
28914 1 45.1041 19.7825 54.5997
28915 1 46.6867 21.3651 56.1823
28916 1 45.1041 19.7825 57.7649
28917 1 46.6867 21.3651 59.3475
28918 1 45.1041 19.7825 60.9301
28919 1 46.6867 21.3651 62.5127
28920 1 45.1041 19.7825 64.0953
28921 1 46.6867 21.3651 65.6779
28922 1 45.1041 19.7825 67.2605
28923 1 46.6867 21.3651 68.8431
28924 1 45.1041 19.7825 70.4257
28925 1 46.6867 21.3651 72.0083
28926 1 45.1041 19.7825 73.5909
28927 1 46.6867 21.3651 75.1735
28928 1 45.1041 19.7825 76.7561
28929 1 46.6867 21.3651 78.3387
28930 1 45.1041 22.9477 51.4345
28931 1 46.6867 24.5303 53.0171
28932 1 45.1041 22.9477 54.5997
28933 1 46.6867 24.5303 56.1823
28934 1 45.1041 22.9477 57.7649
28935 1 46.6867 24.5303 59.3475
28936 1 45.1041 22.9477 60.9301
28937 1 46.6867 24.5303 62.5127
28938 1 45.1041 22.9477 64.0953
28939 1 46.6867 24.5303 65.6779
28940 1 45.1041 22.9477 67.2605
28941 1 46.6867 24.5303 68.8431
28942 1 45.1041 22.9477 70.4257
28943 1 46.6867 24.5303 72.0083
28944 1 45.1041 22.9477 73.5909
28945 1 46.6867 24.5303 75.1735
28946 1 45.1041 22.9477 76.7561
28947 1 46.6867 24.5303 78.3387
28948 1 45.1041 26.1129 51.4345
28949 1 46.6867 27.6955 53.0171
28950 1 45.1041 26.1129 54.5997
28951 1 46.6867 27.6955 56.1823
28952 1 45.1041 26.1129 57.7649
28953 1 46.6867 27.6955 59.3475
28954 1 45.1041 26.1129 60.9301
28955 1 46.6867 27.6955 62.5127
28956 1 45.1041 26.1129 64.0953
28957 1 46.6867 27.6955 65.6779
28958 1 45.1041 26.1129 67.2605
28959 1 46.6867 27.6955 68.8431
28960 1 45.1041 26.1129 70.4257
28961 1 46.6867 27.6955 72.0083
28962 1 45.1041 26.1129 73.5909
28963 1 46.6867 27.6955 75.1735
28964 1 45.1041 26.1129 76.7561
28965 1 46.6867 27.6955 78.3387
28966 1 45.1041 29.2781 51.4345
28967 1 46.6867 30.8607 53.0171
28968 1 45.1041 29.2781 54.5997
28969 1 46.6867 30.8607 56.1823
28970 1 45.1041 29.2781 57.7649
28971 1 46.6867 30.8607 59.3475
28972 1 45.1041 29.2781 60.9301
28973 1 46.6867 30.8607 62.5127
28974 1 45.1041 29.2781 64.0953
28975 1 46.6867 30.8607 65.6779
28976 1 45.1041 29.2781 67.2605
28977 1 46.6867 30.8607 68.8431
28978 1 45.1041 29.2781 70.4257
28979 1 46.6867 30.8607 72.0083
28980 1 45.1041 29.2781 73.5909
28981 1 46.6867 30.8607 75.1735
28982 1 45.1041 29.2781 76.7561
28983 1 46.6867 30.8607 78.3387
28984 1 45.1041 32.4433 51.4345
28985 1 46.6867 34.0259 53.0171
28986 1 45.1041 32.4433 54.5997
28987 1 46.6867 34.0259 56.1823
28988 1 45.1041 32.4433 57.7649
28989 1 46.6867 34.0259 59.3475
28990 1 45.1041 32.4433 60.9301
28991 1 46.6867 34.0259 62.5127
28992 1 45.1041 32.4433 64.0953
28993 1 46.6867 34.0259 65.6779
28994 1 45.1041 32.4433 67.2605
28995 1 46.6867 34.0259 68.8431
28996 1 45.1041 32.4433 70.4257
28997 1 46.6867 34.0259 72.0083
28998 1 45.1041 32.4433 73.5909
28999 1 46.6867 34.0259 75.1735
29000 1 45.1041 32.4433 76.7561
29001 1 46.6867 34.0259 78.3387
29002 1 45.1041 35.6085 51.4345
29003 1 46.6867 37.1911 53.0171
29004 1 45.1041 35.6085 54.5997
29005 1 46.6867 37.1911 56.1823
29006 1 45.1041 35.6085 57.7649
29007 1 46.6867 37.1911 59.3475
29008 1 45.1041 35.6085 60.9301
29009 1 46.6867 37.1911 62.5127
29010 1 45.1041 35.6085 64.0953
29011 1 46.6867 37.1911 65.6779
29012 1 45.1041 35.6085 67.2605
29013 1 46.6867 37.1911 68.8431
29014 1 45.1041 35.6085 70.4257
29015 1 46.6867 37.1911 72.0083
29016 1 45.1041 35.6085 73.5909
29017 1 46.6867 37.1911 75.1735
29018 1 45.1041 35.6085 76.7561
29019 1 46.6867 37.1911 78.3387
29020 1 45.1041 38.7737 51.4345
29021 1 46.6867 40.3563 53.0171
29022 1 45.1041 38.7737 54.5997
29023 1 46.6867 40.3563 56.1823
29024 1 45.1041 38.7737 57.7649
29025 1 46.6867 40.3563 59.3475
29026 1 45.1041 38.7737 60.9301
29027 1 46.6867 40.3563 62.5127
29028 1 45.1041 38.7737 64.0953
29029 1 46.6867 40.3563 65.6779
29030 1 45.1041 38.7737 67.2605
29031 1 46.6867 40.3563 68.8431
29032 1 45.1041 38.7737 70.4257
29033 1 46.6867 40.3563 72.0083
29034 1 45.1041 38.7737 73.5909
29035 1 46.6867 40.3563 75.1735
29036 1 45.1041 38.7737 76.7561
29037 1 46.6867 40.3563 78.3387
29038 1 45.1041 41.9389 51.4345
29039 1 46.6867 43.5215 53.0171
29040 1 45.1041 41.9389 54.5997
29041 1 46.6867 43.5215 56.1823
29042 1 45.1041 41.9389 57.7649
29043 1 46.6867 43.5215 59.3475
29044 1 45.1041 41.9389 60.9301
29045 1 46.6867 43.5215 62.5127
29046 1 45.1041 41.9389 64.0953
29047 1 46.6867 43.5215 65.6779
29048 1 45.1041 41.9389 67.2605
29049 1 46.6867 43.5215 68.8431
29050 1 45.1041 41.9389 70.4257
29051 1 46.6867 43.5215 72.0083
29052 1 45.1041 41.9389 73.5909
29053 1 46.6867 43.5215 75.1735
29054 1 45.1041 41.9389 76.7561
29055 1 46.6867 43.5215 78.3387
29056 1 45.1041 45.1041 51.4345
29057 1 46.6867 46.6867 53.0171
29058 1 45.1041 45.1041 54.5997
29059 1 46.6867 46.6867 56.1823
29060 1 45.1041 45.1041 57.7649
29061 1 46.6867 46.6867 59.3475
29062 1 45.1041 45.1041 60.9301
29063 1 46.6867 46.6867 62.5127
29064 1 45.1041 45.1041 64.0953
29065 1 46.6867 46.6867 65.6779
29066 1 45.1041 45.1041 67.2605
29067 1 46.6867 46.6867 68.8431
29068 1 45.1041 45.1041 70.4257
29069 1 46.6867 46.6867 72.0083
29070 1 45.1041 45.1041 73.5909
29071 1 46.6867 46.6867 75.1735
29072 1 45.1041 45.1041 76.7561
29073 1 46.6867 46.6867 78.3387
29074 1 45.1041 48.2693 51.4345
29075 1 46.6867 49.8519 53.0171
29076 1 45.1041 48.2693 54.5997
29077 1 46.6867 49.8519 56.1823
29078 1 45.1041 48.2693 57.7649
29079 1 46.6867 49.8519 59.3475
29080 1 45.1041 48.2693 60.9301
29081 1 46.6867 49.8519 62.5127
29082 1 45.1041 48.2693 64.0953
29083 1 46.6867 49.8519 65.6779
29084 1 45.1041 48.2693 67.2605
29085 1 46.6867 49.8519 68.8431
29086 1 45.1041 48.2693 70.4257
29087 1 46.6867 49.8519 72.0083
29088 1 45.1041 48.2693 73.5909
29089 1 46.6867 49.8519 75.1735
29090 1 45.1041 48.2693 76.7561
29091 1 46.6867 49.8519 78.3387
29092 1 45.1041 51.4345 51.4345
29093 1 46.6867 53.0171 53.0171
29094 1 45.1041 51.4345 54.5997
29095 1 46.6867 53.0171 56.1823
29096 1 45.1041 51.4345 57.7649
29097 1 46.6867 53.0171 59.3475
29098 1 45.1041 51.4345 60.9301
29099 1 46.6867 53.0171 62.5127
29100 1 45.1041 51.4345 64.0953
29101 1 46.6867 53.0171 65.6779
29102 1 45.1041 51.4345 67.2605
29103 1 46.6867 53.0171 68.8431
29104 1 45.1041 51.4345 70.4257
29105 1 46.6867 53.0171 72.0083
29106 1 45.1041 51.4345 73.5909
29107 1 46.6867 53.0171 75.1735
29108 1 45.1041 51.4345 76.7561
29109 1 46.6867 53.0171 78.3387
29110 1 45.1041 54.5997 51.4345
29111 1 46.6867 56.1823 53.0171
29112 1 45.1041 54.5997 54.5997
29113 1 46.6867 56.1823 56.1823
29114 1 45.1041 54.5997 57.7649
29115 1 46.6867 56.1823 59.3475
29116 1 45.1041 54.5997 60.9301
29117 1 46.6867 56.1823 62.5127
29118 1 45.1041 54.5997 64.0953
29119 1 46.6867 56.1823 65.6779
29120 1 45.1041 54.5997 67.2605
29121 1 46.6867 56.1823 68.8431
29122 1 45.1041 54.5997 70.4257
29123 1 46.6867 56.1823 72.0083
29124 1 45.1041 54.5997 73.5909
29125 1 46.6867 56.1823 75.1735
29126 1 45.1041 54.5997 76.7561
29127 1 46.6867 56.1823 78.3387
29128 1 45.1041 57.7649 51.4345
29129 1 46.6867 59.3475 53.0171
29130 1 45.1041 57.7649 54.5997
29131 1 46.6867 59.3475 56.1823
29132 1 45.1041 57.7649 57.7649
29133 1 46.6867 59.3475 59.3475
29134 1 45.1041 57.7649 60.9301
29135 1 46.6867 59.3475 62.5127
29136 1 45.1041 57.7649 64.0953
29137 1 46.6867 59.3475 65.6779
29138 1 45.1041 57.7649 67.2605
29139 1 46.6867 59.3475 68.8431
29140 1 45.1041 57.7649 70.4257
29141 1 46.6867 59.3475 72.0083
29142 1 45.1041 57.7649 73.5909
29143 1 46.6867 59.3475 75.1735
29144 1 45.1041 57.7649 76.7561
29145 1 46.6867 59.3475 78.3387
29146 1 45.1041 60.9301 51.4345
29147 1 46.6867 62.5127 53.0171
29148 1 45.1041 60.9301 54.5997
29149 1 46.6867 62.5127 56.1823
29150 1 45.1041 60.9301 57.7649
29151 1 46.6867 62.5127 59.3475
29152 1 45.1041 60.9301 60.9301
29153 1 46.6867 62.5127 62.5127
29154 1 45.1041 60.9301 64.0953
29155 1 46.6867 62.5127 65.6779
29156 1 45.1041 60.9301 67.2605
29157 1 46.6867 62.5127 68.8431
29158 1 45.1041 60.9301 70.4257
29159 1 46.6867 62.5127 72.0083
29160 1 45.1041 60.9301 73.5909
29161 1 46.6867 62.5127 75.1735
29162 1 45.1041 60.9301 76.7561
29163 1 46.6867 62.5127 78.3387
29164 1 45.1041 64.0953 51.4345
29165 1 46.6867 65.6779 53.0171
29166 1 45.1041 64.0953 54.5997
29167 1 46.6867 65.6779 56.1823
29168 1 45.1041 64.0953 57.7649
29169 1 46.6867 65.6779 59.3475
29170 1 45.1041 64.0953 60.9301
29171 1 46.6867 65.6779 62.5127
29172 1 45.1041 64.0953 64.0953
29173 1 46.6867 65.6779 65.6779
29174 1 45.1041 64.0953 67.2605
29175 1 46.6867 65.6779 68.8431
29176 1 45.1041 64.0953 70.4257
29177 1 46.6867 65.6779 72.0083
29178 1 45.1041 64.0953 73.5909
29179 1 46.6867 65.6779 75.1735
29180 1 45.1041 64.0953 76.7561
29181 1 46.6867 65.6779 78.3387
29182 1 45.1041 67.2605 51.4345
29183 1 46.6867 68.8431 53.0171
29184 1 45.1041 67.2605 54.5997
29185 1 46.6867 68.8431 56.1823
29186 1 45.1041 67.2605 57.7649
29187 1 46.6867 68.8431 59.3475
29188 1 45.1041 67.2605 60.9301
29189 1 46.6867 68.8431 62.5127
29190 1 45.1041 67.2605 64.0953
29191 1 46.6867 68.8431 65.6779
29192 1 45.1041 67.2605 67.2605
29193 1 46.6867 68.8431 68.8431
29194 1 45.1041 67.2605 70.4257
29195 1 46.6867 68.8431 72.0083
29196 1 45.1041 67.2605 73.5909
29197 1 46.6867 68.8431 75.1735
29198 1 45.1041 67.2605 76.7561
29199 1 46.6867 68.8431 78.3387
29200 1 45.1041 70.4257 51.4345
29201 1 46.6867 72.0083 53.0171
29202 1 45.1041 70.4257 54.5997
29203 1 46.6867 72.0083 56.1823
29204 1 45.1041 70.4257 57.7649
29205 1 46.6867 72.0083 59.3475
29206 1 45.1041 70.4257 60.9301
29207 1 46.6867 72.0083 62.5127
29208 1 45.1041 70.4257 64.0953
29209 1 46.6867 72.0083 65.6779
29210 1 45.1041 70.4257 67.2605
29211 1 46.6867 72.0083 68.8431
29212 1 45.1041 70.4257 70.4257
29213 1 46.6867 72.0083 72.0083
29214 1 45.1041 70.4257 73.5909
29215 1 46.6867 72.0083 75.1735
29216 1 45.1041 70.4257 76.7561
29217 1 46.6867 72.0083 78.3387
29218 1 45.1041 73.5909 51.4345
29219 1 46.6867 75.1735 53.0171
29220 1 45.1041 73.5909 54.5997
29221 1 46.6867 75.1735 56.1823
29222 1 45.1041 73.5909 57.7649
29223 1 46.6867 75.1735 59.3475
29224 1 45.1041 73.5909 60.9301
29225 1 46.6867 75.1735 62.5127
29226 1 45.1041 73.5909 64.0953
29227 1 46.6867 75.1735 65.6779
29228 1 45.1041 73.5909 67.2605
29229 1 46.6867 75.1735 68.8431
29230 1 45.1041 73.5909 70.4257
29231 1 46.6867 75.1735 72.0083
29232 1 45.1041 73.5909 73.5909
29233 1 46.6867 75.1735 75.1735
29234 1 45.1041 73.5909 76.7561
29235 1 46.6867 75.1735 78.3387
29236 1 45.1041 76.7561 51.4345
29237 1 46.6867 78.3387 53.0171
29238 1 45.1041 76.7561 54.5997
29239 1 46.6867 78.3387 56.1823
29240 1 45.1041 76.7561 57.7649
29241 1 46.6867 78.3387 59.3475
29242 1 45.1041 76.7561 60.9301
29243 1 46.6867 78.3387 62.5127
29244 1 45.1041 76.7561 64.0953
29245 1 46.6867 78.3387 65.6779
29246 1 45.1041 76.7561 67.2605
29247 1 46.6867 78.3387 68.8431
29248 1 45.1041 76.7561 70.4257
29249 1 46.6867 78.3387 72.0083
29250 1 45.1041 76.7561 73.5909
29251 1 46.6867 78.3387 75.1735
29252 1 45.1041 76.7561 76.7561
29253 1 46.6867 78.3387 78.3387
29254 1 48.2693 0.7913 51.4345
29255 1 49.8519 2.3739 53.0171
29256 1 48.2693 0.7913 54.5997
29257 1 49.8519 2.3739 56.1823
29258 1 48.2693 0.7913 57.7649
29259 1 49.8519 2.3739 59.3475
29260 1 48.2693 0.7913 60.9301
29261 1 49.8519 2.3739 62.5127
29262 1 48.2693 0.7913 64.0953
29263 1 49.8519 2.3739 65.6779
29264 1 48.2693 0.7913 67.2605
29265 1 49.8519 2.3739 68.8431
29266 1 48.2693 0.7913 70.4257
29267 1 49.8519 2.3739 72.0083
29268 1 48.2693 0.7913 73.5909
29269 1 49.8519 2.3739 75.1735
29270 1 48.2693 0.7913 76.7561
29271 1 49.8519 2.3739 78.3387
29272 1 48.2693 3.9565 51.4345
29273 1 49.8519 5.5391 53.0171
29274 1 48.2693 3.9565 54.5997
29275 1 49.8519 5.5391 56.1823
29276 1 48.2693 3.9565 57.7649
29277 1 49.8519 5.5391 59.3475
29278 1 48.2693 3.9565 60.9301
29279 1 49.8519 5.5391 62.5127
29280 1 48.2693 3.9565 64.0953
29281 1 49.8519 5.5391 65.6779
29282 1 48.2693 3.9565 67.2605
29283 1 49.8519 5.5391 68.8431
29284 1 48.2693 3.9565 70.4257
29285 1 49.8519 5.5391 72.0083
29286 1 48.2693 3.9565 73.5909
29287 1 49.8519 5.5391 75.1735
29288 1 48.2693 3.9565 76.7561
29289 1 49.8519 5.5391 78.3387
29290 1 48.2693 7.1217 51.4345
29291 1 49.8519 8.7043 53.0171
29292 1 48.2693 7.1217 54.5997
29293 1 49.8519 8.7043 56.1823
29294 1 48.2693 7.1217 57.7649
29295 1 49.8519 8.7043 59.3475
29296 1 48.2693 7.1217 60.9301
29297 1 49.8519 8.7043 62.5127
29298 1 48.2693 7.1217 64.0953
29299 1 49.8519 8.7043 65.6779
29300 1 48.2693 7.1217 67.2605
29301 1 49.8519 8.7043 68.8431
29302 1 48.2693 7.1217 70.4257
29303 1 49.8519 8.7043 72.0083
29304 1 48.2693 7.1217 73.5909
29305 1 49.8519 8.7043 75.1735
29306 1 48.2693 7.1217 76.7561
29307 1 49.8519 8.7043 78.3387
29308 1 48.2693 10.2869 51.4345
29309 1 49.8519 11.8695 53.0171
29310 1 48.2693 10.2869 54.5997
29311 1 49.8519 11.8695 56.1823
29312 1 48.2693 10.2869 57.7649
29313 1 49.8519 11.8695 59.3475
29314 1 48.2693 10.2869 60.9301
29315 1 49.8519 11.8695 62.5127
29316 1 48.2693 10.2869 64.0953
29317 1 49.8519 11.8695 65.6779
29318 1 48.2693 10.2869 67.2605
29319 1 49.8519 11.8695 68.8431
29320 1 48.2693 10.2869 70.4257
29321 1 49.8519 11.8695 72.0083
29322 1 48.2693 10.2869 73.5909
29323 1 49.8519 11.8695 75.1735
29324 1 48.2693 10.2869 76.7561
29325 1 49.8519 11.8695 78.3387
29326 1 48.2693 13.4521 51.4345
29327 1 49.8519 15.0347 53.0171
29328 1 48.2693 13.4521 54.5997
29329 1 49.8519 15.0347 56.1823
29330 1 48.2693 13.4521 57.7649
29331 1 49.8519 15.0347 59.3475
29332 1 48.2693 13.4521 60.9301
29333 1 49.8519 15.0347 62.5127
29334 1 48.2693 13.4521 64.0953
29335 1 49.8519 15.0347 65.6779
29336 1 48.2693 13.4521 67.2605
29337 1 49.8519 15.0347 68.8431
29338 1 48.2693 13.4521 70.4257
29339 1 49.8519 15.0347 72.0083
29340 1 48.2693 13.4521 73.5909
29341 1 49.8519 15.0347 75.1735
29342 1 48.2693 13.4521 76.7561
29343 1 49.8519 15.0347 78.3387
29344 1 48.2693 16.6173 51.4345
29345 1 49.8519 18.1999 53.0171
29346 1 48.2693 16.6173 54.5997
29347 1 49.8519 18.1999 56.1823
29348 1 48.2693 16.6173 57.7649
29349 1 49.8519 18.1999 59.3475
29350 1 48.2693 16.6173 60.9301
29351 1 49.8519 18.1999 62.5127
29352 1 48.2693 16.6173 64.0953
29353 1 49.8519 18.1999 65.6779
29354 1 48.2693 16.6173 67.2605
29355 1 49.8519 18.1999 68.8431
29356 1 48.2693 16.6173 70.4257
29357 1 49.8519 18.1999 72.0083
29358 1 48.2693 16.6173 73.5909
29359 1 49.8519 18.1999 75.1735
29360 1 48.2693 16.6173 76.7561
29361 1 49.8519 18.1999 78.3387
29362 1 48.2693 19.7825 51.4345
29363 1 49.8519 21.3651 53.0171
29364 1 48.2693 19.7825 54.5997
29365 1 49.8519 21.3651 56.1823
29366 1 48.2693 19.7825 57.7649
29367 1 49.8519 21.3651 59.3475
29368 1 48.2693 19.7825 60.9301
29369 1 49.8519 21.3651 62.5127
29370 1 48.2693 19.7825 64.0953
29371 1 49.8519 21.3651 65.6779
29372 1 48.2693 19.7825 67.2605
29373 1 49.8519 21.3651 68.8431
29374 1 48.2693 19.7825 70.4257
29375 1 49.8519 21.3651 72.0083
29376 1 48.2693 19.7825 73.5909
29377 1 49.8519 21.3651 75.1735
29378 1 48.2693 19.7825 76.7561
29379 1 49.8519 21.3651 78.3387
29380 1 48.2693 22.9477 51.4345
29381 1 49.8519 24.5303 53.0171
29382 1 48.2693 22.9477 54.5997
29383 1 49.8519 24.5303 56.1823
29384 1 48.2693 22.9477 57.7649
29385 1 49.8519 24.5303 59.3475
29386 1 48.2693 22.9477 60.9301
29387 1 49.8519 24.5303 62.5127
29388 1 48.2693 22.9477 64.0953
29389 1 49.8519 24.5303 65.6779
29390 1 48.2693 22.9477 67.2605
29391 1 49.8519 24.5303 68.8431
29392 1 48.2693 22.9477 70.4257
29393 1 49.8519 24.5303 72.0083
29394 1 48.2693 22.9477 73.5909
29395 1 49.8519 24.5303 75.1735
29396 1 48.2693 22.9477 76.7561
29397 1 49.8519 24.5303 78.3387
29398 1 48.2693 26.1129 51.4345
29399 1 49.8519 27.6955 53.0171
29400 1 48.2693 26.1129 54.5997
29401 1 49.8519 27.6955 56.1823
29402 1 48.2693 26.1129 57.7649
29403 1 49.8519 27.6955 59.3475
29404 1 48.2693 26.1129 60.9301
29405 1 49.8519 27.6955 62.5127
29406 1 48.2693 26.1129 64.0953
29407 1 49.8519 27.6955 65.6779
29408 1 48.2693 26.1129 67.2605
29409 1 49.8519 27.6955 68.8431
29410 1 48.2693 26.1129 70.4257
29411 1 49.8519 27.6955 72.0083
29412 1 48.2693 26.1129 73.5909
29413 1 49.8519 27.6955 75.1735
29414 1 48.2693 26.1129 76.7561
29415 1 49.8519 27.6955 78.3387
29416 1 48.2693 29.2781 51.4345
29417 1 49.8519 30.8607 53.0171
29418 1 48.2693 29.2781 54.5997
29419 1 49.8519 30.8607 56.1823
29420 1 48.2693 29.2781 57.7649
29421 1 49.8519 30.8607 59.3475
29422 1 48.2693 29.2781 60.9301
29423 1 49.8519 30.8607 62.5127
29424 1 48.2693 29.2781 64.0953
29425 1 49.8519 30.8607 65.6779
29426 1 48.2693 29.2781 67.2605
29427 1 49.8519 30.8607 68.8431
29428 1 48.2693 29.2781 70.4257
29429 1 49.8519 30.8607 72.0083
29430 1 48.2693 29.2781 73.5909
29431 1 49.8519 30.8607 75.1735
29432 1 48.2693 29.2781 76.7561
29433 1 49.8519 30.8607 78.3387
29434 1 48.2693 32.4433 51.4345
29435 1 49.8519 34.0259 53.0171
29436 1 48.2693 32.4433 54.5997
29437 1 49.8519 34.0259 56.1823
29438 1 48.2693 32.4433 57.7649
29439 1 49.8519 34.0259 59.3475
29440 1 48.2693 32.4433 60.9301
29441 1 49.8519 34.0259 62.5127
29442 1 48.2693 32.4433 64.0953
29443 1 49.8519 34.0259 65.6779
29444 1 48.2693 32.4433 67.2605
29445 1 49.8519 34.0259 68.8431
29446 1 48.2693 32.4433 70.4257
29447 1 49.8519 34.0259 72.0083
29448 1 48.2693 32.4433 73.5909
29449 1 49.8519 34.0259 75.1735
29450 1 48.2693 32.4433 76.7561
29451 1 49.8519 34.0259 78.3387
29452 1 48.2693 35.6085 51.4345
29453 1 49.8519 37.1911 53.0171
29454 1 48.2693 35.6085 54.5997
29455 1 49.8519 37.1911 56.1823
29456 1 48.2693 35.6085 57.7649
29457 1 49.8519 37.1911 59.3475
29458 1 48.2693 35.6085 60.9301
29459 1 49.8519 37.1911 62.5127
29460 1 48.2693 35.6085 64.0953
29461 1 49.8519 37.1911 65.6779
29462 1 48.2693 35.6085 67.2605
29463 1 49.8519 37.1911 68.8431
29464 1 48.2693 35.6085 70.4257
29465 1 49.8519 37.1911 72.0083
29466 1 48.2693 35.6085 73.5909
29467 1 49.8519 37.1911 75.1735
29468 1 48.2693 35.6085 76.7561
29469 1 49.8519 37.1911 78.3387
29470 1 48.2693 38.7737 51.4345
29471 1 49.8519 40.3563 53.0171
29472 1 48.2693 38.7737 54.5997
29473 1 49.8519 40.3563 56.1823
29474 1 48.2693 38.7737 57.7649
29475 1 49.8519 40.3563 59.3475
29476 1 48.2693 38.7737 60.9301
29477 1 49.8519 40.3563 62.5127
29478 1 48.2693 38.7737 64.0953
29479 1 49.8519 40.3563 65.6779
29480 1 48.2693 38.7737 67.2605
29481 1 49.8519 40.3563 68.8431
29482 1 48.2693 38.7737 70.4257
29483 1 49.8519 40.3563 72.0083
29484 1 48.2693 38.7737 73.5909
29485 1 49.8519 40.3563 75.1735
29486 1 48.2693 38.7737 76.7561
29487 1 49.8519 40.3563 78.3387
29488 1 48.2693 41.9389 51.4345
29489 1 49.8519 43.5215 53.0171
29490 1 48.2693 41.9389 54.5997
29491 1 49.8519 43.5215 56.1823
29492 1 48.2693 41.9389 57.7649
29493 1 49.8519 43.5215 59.3475
29494 1 48.2693 41.9389 60.9301
29495 1 49.8519 43.5215 62.5127
29496 1 48.2693 41.9389 64.0953
29497 1 49.8519 43.5215 65.6779
29498 1 48.2693 41.9389 67.2605
29499 1 49.8519 43.5215 68.8431
29500 1 48.2693 41.9389 70.4257
29501 1 49.8519 43.5215 72.0083
29502 1 48.2693 41.9389 73.5909
29503 1 49.8519 43.5215 75.1735
29504 1 48.2693 41.9389 76.7561
29505 1 49.8519 43.5215 78.3387
29506 1 48.2693 45.1041 51.4345
29507 1 49.8519 46.6867 53.0171
29508 1 48.2693 45.1041 54.5997
29509 1 49.8519 46.6867 56.1823
29510 1 48.2693 45.1041 57.7649
29511 1 49.8519 46.6867 59.3475
29512 1 48.2693 45.1041 60.9301
29513 1 49.8519 46.6867 62.5127
29514 1 48.2693 45.1041 64.0953
29515 1 49.8519 46.6867 65.6779
29516 1 48.2693 45.1041 67.2605
29517 1 49.8519 46.6867 68.8431
29518 1 48.2693 45.1041 70.4257
29519 1 49.8519 46.6867 72.0083
29520 1 48.2693 45.1041 73.5909
29521 1 49.8519 46.6867 75.1735
29522 1 48.2693 45.1041 76.7561
29523 1 49.8519 46.6867 78.3387
29524 1 48.2693 48.2693 51.4345
29525 1 49.8519 49.8519 53.0171
29526 1 48.2693 48.2693 54.5997
29527 1 49.8519 49.8519 56.1823
29528 1 48.2693 48.2693 57.7649
29529 1 49.8519 49.8519 59.3475
29530 1 48.2693 48.2693 60.9301
29531 1 49.8519 49.8519 62.5127
29532 1 48.2693 48.2693 64.0953
29533 1 49.8519 49.8519 65.6779
29534 1 48.2693 48.2693 67.2605
29535 1 49.8519 49.8519 68.8431
29536 1 48.2693 48.2693 70.4257
29537 1 49.8519 49.8519 72.0083
29538 1 48.2693 48.2693 73.5909
29539 1 49.8519 49.8519 75.1735
29540 1 48.2693 48.2693 76.7561
29541 1 49.8519 49.8519 78.3387
29542 1 48.2693 51.4345 51.4345
29543 1 49.8519 53.0171 53.0171
29544 1 48.2693 51.4345 54.5997
29545 1 49.8519 53.0171 56.1823
29546 1 48.2693 51.4345 57.7649
29547 1 49.8519 53.0171 59.3475
29548 1 48.2693 51.4345 60.9301
29549 1 49.8519 53.0171 62.5127
29550 1 48.2693 51.4345 64.0953
29551 1 49.8519 53.0171 65.6779
29552 1 48.2693 51.4345 67.2605
29553 1 49.8519 53.0171 68.8431
29554 1 48.2693 51.4345 70.4257
29555 1 49.8519 53.0171 72.0083
29556 1 48.2693 51.4345 73.5909
29557 1 49.8519 53.0171 75.1735
29558 1 48.2693 51.4345 76.7561
29559 1 49.8519 53.0171 78.3387
29560 1 48.2693 54.5997 51.4345
29561 1 49.8519 56.1823 53.0171
29562 1 48.2693 54.5997 54.5997
29563 1 49.8519 56.1823 56.1823
29564 1 48.2693 54.5997 57.7649
29565 1 49.8519 56.1823 59.3475
29566 1 48.2693 54.5997 60.9301
29567 1 49.8519 56.1823 62.5127
29568 1 48.2693 54.5997 64.0953
29569 1 49.8519 56.1823 65.6779
29570 1 48.2693 54.5997 67.2605
29571 1 49.8519 56.1823 68.8431
29572 1 48.2693 54.5997 70.4257
29573 1 49.8519 56.1823 72.0083
29574 1 48.2693 54.5997 73.5909
29575 1 49.8519 56.1823 75.1735
29576 1 48.2693 54.5997 76.7561
29577 1 49.8519 56.1823 78.3387
29578 1 48.2693 57.7649 51.4345
29579 1 49.8519 59.3475 53.0171
29580 1 48.2693 57.7649 54.5997
29581 1 49.8519 59.3475 56.1823
29582 1 48.2693 57.7649 57.7649
29583 1 49.8519 59.3475 59.3475
29584 1 48.2693 57.7649 60.9301
29585 1 49.8519 59.3475 62.5127
29586 1 48.2693 57.7649 64.0953
29587 1 49.8519 59.3475 65.6779
29588 1 48.2693 57.7649 67.2605
29589 1 49.8519 59.3475 68.8431
29590 1 48.2693 57.7649 70.4257
29591 1 49.8519 59.3475 72.0083
29592 1 48.2693 57.7649 73.5909
29593 1 49.8519 59.3475 75.1735
29594 1 48.2693 57.7649 76.7561
29595 1 49.8519 59.3475 78.3387
29596 1 48.2693 60.9301 51.4345
29597 1 49.8519 62.5127 53.0171
29598 1 48.2693 60.9301 54.5997
29599 1 49.8519 62.5127 56.1823
29600 1 48.2693 60.9301 57.7649
29601 1 49.8519 62.5127 59.3475
29602 1 48.2693 60.9301 60.9301
29603 1 49.8519 62.5127 62.5127
29604 1 48.2693 60.9301 64.0953
29605 1 49.8519 62.5127 65.6779
29606 1 48.2693 60.9301 67.2605
29607 1 49.8519 62.5127 68.8431
29608 1 48.2693 60.9301 70.4257
29609 1 49.8519 62.5127 72.0083
29610 1 48.2693 60.9301 73.5909
29611 1 49.8519 62.5127 75.1735
29612 1 48.2693 60.9301 76.7561
29613 1 49.8519 62.5127 78.3387
29614 1 48.2693 64.0953 51.4345
29615 1 49.8519 65.6779 53.0171
29616 1 48.2693 64.0953 54.5997
29617 1 49.8519 65.6779 56.1823
29618 1 48.2693 64.0953 57.7649
29619 1 49.8519 65.6779 59.3475
29620 1 48.2693 64.0953 60.9301
29621 1 49.8519 65.6779 62.5127
29622 1 48.2693 64.0953 64.0953
29623 1 49.8519 65.6779 65.6779
29624 1 48.2693 64.0953 67.2605
29625 1 49.8519 65.6779 68.8431
29626 1 48.2693 64.0953 70.4257
29627 1 49.8519 65.6779 72.0083
29628 1 48.2693 64.0953 73.5909
29629 1 49.8519 65.6779 75.1735
29630 1 48.2693 64.0953 76.7561
29631 1 49.8519 65.6779 78.3387
29632 1 48.2693 67.2605 51.4345
29633 1 49.8519 68.8431 53.0171
29634 1 48.2693 67.2605 54.5997
29635 1 49.8519 68.8431 56.1823
29636 1 48.2693 67.2605 57.7649
29637 1 49.8519 68.8431 59.3475
29638 1 48.2693 67.2605 60.9301
29639 1 49.8519 68.8431 62.5127
29640 1 48.2693 67.2605 64.0953
29641 1 49.8519 68.8431 65.6779
29642 1 48.2693 67.2605 67.2605
29643 1 49.8519 68.8431 68.8431
29644 1 48.2693 67.2605 70.4257
29645 1 49.8519 68.8431 72.0083
29646 1 48.2693 67.2605 73.5909
29647 1 49.8519 68.8431 75.1735
29648 1 48.2693 67.2605 76.7561
29649 1 49.8519 68.8431 78.3387
29650 1 48.2693 70.4257 51.4345
29651 1 49.8519 72.0083 53.0171
29652 1 48.2693 70.4257 54.5997
29653 1 49.8519 72.0083 56.1823
29654 1 48.2693 70.4257 57.7649
29655 1 49.8519 72.0083 59.3475
29656 1 48.2693 70.4257 60.9301
29657 1 49.8519 72.0083 62.5127
29658 1 48.2693 70.4257 64.0953
29659 1 49.8519 72.0083 65.6779
29660 1 48.2693 70.4257 67.2605
29661 1 49.8519 72.0083 68.8431
29662 1 48.2693 70.4257 70.4257
29663 1 49.8519 72.0083 72.0083
29664 1 48.2693 70.4257 73.5909
29665 1 49.8519 72.0083 75.1735
29666 1 48.2693 70.4257 76.7561
29667 1 49.8519 72.0083 78.3387
29668 1 48.2693 73.5909 51.4345
29669 1 49.8519 75.1735 53.0171
29670 1 48.2693 73.5909 54.5997
29671 1 49.8519 75.1735 56.1823
29672 1 48.2693 73.5909 57.7649
29673 1 49.8519 75.1735 59.3475
29674 1 48.2693 73.5909 60.9301
29675 1 49.8519 75.1735 62.5127
29676 1 48.2693 73.5909 64.0953
29677 1 49.8519 75.1735 65.6779
29678 1 48.2693 73.5909 67.2605
29679 1 49.8519 75.1735 68.8431
29680 1 48.2693 73.5909 70.4257
29681 1 49.8519 75.1735 72.0083
29682 1 48.2693 73.5909 73.5909
29683 1 49.8519 75.1735 75.1735
29684 1 48.2693 73.5909 76.7561
29685 1 49.8519 75.1735 78.3387
29686 1 48.2693 76.7561 51.4345
29687 1 49.8519 78.3387 53.0171
29688 1 48.2693 76.7561 54.5997
29689 1 49.8519 78.3387 56.1823
29690 1 48.2693 76.7561 57.7649
29691 1 49.8519 78.3387 59.3475
29692 1 48.2693 76.7561 60.9301
29693 1 49.8519 78.3387 62.5127
29694 1 48.2693 76.7561 64.0953
29695 1 49.8519 78.3387 65.6779
29696 1 48.2693 76.7561 67.2605
29697 1 49.8519 78.3387 68.8431
29698 1 48.2693 76.7561 70.4257
29699 1 49.8519 78.3387 72.0083
29700 1 48.2693 76.7561 73.5909
29701 1 49.8519 78.3387 75.1735
29702 1 48.2693 76.7561 76.7561
29703 1 49.8519 78.3387 78.3387
29704 1 26.1129 0.7913 29.2781
29705 1 27.6955 2.3739 30.8607
29706 1 26.1129 0.7913 32.4433
29707 1 27.6955 2.3739 34.0259
29708 1 26.1129 0.7913 35.6085
29709 1 27.6955 2.3739 37.1911
29710 1 26.1129 0.7913 38.7737
29711 1 27.6955 2.3739 40.3563
29712 1 26.1129 0.7913 41.9389
29713 1 27.6955 2.3739 43.5215
29714 1 26.1129 0.7913 45.1041
29715 1 27.6955 2.3739 46.6867
29716 1 26.1129 0.7913 48.2693
29717 1 27.6955 2.3739 49.8519
29718 1 26.1129 3.9565 29.2781
29719 1 27.6955 5.5391 30.8607
29720 1 26.1129 3.9565 32.4433
29721 1 27.6955 5.5391 34.0259
29722 1 26.1129 3.9565 35.6085
29723 1 27.6955 5.5391 37.1911
29724 1 26.1129 3.9565 38.7737
29725 1 27.6955 5.5391 40.3563
29726 1 26.1129 3.9565 41.9389
29727 1 27.6955 5.5391 43.5215
29728 1 26.1129 3.9565 45.1041
29729 1 27.6955 5.5391 46.6867
29730 1 26.1129 3.9565 48.2693
29731 1 27.6955 5.5391 49.8519
29732 1 26.1129 7.1217 29.2781
29733 1 27.6955 8.7043 30.8607
29734 1 26.1129 7.1217 32.4433
29735 1 27.6955 8.7043 34.0259
29736 1 26.1129 7.1217 35.6085
29737 1 27.6955 8.7043 37.1911
29738 1 26.1129 7.1217 38.7737
29739 1 27.6955 8.7043 40.3563
29740 1 26.1129 7.1217 41.9389
29741 1 27.6955 8.7043 43.5215
29742 1 26.1129 7.1217 45.1041
29743 1 27.6955 8.7043 46.6867
29744 1 26.1129 7.1217 48.2693
29745 1 27.6955 8.7043 49.8519
29746 1 26.1129 10.2869 29.2781
29747 1 27.6955 11.8695 30.8607
29748 1 26.1129 10.2869 32.4433
29749 1 27.6955 11.8695 34.0259
29750 1 26.1129 10.2869 35.6085
29751 1 27.6955 11.8695 37.1911
29752 1 26.1129 10.2869 38.7737
29753 1 27.6955 11.8695 40.3563
29754 1 26.1129 10.2869 41.9389
29755 1 27.6955 11.8695 43.5215
29756 1 26.1129 10.2869 45.1041
29757 1 27.6955 11.8695 46.6867
29758 1 26.1129 10.2869 48.2693
29759 1 27.6955 11.8695 49.8519
29760 1 26.1129 13.4521 29.2781
29761 1 27.6955 15.0347 30.8607
29762 1 26.1129 13.4521 32.4433
29763 1 27.6955 15.0347 34.0259
29764 1 26.1129 13.4521 35.6085
29765 1 27.6955 15.0347 37.1911
29766 1 26.1129 13.4521 38.7737
29767 1 27.6955 15.0347 40.3563
29768 1 26.1129 13.4521 41.9389
29769 1 27.6955 15.0347 43.5215
29770 1 26.1129 13.4521 45.1041
29771 1 27.6955 15.0347 46.6867
29772 1 26.1129 13.4521 48.2693
29773 1 27.6955 15.0347 49.8519
29774 1 26.1129 16.6173 29.2781
29775 1 27.6955 18.1999 30.8607
29776 1 26.1129 16.6173 32.4433
29777 1 27.6955 18.1999 34.0259
29778 1 26.1129 16.6173 35.6085
29779 1 27.6955 18.1999 37.1911
29780 1 26.1129 16.6173 38.7737
29781 1 27.6955 18.1999 40.3563
29782 1 26.1129 16.6173 41.9389
29783 1 27.6955 18.1999 43.5215
29784 1 26.1129 16.6173 45.1041
29785 1 27.6955 18.1999 46.6867
29786 1 26.1129 16.6173 48.2693
29787 1 27.6955 18.1999 49.8519
29788 1 26.1129 19.7825 29.2781
29789 1 27.6955 21.3651 30.8607
29790 1 26.1129 19.7825 32.4433
29791 1 27.6955 21.3651 34.0259
29792 1 26.1129 19.7825 35.6085
29793 1 27.6955 21.3651 37.1911
29794 1 26.1129 19.7825 38.7737
29795 1 27.6955 21.3651 40.3563
29796 1 26.1129 19.7825 41.9389
29797 1 27.6955 21.3651 43.5215
29798 1 26.1129 19.7825 45.1041
29799 1 27.6955 21.3651 46.6867
29800 1 26.1129 19.7825 48.2693
29801 1 27.6955 21.3651 49.8519
29802 1 29.2781 0.7913 29.2781
29803 1 30.8607 2.3739 30.8607
29804 1 29.2781 0.7913 32.4433
29805 1 30.8607 2.3739 34.0259
29806 1 29.2781 0.7913 35.6085
29807 1 30.8607 2.3739 37.1911
29808 1 29.2781 0.7913 38.7737
29809 1 30.8607 2.3739 40.3563
29810 1 29.2781 0.7913 41.9389
29811 1 30.8607 2.3739 43.5215
29812 1 29.2781 0.7913 45.1041
29813 1 30.8607 2.3739 46.6867
29814 1 29.2781 0.7913 48.2693
29815 1 30.8607 2.3739 49.8519
29816 1 29.2781 3.9565 29.2781
29817 1 30.8607 5.5391 30.8607
29818 1 29.2781 3.9565 32.4433
29819 1 30.8607 5.5391 34.0259
29820 1 29.2781 3.9565 35.6085
29821 1 30.8607 5.5391 37.1911
29822 1 29.2781 3.9565 38.7737
29823 1 30.8607 5.5391 40.3563
29824 1 29.2781 3.9565 41.9389
29825 1 30.8607 5.5391 43.5215
29826 1 29.2781 3.9565 45.1041
29827 1 30.8607 5.5391 46.6867
29828 1 29.2781 3.9565 48.2693
29829 1 30.8607 5.5391 49.8519
29830 1 29.2781 7.1217 29.2781
29831 1 30.8607 8.7043 30.8607
29832 1 29.2781 7.1217 32.4433
29833 1 30.8607 8.7043 34.0259
29834 1 29.2781 7.1217 35.6085
29835 1 30.8607 8.7043 37.1911
29836 1 29.2781 7.1217 38.7737
29837 1 30.8607 8.7043 40.3563
29838 1 29.2781 7.1217 41.9389
29839 1 30.8607 8.7043 43.5215
29840 1 29.2781 7.1217 45.1041
29841 1 30.8607 8.7043 46.6867
29842 1 29.2781 7.1217 48.2693
29843 1 30.8607 8.7043 49.8519
29844 1 29.2781 10.2869 29.2781
29845 1 30.8607 11.8695 30.8607
29846 1 29.2781 10.2869 32.4433
29847 1 30.8607 11.8695 34.0259
29848 1 29.2781 10.2869 35.6085
29849 1 30.8607 11.8695 37.1911
29850 1 29.2781 10.2869 38.7737
29851 1 30.8607 11.8695 40.3563
29852 1 29.2781 10.2869 41.9389
29853 1 30.8607 11.8695 43.5215
29854 1 29.2781 10.2869 45.1041
29855 1 30.8607 11.8695 46.6867
29856 1 29.2781 10.2869 48.2693
29857 1 30.8607 11.8695 49.8519
29858 1 29.2781 13.4521 29.2781
29859 1 30.8607 15.0347 30.8607
29860 1 29.2781 13.4521 32.4433
29861 1 30.8607 15.0347 34.0259
29862 1 29.2781 13.4521 35.6085
29863 1 30.8607 15.0347 37.1911
29864 1 29.2781 13.4521 38.7737
29865 1 30.8607 15.0347 40.3563
29866 1 29.2781 13.4521 41.9389
29867 1 30.8607 15.0347 43.5215
29868 1 29.2781 13.4521 45.1041
29869 1 30.8607 15.0347 46.6867
29870 1 29.2781 13.4521 48.2693
29871 1 30.8607 15.0347 49.8519
29872 1 29.2781 16.6173 29.2781
29873 1 30.8607 18.1999 30.8607
29874 1 29.2781 16.6173 32.4433
29875 1 30.8607 18.1999 34.0259
29876 1 29.2781 16.6173 35.6085
29877 1 30.8607 18.1999 37.1911
29878 1 29.2781 16.6173 38.7737
29879 1 30.8607 18.1999 40.3563
29880 1 29.2781 16.6173 41.9389
29881 1 30.8607 18.1999 43.5215
29882 1 29.2781 16.6173 45.1041
29883 1 30.8607 18.1999 46.6867
29884 1 29.2781 16.6173 48.2693
29885 1 30.8607 18.1999 49.8519
29886 1 29.2781 19.7825 29.2781
29887 1 30.8607 21.3651 30.8607
29888 1 29.2781 19.7825 32.4433
29889 1 30.8607 21.3651 34.0259
29890 1 29.2781 19.7825 35.6085
29891 1 30.8607 21.3651 37.1911
29892 1 29.2781 19.7825 38.7737
29893 1 30.8607 21.3651 40.3563
29894 1 29.2781 19.7825 41.9389
29895 1 30.8607 21.3651 43.5215
29896 1 29.2781 19.7825 45.1041
29897 1 30.8607 21.3651 46.6867
29898 1 29.2781 19.7825 48.2693
29899 1 30.8607 21.3651 49.8519
29900 1 32.4433 0.7913 29.2781
29901 1 34.0259 2.3739 30.8607
29902 1 32.4433 0.7913 32.4433
29903 1 34.0259 2.3739 34.0259
29904 1 32.4433 0.7913 35.6085
29905 1 34.0259 2.3739 37.1911
29906 1 32.4433 0.7913 38.7737
29907 1 34.0259 2.3739 40.3563
29908 1 32.4433 0.7913 41.9389
29909 1 34.0259 2.3739 43.5215
29910 1 32.4433 0.7913 45.1041
29911 1 34.0259 2.3739 46.6867
29912 1 32.4433 0.7913 48.2693
29913 1 34.0259 2.3739 49.8519
29914 1 32.4433 3.9565 29.2781
29915 1 34.0259 5.5391 30.8607
29916 1 32.4433 3.9565 32.4433
29917 1 34.0259 5.5391 34.0259
29918 1 32.4433 3.9565 35.6085
29919 1 34.0259 5.5391 37.1911
29920 1 32.4433 3.9565 38.7737
29921 1 34.0259 5.5391 40.3563
29922 1 32.4433 3.9565 41.9389
29923 1 34.0259 5.5391 43.5215
29924 1 32.4433 3.9565 45.1041
29925 1 34.0259 5.5391 46.6867
29926 1 32.4433 3.9565 48.2693
29927 1 34.0259 5.5391 49.8519
29928 1 32.4433 7.1217 29.2781
29929 1 34.0259 8.7043 30.8607
29930 1 32.4433 7.1217 32.4433
29931 1 34.0259 8.7043 34.0259
29932 1 32.4433 7.1217 35.6085
29933 1 34.0259 8.7043 37.1911
29934 1 32.4433 7.1217 38.7737
29935 1 34.0259 8.7043 40.3563
29936 1 32.4433 7.1217 41.9389
29937 1 34.0259 8.7043 43.5215
29938 1 32.4433 7.1217 45.1041
29939 1 34.0259 8.7043 46.6867
29940 1 32.4433 7.1217 48.2693
29941 1 34.0259 8.7043 49.8519
29942 1 32.4433 10.2869 29.2781
29943 1 34.0259 11.8695 30.8607
29944 1 32.4433 10.2869 32.4433
29945 1 34.0259 11.8695 34.0259
29946 1 32.4433 10.2869 35.6085
29947 1 34.0259 11.8695 37.1911
29948 1 32.4433 10.2869 38.7737
29949 1 34.0259 11.8695 40.3563
29950 1 32.4433 10.2869 41.9389
29951 1 34.0259 11.8695 43.5215
29952 1 32.4433 10.2869 45.1041
29953 1 34.0259 11.8695 46.6867
29954 1 32.4433 10.2869 48.2693
29955 1 34.0259 11.8695 49.8519
29956 1 32.4433 13.4521 29.2781
29957 1 34.0259 15.0347 30.8607
29958 1 32.4433 13.4521 32.4433
29959 1 34.0259 15.0347 34.0259
29960 1 32.4433 13.4521 35.6085
29961 1 34.0259 15.0347 37.1911
29962 1 32.4433 13.4521 38.7737
29963 1 34.0259 15.0347 40.3563
29964 1 32.4433 13.4521 41.9389
29965 1 34.0259 15.0347 43.5215
29966 1 32.4433 13.4521 45.1041
29967 1 34.0259 15.0347 46.6867
29968 1 32.4433 13.4521 48.2693
29969 1 34.0259 15.0347 49.8519
29970 1 32.4433 16.6173 29.2781
29971 1 34.0259 18.1999 30.8607
29972 1 32.4433 16.6173 32.4433
29973 1 34.0259 18.1999 34.0259
29974 1 32.4433 16.6173 35.6085
29975 1 34.0259 18.1999 37.1911
29976 1 32.4433 16.6173 38.7737
29977 1 34.0259 18.1999 40.3563
29978 1 32.4433 16.6173 41.9389
29979 1 34.0259 18.1999 43.5215
29980 1 32.4433 16.6173 45.1041
29981 1 34.0259 18.1999 46.6867
29982 1 32.4433 16.6173 48.2693
29983 1 34.0259 18.1999 49.8519
29984 1 32.4433 19.7825 29.2781
29985 1 34.0259 21.3651 30.8607
29986 1 32.4433 19.7825 32.4433
29987 1 34.0259 21.3651 34.0259
29988 1 32.4433 19.7825 35.6085
29989 1 34.0259 21.3651 37.1911
29990 1 32.4433 19.7825 38.7737
29991 1 34.0259 21.3651 40.3563
29992 1 32.4433 19.7825 41.9389
29993 1 34.0259 21.3651 43.5215
29994 1 32.4433 19.7825 45.1041
29995 1 34.0259 21.3651 46.6867
29996 1 32.4433 19.7825 48.2693
29997 1 34.0259 21.3651 49.8519
29998 1 35.6085 0.7913 29.2781
29999 1 37.1911 2.3739 30.8607
30000 1 35.6085 0.7913 32.4433
30001 1 37.1911 2.3739 34.0259
30002 1 35.6085 0.7913 35.6085
30003 1 37.1911 2.3739 37.1911
30004 1 35.6085 0.7913 38.7737
30005 1 37.1911 2.3739 40.3563
30006 1 35.6085 0.7913 41.9389
30007 1 37.1911 2.3739 43.5215
30008 1 35.6085 0.7913 45.1041
30009 1 37.1911 2.3739 46.6867
30010 1 35.6085 0.7913 48.2693
30011 1 37.1911 2.3739 49.8519
30012 1 35.6085 3.9565 29.2781
30013 1 37.1911 5.5391 30.8607
30014 1 35.6085 3.9565 32.4433
30015 1 37.1911 5.5391 34.0259
30016 1 35.6085 3.9565 35.6085
30017 1 37.1911 5.5391 37.1911
30018 1 35.6085 3.9565 38.7737
30019 1 37.1911 5.5391 40.3563
30020 1 35.6085 3.9565 41.9389
30021 1 37.1911 5.5391 43.5215
30022 1 35.6085 3.9565 45.1041
30023 1 37.1911 5.5391 46.6867
30024 1 35.6085 3.9565 48.2693
30025 1 37.1911 5.5391 49.8519
30026 1 35.6085 7.1217 29.2781
30027 1 37.1911 8.7043 30.8607
30028 1 35.6085 7.1217 32.4433
30029 1 37.1911 8.7043 34.0259
30030 1 35.6085 7.1217 35.6085
30031 1 37.1911 8.7043 37.1911
30032 1 35.6085 7.1217 38.7737
30033 1 37.1911 8.7043 40.3563
30034 1 35.6085 7.1217 41.9389
30035 1 37.1911 8.7043 43.5215
30036 1 35.6085 7.1217 45.1041
30037 1 37.1911 8.7043 46.6867
30038 1 35.6085 7.1217 48.2693
30039 1 37.1911 8.7043 49.8519
30040 1 35.6085 10.2869 29.2781
30041 1 37.1911 11.8695 30.8607
30042 1 35.6085 10.2869 32.4433
30043 1 37.1911 11.8695 34.0259
30044 1 35.6085 10.2869 35.6085
30045 1 37.1911 11.8695 37.1911
30046 1 35.6085 10.2869 38.7737
30047 1 37.1911 11.8695 40.3563
30048 1 35.6085 10.2869 41.9389
30049 1 37.1911 11.8695 43.5215
30050 1 35.6085 10.2869 45.1041
30051 1 37.1911 11.8695 46.6867
30052 1 35.6085 10.2869 48.2693
30053 1 37.1911 11.8695 49.8519
30054 1 35.6085 13.4521 29.2781
30055 1 37.1911 15.0347 30.8607
30056 1 35.6085 13.4521 32.4433
30057 1 37.1911 15.0347 34.0259
30058 1 35.6085 13.4521 35.6085
30059 1 37.1911 15.0347 37.1911
30060 1 35.6085 13.4521 38.7737
30061 1 37.1911 15.0347 40.3563
30062 1 35.6085 13.4521 41.9389
30063 1 37.1911 15.0347 43.5215
30064 1 35.6085 13.4521 45.1041
30065 1 37.1911 15.0347 46.6867
30066 1 35.6085 13.4521 48.2693
30067 1 37.1911 15.0347 49.8519
30068 1 35.6085 16.6173 29.2781
30069 1 37.1911 18.1999 30.8607
30070 1 35.6085 16.6173 32.4433
30071 1 37.1911 18.1999 34.0259
30072 1 35.6085 16.6173 35.6085
30073 1 37.1911 18.1999 37.1911
30074 1 35.6085 16.6173 38.7737
30075 1 37.1911 18.1999 40.3563
30076 1 35.6085 16.6173 41.9389
30077 1 37.1911 18.1999 43.5215
30078 1 35.6085 16.6173 45.1041
30079 1 37.1911 18.1999 46.6867
30080 1 35.6085 16.6173 48.2693
30081 1 37.1911 18.1999 49.8519
30082 1 35.6085 19.7825 29.2781
30083 1 37.1911 21.3651 30.8607
30084 1 35.6085 19.7825 32.4433
30085 1 37.1911 21.3651 34.0259
30086 1 35.6085 19.7825 35.6085
30087 1 37.1911 21.3651 37.1911
30088 1 35.6085 19.7825 38.7737
30089 1 37.1911 21.3651 40.3563
30090 1 35.6085 19.7825 41.9389
30091 1 37.1911 21.3651 43.5215
30092 1 35.6085 19.7825 45.1041
30093 1 37.1911 21.3651 46.6867
30094 1 35.6085 19.7825 48.2693
30095 1 37.1911 21.3651 49.8519
30096 1 38.7737 0.7913 29.2781
30097 1 40.3563 2.3739 30.8607
30098 1 38.7737 0.7913 32.4433
30099 1 40.3563 2.3739 34.0259
30100 1 38.7737 0.7913 35.6085
30101 1 40.3563 2.3739 37.1911
30102 1 38.7737 0.7913 38.7737
30103 1 40.3563 2.3739 40.3563
30104 1 38.7737 0.7913 41.9389
30105 1 40.3563 2.3739 43.5215
30106 1 38.7737 0.7913 45.1041
30107 1 40.3563 2.3739 46.6867
30108 1 38.7737 0.7913 48.2693
30109 1 40.3563 2.3739 49.8519
30110 1 38.7737 3.9565 29.2781
30111 1 40.3563 5.5391 30.8607
30112 1 38.7737 3.9565 32.4433
30113 1 40.3563 5.5391 34.0259
30114 1 38.7737 3.9565 35.6085
30115 1 40.3563 5.5391 37.1911
30116 1 38.7737 3.9565 38.7737
30117 1 40.3563 5.5391 40.3563
30118 1 38.7737 3.9565 41.9389
30119 1 40.3563 5.5391 43.5215
30120 1 38.7737 3.9565 45.1041
30121 1 40.3563 5.5391 46.6867
30122 1 38.7737 3.9565 48.2693
30123 1 40.3563 5.5391 49.8519
30124 1 38.7737 7.1217 29.2781
30125 1 40.3563 8.7043 30.8607
30126 1 38.7737 7.1217 32.4433
30127 1 40.3563 8.7043 34.0259
30128 1 38.7737 7.1217 35.6085
30129 1 40.3563 8.7043 37.1911
30130 1 38.7737 7.1217 38.7737
30131 1 40.3563 8.7043 40.3563
30132 1 38.7737 7.1217 41.9389
30133 1 40.3563 8.7043 43.5215
30134 1 38.7737 7.1217 45.1041
30135 1 40.3563 8.7043 46.6867
30136 1 38.7737 7.1217 48.2693
30137 1 40.3563 8.7043 49.8519
30138 1 38.7737 10.2869 29.2781
30139 1 40.3563 11.8695 30.8607
30140 1 38.7737 10.2869 32.4433
30141 1 40.3563 11.8695 34.0259
30142 1 38.7737 10.2869 35.6085
30143 1 40.3563 11.8695 37.1911
30144 1 38.7737 10.2869 38.7737
30145 1 40.3563 11.8695 40.3563
30146 1 38.7737 10.2869 41.9389
30147 1 40.3563 11.8695 43.5215
30148 1 38.7737 10.2869 45.1041
30149 1 40.3563 11.8695 46.6867
30150 1 38.7737 10.2869 48.2693
30151 1 40.3563 11.8695 49.8519
30152 1 38.7737 13.4521 29.2781
30153 1 40.3563 15.0347 30.8607
30154 1 38.7737 13.4521 32.4433
30155 1 40.3563 15.0347 34.0259
30156 1 38.7737 13.4521 35.6085
30157 1 40.3563 15.0347 37.1911
30158 1 38.7737 13.4521 38.7737
30159 1 40.3563 15.0347 40.3563
30160 1 38.7737 13.4521 41.9389
30161 1 40.3563 15.0347 43.5215
30162 1 38.7737 13.4521 45.1041
30163 1 40.3563 15.0347 46.6867
30164 1 38.7737 13.4521 48.2693
30165 1 40.3563 15.0347 49.8519
30166 1 38.7737 16.6173 29.2781
30167 1 40.3563 18.1999 30.8607
30168 1 38.7737 16.6173 32.4433
30169 1 40.3563 18.1999 34.0259
30170 1 38.7737 16.6173 35.6085
30171 1 40.3563 18.1999 37.1911
30172 1 38.7737 16.6173 38.7737
30173 1 40.3563 18.1999 40.3563
30174 1 38.7737 16.6173 41.9389
30175 1 40.3563 18.1999 43.5215
30176 1 38.7737 16.6173 45.1041
30177 1 40.3563 18.1999 46.6867
30178 1 38.7737 16.6173 48.2693
30179 1 40.3563 18.1999 49.8519
30180 1 38.7737 19.7825 29.2781
30181 1 40.3563 21.3651 30.8607
30182 1 38.7737 19.7825 32.4433
30183 1 40.3563 21.3651 34.0259
30184 1 38.7737 19.7825 35.6085
30185 1 40.3563 21.3651 37.1911
30186 1 38.7737 19.7825 38.7737
30187 1 40.3563 21.3651 40.3563
30188 1 38.7737 19.7825 41.9389
30189 1 40.3563 21.3651 43.5215
30190 1 38.7737 19.7825 45.1041
30191 1 40.3563 21.3651 46.6867
30192 1 38.7737 19.7825 48.2693
30193 1 40.3563 21.3651 49.8519
30194 1 41.9389 0.7913 29.2781
30195 1 43.5215 2.3739 30.8607
30196 1 41.9389 0.7913 32.4433
30197 1 43.5215 2.3739 34.0259
30198 1 41.9389 0.7913 35.6085
30199 1 43.5215 2.3739 37.1911
30200 1 41.9389 0.7913 38.7737
30201 1 43.5215 2.3739 40.3563
30202 1 41.9389 0.7913 41.9389
30203 1 43.5215 2.3739 43.5215
30204 1 41.9389 0.7913 45.1041
30205 1 43.5215 2.3739 46.6867
30206 1 41.9389 0.7913 48.2693
30207 1 43.5215 2.3739 49.8519
30208 1 41.9389 3.9565 29.2781
30209 1 43.5215 5.5391 30.8607
30210 1 41.9389 3.9565 32.4433
30211 1 43.5215 5.5391 34.0259
30212 1 41.9389 3.9565 35.6085
30213 1 43.5215 5.5391 37.1911
30214 1 41.9389 3.9565 38.7737
30215 1 43.5215 5.5391 40.3563
30216 1 41.9389 3.9565 41.9389
30217 1 43.5215 5.5391 43.5215
30218 1 41.9389 3.9565 45.1041
30219 1 43.5215 5.5391 46.6867
30220 1 41.9389 3.9565 48.2693
30221 1 43.5215 5.5391 49.8519
30222 1 41.9389 7.1217 29.2781
30223 1 43.5215 8.7043 30.8607
30224 1 41.9389 7.1217 32.4433
30225 1 43.5215 8.7043 34.0259
30226 1 41.9389 7.1217 35.6085
30227 1 43.5215 8.7043 37.1911
30228 1 41.9389 7.1217 38.7737
30229 1 43.5215 8.7043 40.3563
30230 1 41.9389 7.1217 41.9389
30231 1 43.5215 8.7043 43.5215
30232 1 41.9389 7.1217 45.1041
30233 1 43.5215 8.7043 46.6867
30234 1 41.9389 7.1217 48.2693
30235 1 43.5215 8.7043 49.8519
30236 1 41.9389 10.2869 29.2781
30237 1 43.5215 11.8695 30.8607
30238 1 41.9389 10.2869 32.4433
30239 1 43.5215 11.8695 34.0259
30240 1 41.9389 10.2869 35.6085
30241 1 43.5215 11.8695 37.1911
30242 1 41.9389 10.2869 38.7737
30243 1 43.5215 11.8695 40.3563
30244 1 41.9389 10.2869 41.9389
30245 1 43.5215 11.8695 43.5215
30246 1 41.9389 10.2869 45.1041
30247 1 43.5215 11.8695 46.6867
30248 1 41.9389 10.2869 48.2693
30249 1 43.5215 11.8695 49.8519
30250 1 41.9389 13.4521 29.2781
30251 1 43.5215 15.0347 30.8607
30252 1 41.9389 13.4521 32.4433
30253 1 43.5215 15.0347 34.0259
30254 1 41.9389 13.4521 35.6085
30255 1 43.5215 15.0347 37.1911
30256 1 41.9389 13.4521 38.7737
30257 1 43.5215 15.0347 40.3563
30258 1 41.9389 13.4521 41.9389
30259 1 43.5215 15.0347 43.5215
30260 1 41.9389 13.4521 45.1041
30261 1 43.5215 15.0347 46.6867
30262 1 41.9389 13.4521 48.2693
30263 1 43.5215 15.0347 49.8519
30264 1 41.9389 16.6173 29.2781
30265 1 43.5215 18.1999 30.8607
30266 1 41.9389 16.6173 32.4433
30267 1 43.5215 18.1999 34.0259
30268 1 41.9389 16.6173 35.6085
30269 1 43.5215 18.1999 37.1911
30270 1 41.9389 16.6173 38.7737
30271 1 43.5215 18.1999 40.3563
30272 1 41.9389 16.6173 41.9389
30273 1 43.5215 18.1999 43.5215
30274 1 41.9389 16.6173 45.1041
30275 1 43.5215 18.1999 46.6867
30276 1 41.9389 16.6173 48.2693
30277 1 43.5215 18.1999 49.8519
30278 1 41.9389 19.7825 29.2781
30279 1 43.5215 21.3651 30.8607
30280 1 41.9389 19.7825 32.4433
30281 1 43.5215 21.3651 34.0259
30282 1 41.9389 19.7825 35.6085
30283 1 43.5215 21.3651 37.1911
30284 1 41.9389 19.7825 38.7737
30285 1 43.5215 21.3651 40.3563
30286 1 41.9389 19.7825 41.9389
30287 1 43.5215 21.3651 43.5215
30288 1 41.9389 19.7825 45.1041
30289 1 43.5215 21.3651 46.6867
30290 1 41.9389 19.7825 48.2693
30291 1 43.5215 21.3651 49.8519
30292 1 45.1041 0.7913 29.2781
30293 1 46.6867 2.3739 30.8607
30294 1 45.1041 0.7913 32.4433
30295 1 46.6867 2.3739 34.0259
30296 1 45.1041 0.7913 35.6085
30297 1 46.6867 2.3739 37.1911
30298 1 45.1041 0.7913 38.7737
30299 1 46.6867 2.3739 40.3563
30300 1 45.1041 0.7913 41.9389
30301 1 46.6867 2.3739 43.5215
30302 1 45.1041 0.7913 45.1041
30303 1 46.6867 2.3739 46.6867
30304 1 45.1041 0.7913 48.2693
30305 1 46.6867 2.3739 49.8519
30306 1 45.1041 3.9565 29.2781
30307 1 46.6867 5.5391 30.8607
30308 1 45.1041 3.9565 32.4433
30309 1 46.6867 5.5391 34.0259
30310 1 45.1041 3.9565 35.6085
30311 1 46.6867 5.5391 37.1911
30312 1 45.1041 3.9565 38.7737
30313 1 46.6867 5.5391 40.3563
30314 1 45.1041 3.9565 41.9389
30315 1 46.6867 5.5391 43.5215
30316 1 45.1041 3.9565 45.1041
30317 1 46.6867 5.5391 46.6867
30318 1 45.1041 3.9565 48.2693
30319 1 46.6867 5.5391 49.8519
30320 1 45.1041 7.1217 29.2781
30321 1 46.6867 8.7043 30.8607
30322 1 45.1041 7.1217 32.4433
30323 1 46.6867 8.7043 34.0259
30324 1 45.1041 7.1217 35.6085
30325 1 46.6867 8.7043 37.1911
30326 1 45.1041 7.1217 38.7737
30327 1 46.6867 8.7043 40.3563
30328 1 45.1041 7.1217 41.9389
30329 1 46.6867 8.7043 43.5215
30330 1 45.1041 7.1217 45.1041
30331 1 46.6867 8.7043 46.6867
30332 1 45.1041 7.1217 48.2693
30333 1 46.6867 8.7043 49.8519
30334 1 45.1041 10.2869 29.2781
30335 1 46.6867 11.8695 30.8607
30336 1 45.1041 10.2869 32.4433
30337 1 46.6867 11.8695 34.0259
30338 1 45.1041 10.2869 35.6085
30339 1 46.6867 11.8695 37.1911
30340 1 45.1041 10.2869 38.7737
30341 1 46.6867 11.8695 40.3563
30342 1 45.1041 10.2869 41.9389
30343 1 46.6867 11.8695 43.5215
30344 1 45.1041 10.2869 45.1041
30345 1 46.6867 11.8695 46.6867
30346 1 45.1041 10.2869 48.2693
30347 1 46.6867 11.8695 49.8519
30348 1 45.1041 13.4521 29.2781
30349 1 46.6867 15.0347 30.8607
30350 1 45.1041 13.4521 32.4433
30351 1 46.6867 15.0347 34.0259
30352 1 45.1041 13.4521 35.6085
30353 1 46.6867 15.0347 37.1911
30354 1 45.1041 13.4521 38.7737
30355 1 46.6867 15.0347 40.3563
30356 1 45.1041 13.4521 41.9389
30357 1 46.6867 15.0347 43.5215
30358 1 45.1041 13.4521 45.1041
30359 1 46.6867 15.0347 46.6867
30360 1 45.1041 13.4521 48.2693
30361 1 46.6867 15.0347 49.8519
30362 1 45.1041 16.6173 29.2781
30363 1 46.6867 18.1999 30.8607
30364 1 45.1041 16.6173 32.4433
30365 1 46.6867 18.1999 34.0259
30366 1 45.1041 16.6173 35.6085
30367 1 46.6867 18.1999 37.1911
30368 1 45.1041 16.6173 38.7737
30369 1 46.6867 18.1999 40.3563
30370 1 45.1041 16.6173 41.9389
30371 1 46.6867 18.1999 43.5215
30372 1 45.1041 16.6173 45.1041
30373 1 46.6867 18.1999 46.6867
30374 1 45.1041 16.6173 48.2693
30375 1 46.6867 18.1999 49.8519
30376 1 45.1041 19.7825 29.2781
30377 1 46.6867 21.3651 30.8607
30378 1 45.1041 19.7825 32.4433
30379 1 46.6867 21.3651 34.0259
30380 1 45.1041 19.7825 35.6085
30381 1 46.6867 21.3651 37.1911
30382 1 45.1041 19.7825 38.7737
30383 1 46.6867 21.3651 40.3563
30384 1 45.1041 19.7825 41.9389
30385 1 46.6867 21.3651 43.5215
30386 1 45.1041 19.7825 45.1041
30387 1 46.6867 21.3651 46.6867
30388 1 45.1041 19.7825 48.2693
30389 1 46.6867 21.3651 49.8519
30390 1 48.2693 0.7913 29.2781
30391 1 49.8519 2.3739 30.8607
30392 1 48.2693 0.7913 32.4433
30393 1 49.8519 2.3739 34.0259
30394 1 48.2693 0.7913 35.6085
30395 1 49.8519 2.3739 37.1911
30396 1 48.2693 0.7913 38.7737
30397 1 49.8519 2.3739 40.3563
30398 1 48.2693 0.7913 41.9389
30399 1 49.8519 2.3739 43.5215
30400 1 48.2693 0.7913 45.1041
30401 1 49.8519 2.3739 46.6867
30402 1 48.2693 0.7913 48.2693
30403 1 49.8519 2.3739 49.8519
30404 1 48.2693 3.9565 29.2781
30405 1 49.8519 5.5391 30.8607
30406 1 48.2693 3.9565 32.4433
30407 1 49.8519 5.5391 34.0259
30408 1 48.2693 3.9565 35.6085
30409 1 49.8519 5.5391 37.1911
30410 1 48.2693 3.9565 38.7737
30411 1 49.8519 5.5391 40.3563
30412 1 48.2693 3.9565 41.9389
30413 1 49.8519 5.5391 43.5215
30414 1 48.2693 3.9565 45.1041
30415 1 49.8519 5.5391 46.6867
30416 1 48.2693 3.9565 48.2693
30417 1 49.8519 5.5391 49.8519
30418 1 48.2693 7.1217 29.2781
30419 1 49.8519 8.7043 30.8607
30420 1 48.2693 7.1217 32.4433
30421 1 49.8519 8.7043 34.0259
30422 1 48.2693 7.1217 35.6085
30423 1 49.8519 8.7043 37.1911
30424 1 48.2693 7.1217 38.7737
30425 1 49.8519 8.7043 40.3563
30426 1 48.2693 7.1217 41.9389
30427 1 49.8519 8.7043 43.5215
30428 1 48.2693 7.1217 45.1041
30429 1 49.8519 8.7043 46.6867
30430 1 48.2693 7.1217 48.2693
30431 1 49.8519 8.7043 49.8519
30432 1 48.2693 10.2869 29.2781
30433 1 49.8519 11.8695 30.8607
30434 1 48.2693 10.2869 32.4433
30435 1 49.8519 11.8695 34.0259
30436 1 48.2693 10.2869 35.6085
30437 1 49.8519 11.8695 37.1911
30438 1 48.2693 10.2869 38.7737
30439 1 49.8519 11.8695 40.3563
30440 1 48.2693 10.2869 41.9389
30441 1 49.8519 11.8695 43.5215
30442 1 48.2693 10.2869 45.1041
30443 1 49.8519 11.8695 46.6867
30444 1 48.2693 10.2869 48.2693
30445 1 49.8519 11.8695 49.8519
30446 1 48.2693 13.4521 29.2781
30447 1 49.8519 15.0347 30.8607
30448 1 48.2693 13.4521 32.4433
30449 1 49.8519 15.0347 34.0259
30450 1 48.2693 13.4521 35.6085
30451 1 49.8519 15.0347 37.1911
30452 1 48.2693 13.4521 38.7737
30453 1 49.8519 15.0347 40.3563
30454 1 48.2693 13.4521 41.9389
30455 1 49.8519 15.0347 43.5215
30456 1 48.2693 13.4521 45.1041
30457 1 49.8519 15.0347 46.6867
30458 1 48.2693 13.4521 48.2693
30459 1 49.8519 15.0347 49.8519
30460 1 48.2693 16.6173 29.2781
30461 1 49.8519 18.1999 30.8607
30462 1 48.2693 16.6173 32.4433
30463 1 49.8519 18.1999 34.0259
30464 1 48.2693 16.6173 35.6085
30465 1 49.8519 18.1999 37.1911
30466 1 48.2693 16.6173 38.7737
30467 1 49.8519 18.1999 40.3563
30468 1 48.2693 16.6173 41.9389
30469 1 49.8519 18.1999 43.5215
30470 1 48.2693 16.6173 45.1041
30471 1 49.8519 18.1999 46.6867
30472 1 48.2693 16.6173 48.2693
30473 1 49.8519 18.1999 49.8519
30474 1 48.2693 19.7825 29.2781
30475 1 49.8519 21.3651 30.8607
30476 1 48.2693 19.7825 32.4433
30477 1 49.8519 21.3651 34.0259
30478 1 48.2693 19.7825 35.6085
30479 1 49.8519 21.3651 37.1911
30480 1 48.2693 19.7825 38.7737
30481 1 49.8519 21.3651 40.3563
30482 1 48.2693 19.7825 41.9389
30483 1 49.8519 21.3651 43.5215
30484 1 48.2693 19.7825 45.1041
30485 1 49.8519 21.3651 46.6867
30486 1 48.2693 19.7825 48.2693
30487 1 49.8519 21.3651 49.8519
30488 1 26.1129 57.7649 29.2781
30489 1 27.6955 59.3475 30.8607
30490 1 26.1129 57.7649 32.4433
30491 1 27.6955 59.3475 34.0259
30492 1 26.1129 57.7649 35.6085
30493 1 27.6955 59.3475 37.1911
30494 1 26.1129 57.7649 38.7737
30495 1 27.6955 59.3475 40.3563
30496 1 26.1129 57.7649 41.9389
30497 1 27.6955 59.3475 43.5215
30498 1 26.1129 57.7649 45.1041
30499 1 27.6955 59.3475 46.6867
30500 1 26.1129 57.7649 48.2693
30501 1 27.6955 59.3475 49.8519
30502 1 26.1129 60.9301 29.2781
30503 1 27.6955 62.5127 30.8607
30504 1 26.1129 60.9301 32.4433
30505 1 27.6955 62.5127 34.0259
30506 1 26.1129 60.9301 35.6085
30507 1 27.6955 62.5127 37.1911
30508 1 26.1129 60.9301 38.7737
30509 1 27.6955 62.5127 40.3563
30510 1 26.1129 60.9301 41.9389
30511 1 27.6955 62.5127 43.5215
30512 1 26.1129 60.9301 45.1041
30513 1 27.6955 62.5127 46.6867
30514 1 26.1129 60.9301 48.2693
30515 1 27.6955 62.5127 49.8519
30516 1 26.1129 64.0953 29.2781
30517 1 27.6955 65.6779 30.8607
30518 1 26.1129 64.0953 32.4433
30519 1 27.6955 65.6779 34.0259
30520 1 26.1129 64.0953 35.6085
30521 1 27.6955 65.6779 37.1911
30522 1 26.1129 64.0953 38.7737
30523 1 27.6955 65.6779 40.3563
30524 1 26.1129 64.0953 41.9389
30525 1 27.6955 65.6779 43.5215
30526 1 26.1129 64.0953 45.1041
30527 1 27.6955 65.6779 46.6867
30528 1 26.1129 64.0953 48.2693
30529 1 27.6955 65.6779 49.8519
30530 1 26.1129 67.2605 29.2781
30531 1 27.6955 68.8431 30.8607
30532 1 26.1129 67.2605 32.4433
30533 1 27.6955 68.8431 34.0259
30534 1 26.1129 67.2605 35.6085
30535 1 27.6955 68.8431 37.1911
30536 1 26.1129 67.2605 38.7737
30537 1 27.6955 68.8431 40.3563
30538 1 26.1129 67.2605 41.9389
30539 1 27.6955 68.8431 43.5215
30540 1 26.1129 67.2605 45.1041
30541 1 27.6955 68.8431 46.6867
30542 1 26.1129 67.2605 48.2693
30543 1 27.6955 68.8431 49.8519
30544 1 26.1129 70.4257 29.2781
30545 1 27.6955 72.0083 30.8607
30546 1 26.1129 70.4257 32.4433
30547 1 27.6955 72.0083 34.0259
30548 1 26.1129 70.4257 35.6085
30549 1 27.6955 72.0083 37.1911
30550 1 26.1129 70.4257 38.7737
30551 1 27.6955 72.0083 40.3563
30552 1 26.1129 70.4257 41.9389
30553 1 27.6955 72.0083 43.5215
30554 1 26.1129 70.4257 45.1041
30555 1 27.6955 72.0083 46.6867
30556 1 26.1129 70.4257 48.2693
30557 1 27.6955 72.0083 49.8519
30558 1 26.1129 73.5909 29.2781
30559 1 27.6955 75.1735 30.8607
30560 1 26.1129 73.5909 32.4433
30561 1 27.6955 75.1735 34.0259
30562 1 26.1129 73.5909 35.6085
30563 1 27.6955 75.1735 37.1911
30564 1 26.1129 73.5909 38.7737
30565 1 27.6955 75.1735 40.3563
30566 1 26.1129 73.5909 41.9389
30567 1 27.6955 75.1735 43.5215
30568 1 26.1129 73.5909 45.1041
30569 1 27.6955 75.1735 46.6867
30570 1 26.1129 73.5909 48.2693
30571 1 27.6955 75.1735 49.8519
30572 1 26.1129 76.7561 29.2781
30573 1 27.6955 78.3387 30.8607
30574 1 26.1129 76.7561 32.4433
30575 1 27.6955 78.3387 34.0259
30576 1 26.1129 76.7561 35.6085
30577 1 27.6955 78.3387 37.1911
30578 1 26.1129 76.7561 38.7737
30579 1 27.6955 78.3387 40.3563
30580 1 26.1129 76.7561 41.9389
30581 1 27.6955 78.3387 43.5215
30582 1 26.1129 76.7561 45.1041
30583 1 27.6955 78.3387 46.6867
30584 1 26.1129 76.7561 48.2693
30585 1 27.6955 78.3387 49.8519
30586 1 29.2781 57.7649 29.2781
30587 1 30.8607 59.3475 30.8607
30588 1 29.2781 57.7649 32.4433
30589 1 30.8607 59.3475 34.0259
30590 1 29.2781 57.7649 35.6085
30591 1 30.8607 59.3475 37.1911
30592 1 29.2781 57.7649 38.7737
30593 1 30.8607 59.3475 40.3563
30594 1 29.2781 57.7649 41.9389
30595 1 30.8607 59.3475 43.5215
30596 1 29.2781 57.7649 45.1041
30597 1 30.8607 59.3475 46.6867
30598 1 29.2781 57.7649 48.2693
30599 1 30.8607 59.3475 49.8519
30600 1 29.2781 60.9301 29.2781
30601 1 30.8607 62.5127 30.8607
30602 1 29.2781 60.9301 32.4433
30603 1 30.8607 62.5127 34.0259
30604 1 29.2781 60.9301 35.6085
30605 1 30.8607 62.5127 37.1911
30606 1 29.2781 60.9301 38.7737
30607 1 30.8607 62.5127 40.3563
30608 1 29.2781 60.9301 41.9389
30609 1 30.8607 62.5127 43.5215
30610 1 29.2781 60.9301 45.1041
30611 1 30.8607 62.5127 46.6867
30612 1 29.2781 60.9301 48.2693
30613 1 30.8607 62.5127 49.8519
30614 1 29.2781 64.0953 29.2781
30615 1 30.8607 65.6779 30.8607
30616 1 29.2781 64.0953 32.4433
30617 1 30.8607 65.6779 34.0259
30618 1 29.2781 64.0953 35.6085
30619 1 30.8607 65.6779 37.1911
30620 1 29.2781 64.0953 38.7737
30621 1 30.8607 65.6779 40.3563
30622 1 29.2781 64.0953 41.9389
30623 1 30.8607 65.6779 43.5215
30624 1 29.2781 64.0953 45.1041
30625 1 30.8607 65.6779 46.6867
30626 1 29.2781 64.0953 48.2693
30627 1 30.8607 65.6779 49.8519
30628 1 29.2781 67.2605 29.2781
30629 1 30.8607 68.8431 30.8607
30630 1 29.2781 67.2605 32.4433
30631 1 30.8607 68.8431 34.0259
30632 1 29.2781 67.2605 35.6085
30633 1 30.8607 68.8431 37.1911
30634 1 29.2781 67.2605 38.7737
30635 1 30.8607 68.8431 40.3563
30636 1 29.2781 67.2605 41.9389
30637 1 30.8607 68.8431 43.5215
30638 1 29.2781 67.2605 45.1041
30639 1 30.8607 68.8431 46.6867
30640 1 29.2781 67.2605 48.2693
30641 1 30.8607 68.8431 49.8519
30642 1 29.2781 70.4257 29.2781
30643 1 30.8607 72.0083 30.8607
30644 1 29.2781 70.4257 32.4433
30645 1 30.8607 72.0083 34.0259
30646 1 29.2781 70.4257 35.6085
30647 1 30.8607 72.0083 37.1911
30648 1 29.2781 70.4257 38.7737
30649 1 30.8607 72.0083 40.3563
30650 1 29.2781 70.4257 41.9389
30651 1 30.8607 72.0083 43.5215
30652 1 29.2781 70.4257 45.1041
30653 1 30.8607 72.0083 46.6867
30654 1 29.2781 70.4257 48.2693
30655 1 30.8607 72.0083 49.8519
30656 1 29.2781 73.5909 29.2781
30657 1 30.8607 75.1735 30.8607
30658 1 29.2781 73.5909 32.4433
30659 1 30.8607 75.1735 34.0259
30660 1 29.2781 73.5909 35.6085
30661 1 30.8607 75.1735 37.1911
30662 1 29.2781 73.5909 38.7737
30663 1 30.8607 75.1735 40.3563
30664 1 29.2781 73.5909 41.9389
30665 1 30.8607 75.1735 43.5215
30666 1 29.2781 73.5909 45.1041
30667 1 30.8607 75.1735 46.6867
30668 1 29.2781 73.5909 48.2693
30669 1 30.8607 75.1735 49.8519
30670 1 29.2781 76.7561 29.2781
30671 1 30.8607 78.3387 30.8607
30672 1 29.2781 76.7561 32.4433
30673 1 30.8607 78.3387 34.0259
30674 1 29.2781 76.7561 35.6085
30675 1 30.8607 78.3387 37.1911
30676 1 29.2781 76.7561 38.7737
30677 1 30.8607 78.3387 40.3563
30678 1 29.2781 76.7561 41.9389
30679 1 30.8607 78.3387 43.5215
30680 1 29.2781 76.7561 45.1041
30681 1 30.8607 78.3387 46.6867
30682 1 29.2781 76.7561 48.2693
30683 1 30.8607 78.3387 49.8519
30684 1 32.4433 57.7649 29.2781
30685 1 34.0259 59.3475 30.8607
30686 1 32.4433 57.7649 32.4433
30687 1 34.0259 59.3475 34.0259
30688 1 32.4433 57.7649 35.6085
30689 1 34.0259 59.3475 37.1911
30690 1 32.4433 57.7649 38.7737
30691 1 34.0259 59.3475 40.3563
30692 1 32.4433 57.7649 41.9389
30693 1 34.0259 59.3475 43.5215
30694 1 32.4433 57.7649 45.1041
30695 1 34.0259 59.3475 46.6867
30696 1 32.4433 57.7649 48.2693
30697 1 34.0259 59.3475 49.8519
30698 1 32.4433 60.9301 29.2781
30699 1 34.0259 62.5127 30.8607
30700 1 32.4433 60.9301 32.4433
30701 1 34.0259 62.5127 34.0259
30702 1 32.4433 60.9301 35.6085
30703 1 34.0259 62.5127 37.1911
30704 1 32.4433 60.9301 38.7737
30705 1 34.0259 62.5127 40.3563
30706 1 32.4433 60.9301 41.9389
30707 1 34.0259 62.5127 43.5215
30708 1 32.4433 60.9301 45.1041
30709 1 34.0259 62.5127 46.6867
30710 1 32.4433 60.9301 48.2693
30711 1 34.0259 62.5127 49.8519
30712 1 32.4433 64.0953 29.2781
30713 1 34.0259 65.6779 30.8607
30714 1 32.4433 64.0953 32.4433
30715 1 34.0259 65.6779 34.0259
30716 1 32.4433 64.0953 35.6085
30717 1 34.0259 65.6779 37.1911
30718 1 32.4433 64.0953 38.7737
30719 1 34.0259 65.6779 40.3563
30720 1 32.4433 64.0953 41.9389
30721 1 34.0259 65.6779 43.5215
30722 1 32.4433 64.0953 45.1041
30723 1 34.0259 65.6779 46.6867
30724 1 32.4433 64.0953 48.2693
30725 1 34.0259 65.6779 49.8519
30726 1 32.4433 67.2605 29.2781
30727 1 34.0259 68.8431 30.8607
30728 1 32.4433 67.2605 32.4433
30729 1 34.0259 68.8431 34.0259
30730 1 32.4433 67.2605 35.6085
30731 1 34.0259 68.8431 37.1911
30732 1 32.4433 67.2605 38.7737
30733 1 34.0259 68.8431 40.3563
30734 1 32.4433 67.2605 41.9389
30735 1 34.0259 68.8431 43.5215
30736 1 32.4433 67.2605 45.1041
30737 1 34.0259 68.8431 46.6867
30738 1 32.4433 67.2605 48.2693
30739 1 34.0259 68.8431 49.8519
30740 1 32.4433 70.4257 29.2781
30741 1 34.0259 72.0083 30.8607
30742 1 32.4433 70.4257 32.4433
30743 1 34.0259 72.0083 34.0259
30744 1 32.4433 70.4257 35.6085
30745 1 34.0259 72.0083 37.1911
30746 1 32.4433 70.4257 38.7737
30747 1 34.0259 72.0083 40.3563
30748 1 32.4433 70.4257 41.9389
30749 1 34.0259 72.0083 43.5215
30750 1 32.4433 70.4257 45.1041
30751 1 34.0259 72.0083 46.6867
30752 1 32.4433 70.4257 48.2693
30753 1 34.0259 72.0083 49.8519
30754 1 32.4433 73.5909 29.2781
30755 1 34.0259 75.1735 30.8607
30756 1 32.4433 73.5909 32.4433
30757 1 34.0259 75.1735 34.0259
30758 1 32.4433 73.5909 35.6085
30759 1 34.0259 75.1735 37.1911
30760 1 32.4433 73.5909 38.7737
30761 1 34.0259 75.1735 40.3563
30762 1 32.4433 73.5909 41.9389
30763 1 34.0259 75.1735 43.5215
30764 1 32.4433 73.5909 45.1041
30765 1 34.0259 75.1735 46.6867
30766 1 32.4433 73.5909 48.2693
30767 1 34.0259 75.1735 49.8519
30768 1 32.4433 76.7561 29.2781
30769 1 34.0259 78.3387 30.8607
30770 1 32.4433 76.7561 32.4433
30771 1 34.0259 78.3387 34.0259
30772 1 32.4433 76.7561 35.6085
30773 1 34.0259 78.3387 37.1911
30774 1 32.4433 76.7561 38.7737
30775 1 34.0259 78.3387 40.3563
30776 1 32.4433 76.7561 41.9389
30777 1 34.0259 78.3387 43.5215
30778 1 32.4433 76.7561 45.1041
30779 1 34.0259 78.3387 46.6867
30780 1 32.4433 76.7561 48.2693
30781 1 34.0259 78.3387 49.8519
30782 1 35.6085 57.7649 29.2781
30783 1 37.1911 59.3475 30.8607
30784 1 35.6085 57.7649 32.4433
30785 1 37.1911 59.3475 34.0259
30786 1 35.6085 57.7649 35.6085
30787 1 37.1911 59.3475 37.1911
30788 1 35.6085 57.7649 38.7737
30789 1 37.1911 59.3475 40.3563
30790 1 35.6085 57.7649 41.9389
30791 1 37.1911 59.3475 43.5215
30792 1 35.6085 57.7649 45.1041
30793 1 37.1911 59.3475 46.6867
30794 1 35.6085 57.7649 48.2693
30795 1 37.1911 59.3475 49.8519
30796 1 35.6085 60.9301 29.2781
30797 1 37.1911 62.5127 30.8607
30798 1 35.6085 60.9301 32.4433
30799 1 37.1911 62.5127 34.0259
30800 1 35.6085 60.9301 35.6085
30801 1 37.1911 62.5127 37.1911
30802 1 35.6085 60.9301 38.7737
30803 1 37.1911 62.5127 40.3563
30804 1 35.6085 60.9301 41.9389
30805 1 37.1911 62.5127 43.5215
30806 1 35.6085 60.9301 45.1041
30807 1 37.1911 62.5127 46.6867
30808 1 35.6085 60.9301 48.2693
30809 1 37.1911 62.5127 49.8519
30810 1 35.6085 64.0953 29.2781
30811 1 37.1911 65.6779 30.8607
30812 1 35.6085 64.0953 32.4433
30813 1 37.1911 65.6779 34.0259
30814 1 35.6085 64.0953 35.6085
30815 1 37.1911 65.6779 37.1911
30816 1 35.6085 64.0953 38.7737
30817 1 37.1911 65.6779 40.3563
30818 1 35.6085 64.0953 41.9389
30819 1 37.1911 65.6779 43.5215
30820 1 35.6085 64.0953 45.1041
30821 1 37.1911 65.6779 46.6867
30822 1 35.6085 64.0953 48.2693
30823 1 37.1911 65.6779 49.8519
30824 1 35.6085 67.2605 29.2781
30825 1 37.1911 68.8431 30.8607
30826 1 35.6085 67.2605 32.4433
30827 1 37.1911 68.8431 34.0259
30828 1 35.6085 67.2605 35.6085
30829 1 37.1911 68.8431 37.1911
30830 1 35.6085 67.2605 38.7737
30831 1 37.1911 68.8431 40.3563
30832 1 35.6085 67.2605 41.9389
30833 1 37.1911 68.8431 43.5215
30834 1 35.6085 67.2605 45.1041
30835 1 37.1911 68.8431 46.6867
30836 1 35.6085 67.2605 48.2693
30837 1 37.1911 68.8431 49.8519
30838 1 35.6085 70.4257 29.2781
30839 1 37.1911 72.0083 30.8607
30840 1 35.6085 70.4257 32.4433
30841 1 37.1911 72.0083 34.0259
30842 1 35.6085 70.4257 35.6085
30843 1 37.1911 72.0083 37.1911
30844 1 35.6085 70.4257 38.7737
30845 1 37.1911 72.0083 40.3563
30846 1 35.6085 70.4257 41.9389
30847 1 37.1911 72.0083 43.5215
30848 1 35.6085 70.4257 45.1041
30849 1 37.1911 72.0083 46.6867
30850 1 35.6085 70.4257 48.2693
30851 1 37.1911 72.0083 49.8519
30852 1 35.6085 73.5909 29.2781
30853 1 37.1911 75.1735 30.8607
30854 1 35.6085 73.5909 32.4433
30855 1 37.1911 75.1735 34.0259
30856 1 35.6085 73.5909 35.6085
30857 1 37.1911 75.1735 37.1911
30858 1 35.6085 73.5909 38.7737
30859 1 37.1911 75.1735 40.3563
30860 1 35.6085 73.5909 41.9389
30861 1 37.1911 75.1735 43.5215
30862 1 35.6085 73.5909 45.1041
30863 1 37.1911 75.1735 46.6867
30864 1 35.6085 73.5909 48.2693
30865 1 37.1911 75.1735 49.8519
30866 1 35.6085 76.7561 29.2781
30867 1 37.1911 78.3387 30.8607
30868 1 35.6085 76.7561 32.4433
30869 1 37.1911 78.3387 34.0259
30870 1 35.6085 76.7561 35.6085
30871 1 37.1911 78.3387 37.1911
30872 1 35.6085 76.7561 38.7737
30873 1 37.1911 78.3387 40.3563
30874 1 35.6085 76.7561 41.9389
30875 1 37.1911 78.3387 43.5215
30876 1 35.6085 76.7561 45.1041
30877 1 37.1911 78.3387 46.6867
30878 1 35.6085 76.7561 48.2693
30879 1 37.1911 78.3387 49.8519
30880 1 38.7737 57.7649 29.2781
30881 1 40.3563 59.3475 30.8607
30882 1 38.7737 57.7649 32.4433
30883 1 40.3563 59.3475 34.0259
30884 1 38.7737 57.7649 35.6085
30885 1 40.3563 59.3475 37.1911
30886 1 38.7737 57.7649 38.7737
30887 1 40.3563 59.3475 40.3563
30888 1 38.7737 57.7649 41.9389
30889 1 40.3563 59.3475 43.5215
30890 1 38.7737 57.7649 45.1041
30891 1 40.3563 59.3475 46.6867
30892 1 38.7737 57.7649 48.2693
30893 1 40.3563 59.3475 49.8519
30894 1 38.7737 60.9301 29.2781
30895 1 40.3563 62.5127 30.8607
30896 1 38.7737 60.9301 32.4433
30897 1 40.3563 62.5127 34.0259
30898 1 38.7737 60.9301 35.6085
30899 1 40.3563 62.5127 37.1911
30900 1 38.7737 60.9301 38.7737
30901 1 40.3563 62.5127 40.3563
30902 1 38.7737 60.9301 41.9389
30903 1 40.3563 62.5127 43.5215
30904 1 38.7737 60.9301 45.1041
30905 1 40.3563 62.5127 46.6867
30906 1 38.7737 60.9301 48.2693
30907 1 40.3563 62.5127 49.8519
30908 1 38.7737 64.0953 29.2781
30909 1 40.3563 65.6779 30.8607
30910 1 38.7737 64.0953 32.4433
30911 1 40.3563 65.6779 34.0259
30912 1 38.7737 64.0953 35.6085
30913 1 40.3563 65.6779 37.1911
30914 1 38.7737 64.0953 38.7737
30915 1 40.3563 65.6779 40.3563
30916 1 38.7737 64.0953 41.9389
30917 1 40.3563 65.6779 43.5215
30918 1 38.7737 64.0953 45.1041
30919 1 40.3563 65.6779 46.6867
30920 1 38.7737 64.0953 48.2693
30921 1 40.3563 65.6779 49.8519
30922 1 38.7737 67.2605 29.2781
30923 1 40.3563 68.8431 30.8607
30924 1 38.7737 67.2605 32.4433
30925 1 40.3563 68.8431 34.0259
30926 1 38.7737 67.2605 35.6085
30927 1 40.3563 68.8431 37.1911
30928 1 38.7737 67.2605 38.7737
30929 1 40.3563 68.8431 40.3563
30930 1 38.7737 67.2605 41.9389
30931 1 40.3563 68.8431 43.5215
30932 1 38.7737 67.2605 45.1041
30933 1 40.3563 68.8431 46.6867
30934 1 38.7737 67.2605 48.2693
30935 1 40.3563 68.8431 49.8519
30936 1 38.7737 70.4257 29.2781
30937 1 40.3563 72.0083 30.8607
30938 1 38.7737 70.4257 32.4433
30939 1 40.3563 72.0083 34.0259
30940 1 38.7737 70.4257 35.6085
30941 1 40.3563 72.0083 37.1911
30942 1 38.7737 70.4257 38.7737
30943 1 40.3563 72.0083 40.3563
30944 1 38.7737 70.4257 41.9389
30945 1 40.3563 72.0083 43.5215
30946 1 38.7737 70.4257 45.1041
30947 1 40.3563 72.0083 46.6867
30948 1 38.7737 70.4257 48.2693
30949 1 40.3563 72.0083 49.8519
30950 1 38.7737 73.5909 29.2781
30951 1 40.3563 75.1735 30.8607
30952 1 38.7737 73.5909 32.4433
30953 1 40.3563 75.1735 34.0259
30954 1 38.7737 73.5909 35.6085
30955 1 40.3563 75.1735 37.1911
30956 1 38.7737 73.5909 38.7737
30957 1 40.3563 75.1735 40.3563
30958 1 38.7737 73.5909 41.9389
30959 1 40.3563 75.1735 43.5215
30960 1 38.7737 73.5909 45.1041
30961 1 40.3563 75.1735 46.6867
30962 1 38.7737 73.5909 48.2693
30963 1 40.3563 75.1735 49.8519
30964 1 38.7737 76.7561 29.2781
30965 1 40.3563 78.3387 30.8607
30966 1 38.7737 76.7561 32.4433
30967 1 40.3563 78.3387 34.0259
30968 1 38.7737 76.7561 35.6085
30969 1 40.3563 78.3387 37.1911
30970 1 38.7737 76.7561 38.7737
30971 1 40.3563 78.3387 40.3563
30972 1 38.7737 76.7561 41.9389
30973 1 40.3563 78.3387 43.5215
30974 1 38.7737 76.7561 45.1041
30975 1 40.3563 78.3387 46.6867
30976 1 38.7737 76.7561 48.2693
30977 1 40.3563 78.3387 49.8519
30978 1 41.9389 57.7649 29.2781
30979 1 43.5215 59.3475 30.8607
30980 1 41.9389 57.7649 32.4433
30981 1 43.5215 59.3475 34.0259
30982 1 41.9389 57.7649 35.6085
30983 1 43.5215 59.3475 37.1911
30984 1 41.9389 57.7649 38.7737
30985 1 43.5215 59.3475 40.3563
30986 1 41.9389 57.7649 41.9389
30987 1 43.5215 59.3475 43.5215
30988 1 41.9389 57.7649 45.1041
30989 1 43.5215 59.3475 46.6867
30990 1 41.9389 57.7649 48.2693
30991 1 43.5215 59.3475 49.8519
30992 1 41.9389 60.9301 29.2781
30993 1 43.5215 62.5127 30.8607
30994 1 41.9389 60.9301 32.4433
30995 1 43.5215 62.5127 34.0259
30996 1 41.9389 60.9301 35.6085
30997 1 43.5215 62.5127 37.1911
30998 1 41.9389 60.9301 38.7737
30999 1 43.5215 62.5127 40.3563
31000 1 41.9389 60.9301 41.9389
31001 1 43.5215 62.5127 43.5215
31002 1 41.9389 60.9301 45.1041
31003 1 43.5215 62.5127 46.6867
31004 1 41.9389 60.9301 48.2693
31005 1 43.5215 62.5127 49.8519
31006 1 41.9389 64.0953 29.2781
31007 1 43.5215 65.6779 30.8607
31008 1 41.9389 64.0953 32.4433
31009 1 43.5215 65.6779 34.0259
31010 1 41.9389 64.0953 35.6085
31011 1 43.5215 65.6779 37.1911
31012 1 41.9389 64.0953 38.7737
31013 1 43.5215 65.6779 40.3563
31014 1 41.9389 64.0953 41.9389
31015 1 43.5215 65.6779 43.5215
31016 1 41.9389 64.0953 45.1041
31017 1 43.5215 65.6779 46.6867
31018 1 41.9389 64.0953 48.2693
31019 1 43.5215 65.6779 49.8519
31020 1 41.9389 67.2605 29.2781
31021 1 43.5215 68.8431 30.8607
31022 1 41.9389 67.2605 32.4433
31023 1 43.5215 68.8431 34.0259
31024 1 41.9389 67.2605 35.6085
31025 1 43.5215 68.8431 37.1911
31026 1 41.9389 67.2605 38.7737
31027 1 43.5215 68.8431 40.3563
31028 1 41.9389 67.2605 41.9389
31029 1 43.5215 68.8431 43.5215
31030 1 41.9389 67.2605 45.1041
31031 1 43.5215 68.8431 46.6867
31032 1 41.9389 67.2605 48.2693
31033 1 43.5215 68.8431 49.8519
31034 1 41.9389 70.4257 29.2781
31035 1 43.5215 72.0083 30.8607
31036 1 41.9389 70.4257 32.4433
31037 1 43.5215 72.0083 34.0259
31038 1 41.9389 70.4257 35.6085
31039 1 43.5215 72.0083 37.1911
31040 1 41.9389 70.4257 38.7737
31041 1 43.5215 72.0083 40.3563
31042 1 41.9389 70.4257 41.9389
31043 1 43.5215 72.0083 43.5215
31044 1 41.9389 70.4257 45.1041
31045 1 43.5215 72.0083 46.6867
31046 1 41.9389 70.4257 48.2693
31047 1 43.5215 72.0083 49.8519
31048 1 41.9389 73.5909 29.2781
31049 1 43.5215 75.1735 30.8607
31050 1 41.9389 73.5909 32.4433
31051 1 43.5215 75.1735 34.0259
31052 1 41.9389 73.5909 35.6085
31053 1 43.5215 75.1735 37.1911
31054 1 41.9389 73.5909 38.7737
31055 1 43.5215 75.1735 40.3563
31056 1 41.9389 73.5909 41.9389
31057 1 43.5215 75.1735 43.5215
31058 1 41.9389 73.5909 45.1041
31059 1 43.5215 75.1735 46.6867
31060 1 41.9389 73.5909 48.2693
31061 1 43.5215 75.1735 49.8519
31062 1 41.9389 76.7561 29.2781
31063 1 43.5215 78.3387 30.8607
31064 1 41.9389 76.7561 32.4433
31065 1 43.5215 78.3387 34.0259
31066 1 41.9389 76.7561 35.6085
31067 1 43.5215 78.3387 37.1911
31068 1 41.9389 76.7561 38.7737
31069 1 43.5215 78.3387 40.3563
31070 1 41.9389 76.7561 41.9389
31071 1 43.5215 78.3387 43.5215
31072 1 41.9389 76.7561 45.1041
31073 1 43.5215 78.3387 46.6867
31074 1 41.9389 76.7561 48.2693
31075 1 43.5215 78.3387 49.8519
31076 1 45.1041 57.7649 29.2781
31077 1 46.6867 59.3475 30.8607
31078 1 45.1041 57.7649 32.4433
31079 1 46.6867 59.3475 34.0259
31080 1 45.1041 57.7649 35.6085
31081 1 46.6867 59.3475 37.1911
31082 1 45.1041 57.7649 38.7737
31083 1 46.6867 59.3475 40.3563
31084 1 45.1041 57.7649 41.9389
31085 1 46.6867 59.3475 43.5215
31086 1 45.1041 57.7649 45.1041
31087 1 46.6867 59.3475 46.6867
31088 1 45.1041 57.7649 48.2693
31089 1 46.6867 59.3475 49.8519
31090 1 45.1041 60.9301 29.2781
31091 1 46.6867 62.5127 30.8607
31092 1 45.1041 60.9301 32.4433
31093 1 46.6867 62.5127 34.0259
31094 1 45.1041 60.9301 35.6085
31095 1 46.6867 62.5127 37.1911
31096 1 45.1041 60.9301 38.7737
31097 1 46.6867 62.5127 40.3563
31098 1 45.1041 60.9301 41.9389
31099 1 46.6867 62.5127 43.5215
31100 1 45.1041 60.9301 45.1041
31101 1 46.6867 62.5127 46.6867
31102 1 45.1041 60.9301 48.2693
31103 1 46.6867 62.5127 49.8519
31104 1 45.1041 64.0953 29.2781
31105 1 46.6867 65.6779 30.8607
31106 1 45.1041 64.0953 32.4433
31107 1 46.6867 65.6779 34.0259
31108 1 45.1041 64.0953 35.6085
31109 1 46.6867 65.6779 37.1911
31110 1 45.1041 64.0953 38.7737
31111 1 46.6867 65.6779 40.3563
31112 1 45.1041 64.0953 41.9389
31113 1 46.6867 65.6779 43.5215
31114 1 45.1041 64.0953 45.1041
31115 1 46.6867 65.6779 46.6867
31116 1 45.1041 64.0953 48.2693
31117 1 46.6867 65.6779 49.8519
31118 1 45.1041 67.2605 29.2781
31119 1 46.6867 68.8431 30.8607
31120 1 45.1041 67.2605 32.4433
31121 1 46.6867 68.8431 34.0259
31122 1 45.1041 67.2605 35.6085
31123 1 46.6867 68.8431 37.1911
31124 1 45.1041 67.2605 38.7737
31125 1 46.6867 68.8431 40.3563
31126 1 45.1041 67.2605 41.9389
31127 1 46.6867 68.8431 43.5215
31128 1 45.1041 67.2605 45.1041
31129 1 46.6867 68.8431 46.6867
31130 1 45.1041 67.2605 48.2693
31131 1 46.6867 68.8431 49.8519
31132 1 45.1041 70.4257 29.2781
31133 1 46.6867 72.0083 30.8607
31134 1 45.1041 70.4257 32.4433
31135 1 46.6867 72.0083 34.0259
31136 1 45.1041 70.4257 35.6085
31137 1 46.6867 72.0083 37.1911
31138 1 45.1041 70.4257 38.7737
31139 1 46.6867 72.0083 40.3563
31140 1 45.1041 70.4257 41.9389
31141 1 46.6867 72.0083 43.5215
31142 1 45.1041 70.4257 45.1041
31143 1 46.6867 72.0083 46.6867
31144 1 45.1041 70.4257 48.2693
31145 1 46.6867 72.0083 49.8519
31146 1 45.1041 73.5909 29.2781
31147 1 46.6867 75.1735 30.8607
31148 1 45.1041 73.5909 32.4433
31149 1 46.6867 75.1735 34.0259
31150 1 45.1041 73.5909 35.6085
31151 1 46.6867 75.1735 37.1911
31152 1 45.1041 73.5909 38.7737
31153 1 46.6867 75.1735 40.3563
31154 1 45.1041 73.5909 41.9389
31155 1 46.6867 75.1735 43.5215
31156 1 45.1041 73.5909 45.1041
31157 1 46.6867 75.1735 46.6867
31158 1 45.1041 73.5909 48.2693
31159 1 46.6867 75.1735 49.8519
31160 1 45.1041 76.7561 29.2781
31161 1 46.6867 78.3387 30.8607
31162 1 45.1041 76.7561 32.4433
31163 1 46.6867 78.3387 34.0259
31164 1 45.1041 76.7561 35.6085
31165 1 46.6867 78.3387 37.1911
31166 1 45.1041 76.7561 38.7737
31167 1 46.6867 78.3387 40.3563
31168 1 45.1041 76.7561 41.9389
31169 1 46.6867 78.3387 43.5215
31170 1 45.1041 76.7561 45.1041
31171 1 46.6867 78.3387 46.6867
31172 1 45.1041 76.7561 48.2693
31173 1 46.6867 78.3387 49.8519
31174 1 48.2693 57.7649 29.2781
31175 1 49.8519 59.3475 30.8607
31176 1 48.2693 57.7649 32.4433
31177 1 49.8519 59.3475 34.0259
31178 1 48.2693 57.7649 35.6085
31179 1 49.8519 59.3475 37.1911
31180 1 48.2693 57.7649 38.7737
31181 1 49.8519 59.3475 40.3563
31182 1 48.2693 57.7649 41.9389
31183 1 49.8519 59.3475 43.5215
31184 1 48.2693 57.7649 45.1041
31185 1 49.8519 59.3475 46.6867
31186 1 48.2693 57.7649 48.2693
31187 1 49.8519 59.3475 49.8519
31188 1 48.2693 60.9301 29.2781
31189 1 49.8519 62.5127 30.8607
31190 1 48.2693 60.9301 32.4433
31191 1 49.8519 62.5127 34.0259
31192 1 48.2693 60.9301 35.6085
31193 1 49.8519 62.5127 37.1911
31194 1 48.2693 60.9301 38.7737
31195 1 49.8519 62.5127 40.3563
31196 1 48.2693 60.9301 41.9389
31197 1 49.8519 62.5127 43.5215
31198 1 48.2693 60.9301 45.1041
31199 1 49.8519 62.5127 46.6867
31200 1 48.2693 60.9301 48.2693
31201 1 49.8519 62.5127 49.8519
31202 1 48.2693 64.0953 29.2781
31203 1 49.8519 65.6779 30.8607
31204 1 48.2693 64.0953 32.4433
31205 1 49.8519 65.6779 34.0259
31206 1 48.2693 64.0953 35.6085
31207 1 49.8519 65.6779 37.1911
31208 1 48.2693 64.0953 38.7737
31209 1 49.8519 65.6779 40.3563
31210 1 48.2693 64.0953 41.9389
31211 1 49.8519 65.6779 43.5215
31212 1 48.2693 64.0953 45.1041
31213 1 49.8519 65.6779 46.6867
31214 1 48.2693 64.0953 48.2693
31215 1 49.8519 65.6779 49.8519
31216 1 48.2693 67.2605 29.2781
31217 1 49.8519 68.8431 30.8607
31218 1 48.2693 67.2605 32.4433
31219 1 49.8519 68.8431 34.0259
31220 1 48.2693 67.2605 35.6085
31221 1 49.8519 68.8431 37.1911
31222 1 48.2693 67.2605 38.7737
31223 1 49.8519 68.8431 40.3563
31224 1 48.2693 67.2605 41.9389
31225 1 49.8519 68.8431 43.5215
31226 1 48.2693 67.2605 45.1041
31227 1 49.8519 68.8431 46.6867
31228 1 48.2693 67.2605 48.2693
31229 1 49.8519 68.8431 49.8519
31230 1 48.2693 70.4257 29.2781
31231 1 49.8519 72.0083 30.8607
31232 1 48.2693 70.4257 32.4433
31233 1 49.8519 72.0083 34.0259
31234 1 48.2693 70.4257 35.6085
31235 1 49.8519 72.0083 37.1911
31236 1 48.2693 70.4257 38.7737
31237 1 49.8519 72.0083 40.3563
31238 1 48.2693 70.4257 41.9389
31239 1 49.8519 72.0083 43.5215
31240 1 48.2693 70.4257 45.1041
31241 1 49.8519 72.0083 46.6867
31242 1 48.2693 70.4257 48.2693
31243 1 49.8519 72.0083 49.8519
31244 1 48.2693 73.5909 29.2781
31245 1 49.8519 75.1735 30.8607
31246 1 48.2693 73.5909 32.4433
31247 1 49.8519 75.1735 34.0259
31248 1 48.2693 73.5909 35.6085
31249 1 49.8519 75.1735 37.1911
31250 1 48.2693 73.5909 38.7737
31251 1 49.8519 75.1735 40.3563
31252 1 48.2693 73.5909 41.9389
31253 1 49.8519 75.1735 43.5215
31254 1 48.2693 73.5909 45.1041
31255 1 49.8519 75.1735 46.6867
31256 1 48.2693 73.5909 48.2693
31257 1 49.8519 75.1735 49.8519
31258 1 48.2693 76.7561 29.2781
31259 1 49.8519 78.3387 30.8607
31260 1 48.2693 76.7561 32.4433
31261 1 49.8519 78.3387 34.0259
31262 1 48.2693 76.7561 35.6085
31263 1 49.8519 78.3387 37.1911
31264 1 48.2693 76.7561 38.7737
31265 1 49.8519 78.3387 40.3563
31266 1 48.2693 76.7561 41.9389
31267 1 49.8519 78.3387 43.5215
31268 1 48.2693 76.7561 45.1041
31269 1 49.8519 78.3387 46.6867
31270 1 48.2693 76.7561 48.2693
31271 1 49.8519 78.3387 49.8519
