./desired/Marinica/16_11/52_66/cluster.dat


8208 atoms
0 bonds
0 angles
0 dihedrals
0 impropers

2 atom types
0 bond types
0 angle types
0 dihedral types
0 improper types


0.000      50.29424 xlo xhi
0.000      50.29424 ylo yhi
0.000      50.29424 zlo zhi


Atoms

1 1 14.9426 37.0965 30.7793
2 1 14.9299 37.0173 40.2301
3 1 14.9747 37.1064 33.8891
4 1 14.8533 37.128 37.0983
5 1 14.8313 37.1283 27.5451
6 1 14.9196 37.0742 24.3584
7 1 14.9197 37.0768 18.0547
8 1 14.9029 37.0093 11.7329
9 1 14.9486 37.0973 21.2515
10 1 14.9767 37.0026 14.8521
11 1 13.3162 35.5678 19.6521
12 1 13.3204 35.5103 29.0953
13 1 13.3151 35.458 32.3403
14 1 13.3911 35.6249 16.5069
15 1 13.3767 35.5373 22.8131
16 1 13.4046 35.4765 13.3229
17 1 13.3453 35.496 35.4174
18 1 13.2722 35.5104 25.9105
19 1 13.3279 35.5035 10.1688
20 1 13.3415 35.5206 38.5778
21 1 18.0793 37.0847 14.9185
22 1 18.1046 37.0957 40.131
23 1 18.0818 37.0417 33.8895
24 1 21.2964 37.0829 14.9914
25 1 21.2243 37.0692 24.3801
26 1 18.0838 37.0615 27.5876
27 1 21.248 37.0602 40.0701
28 1 24.5212 37.0603 14.9436
29 1 21.2505 37.0926 37.061
30 1 24.4619 36.9804 11.7603
31 1 24.368 37.0148 27.5378
32 1 24.4064 37.0553 33.8733
33 1 24.4131 37.046 37.0676
34 1 24.426 37.0574 40.1732
35 1 24.4171 37.0877 21.2231
36 1 21.2816 37.0446 30.7331
37 1 21.2631 37.0908 33.9221
38 1 18.1273 37.0885 37.007
39 1 24.3736 37.0567 30.6995
40 1 21.2364 37.0729 27.5219
41 1 18.0426 37.0502 18.0591
42 1 18.1038 37.0605 30.7071
43 1 18.1614 37.0782 24.4063
44 1 21.2786 37.009 18.047
45 1 24.4606 37.0527 18.0513
46 1 24.4038 36.9495 24.4074
47 1 21.2874 37.0231 21.1892
48 1 18.2086 37.0366 11.7445
49 1 18.123 37.0469 21.1851
50 1 21.3049 37.019 11.8074
51 1 16.5104 35.5526 29.2159
52 1 16.527 35.6048 22.8013
53 1 16.4807 35.539 25.9804
54 1 19.666 35.5479 29.17
55 1 16.4677 35.4599 32.3803
56 1 19.6719 35.4573 16.5171
57 1 19.6871 35.4959 32.2744
58 1 22.8127 35.5137 32.3096
59 1 19.6399 35.4858 25.9746
60 1 26.0237 35.5258 29.1719
61 1 16.4883 35.4583 16.4811
62 1 22.7841 35.4046 35.44
63 1 25.9795 35.4926 38.6457
64 1 19.7083 35.5162 19.618
65 1 22.8063 35.4013 29.1162
66 1 19.642 35.4537 22.8349
67 1 19.6717 35.4525 38.5689
68 1 16.4825 35.5334 35.4468
69 1 16.4389 35.4846 38.5616
70 1 22.9051 35.5153 13.3596
71 1 25.9415 35.5058 35.441
72 1 16.5905 35.4516 13.3009
73 1 26.0514 35.4345 13.3848
74 1 25.9765 35.4757 32.3054
75 1 26.04 35.42 16.5331
76 1 25.9612 35.4885 26.0249
77 1 22.8869 35.493 38.5903
78 1 25.9358 35.4497 22.7823
79 1 19.7413 35.4196 10.2648
80 1 19.6296 35.5246 35.454
81 1 25.9994 35.3821 19.6529
82 1 22.8326 35.3433 19.6651
83 1 27.6326 37.0336 21.2181
84 1 27.5929 36.907 18.1009
85 1 27.5582 37.0109 40.1458
86 1 30.7357 37.0533 11.808
87 1 30.7525 37.0861 14.8368
88 1 30.7066 37.0563 18.066
89 1 30.7473 37.1041 21.2548
90 1 30.7369 37.0315 24.4096
91 1 30.7123 37.0469 27.5041
92 1 30.6897 37.0534 30.6989
93 1 30.7446 37.0676 33.9058
94 1 30.6841 37.0546 37.0259
95 1 30.6601 37.0646 40.1586
96 1 33.9617 37.1082 11.7831
97 1 33.9795 37.1133 14.9606
98 1 33.9746 37.072 18.0553
99 1 33.9265 37.0775 21.1917
100 1 33.9159 37.0299 24.4631
101 1 33.98 37.0687 27.5189
102 1 33.9411 37.1123 30.7207
103 1 33.9159 37.0327 33.7828
104 1 33.8552 37.0544 37.0537
105 1 33.8945 36.9723 40.1363
106 1 32.4267 35.4991 29.1403
107 1 32.4057 35.562 16.4699
108 1 29.2615 35.4746 16.4578
109 1 29.1943 35.4016 19.6893
110 1 32.3769 35.5823 13.2688
111 1 32.4114 35.5389 22.7652
112 1 29.2413 35.4809 13.3552
113 1 27.5587 37.0861 27.5728
114 1 29.1549 35.4301 10.1761
115 1 27.5851 37.087 11.7513
116 1 32.406 35.4736 25.9904
117 1 29.1343 35.4456 32.2765
118 1 29.1237 35.4813 25.9874
119 1 32.3223 35.4475 10.1786
120 1 29.1789 35.4517 35.4123
121 1 27.5703 37.0291 14.9344
122 1 32.3026 35.4657 35.4138
123 1 29.1163 35.4883 38.536
124 1 27.5789 36.9457 24.361
125 1 27.577 37.0747 36.9717
126 1 29.181 35.4868 22.7909
127 1 27.5612 37.0298 30.7374
128 1 32.308 35.4567 38.514
129 1 27.5001 37.0366 33.9342
130 1 14.8375 30.8326 27.579
131 1 13.3594 29.1402 10.1597
132 1 13.3156 32.381 16.4284
133 1 13.2939 32.2977 25.9867
134 1 13.3215 29.2599 13.325
135 1 13.357 29.2096 35.4874
136 1 13.2928 26.0011 26.0054
137 1 13.3354 25.9787 32.3738
138 1 13.2841 32.391 32.2806
139 1 13.3528 32.3685 35.4494
140 1 13.3505 32.2799 38.542
141 1 13.3253 26.0224 10.1764
142 1 13.2524 25.9812 13.3041
143 1 14.8938 27.5527 33.9654
144 1 13.3181 26.0204 35.47
145 1 13.4064 26.0027 38.5788
146 1 14.9354 27.5826 40.2194
147 1 13.3235 29.1026 19.6504
148 1 13.3618 29.1953 22.7893
149 1 13.3659 29.2312 38.5467
150 1 14.8927 30.7644 30.7614
151 1 14.9965 30.7783 37.0353
152 1 14.902 27.6159 37.0444
153 1 14.8717 24.4323 40.1443
154 1 13.3389 29.2067 32.29
155 1 14.8612 33.8746 37.0376
156 1 13.2493 29.1899 16.4661
157 1 14.9275 24.4277 33.8913
158 1 14.8588 27.5949 17.9794
159 1 14.9157 24.437 37.0228
160 1 13.2736 29.1813 29.1405
161 1 13.2525 26.0136 16.4545
162 1 14.9354 27.5953 11.819
163 1 14.9517 30.7262 40.156
164 1 13.3457 29.2236 26.0565
165 1 13.3626 32.3485 10.1564
166 1 13.41 32.3114 22.8006
167 1 13.2923 32.2713 29.1467
168 1 14.9094 33.9154 33.9156
169 1 14.9031 30.797 33.8625
170 1 14.8825 27.5718 14.8323
171 1 13.3152 26.0946 19.6832
172 1 14.8508 33.8098 40.1572
173 1 13.4166 32.403 19.6748
174 1 13.3512 32.3831 13.3095
175 1 13.3271 25.9747 29.2279
176 1 14.8327 24.475 30.8226
177 1 14.8506 30.7629 14.9216
178 1 14.8545 30.7852 17.9995
179 1 14.9125 33.9854 27.5783
180 1 14.847 27.692 30.8321
181 1 14.8585 27.6211 24.5068
182 1 14.9416 33.9113 11.7325
183 1 13.4016 26.0521 22.7635
184 1 14.8299 33.9759 24.3915
185 1 14.8536 33.9477 30.7857
186 1 14.8621 24.386 11.8079
187 1 14.8817 27.6882 21.2901
188 1 14.9879 30.8033 21.1672
189 1 14.8907 30.7839 11.7598
190 1 14.918 24.4217 14.8945
191 1 14.8696 24.3958 18.0415
192 1 14.802 27.5565 27.6093
193 1 14.8695 24.3924 21.2162
194 1 14.9174 24.398 27.5994
195 1 14.8945 30.7175 24.4083
196 1 14.8872 33.9922 18.102
197 1 14.8544 24.4673 24.4522
198 1 14.9172 33.9549 21.2455
199 1 14.9564 33.9924 14.8925
200 1 18.1552 27.6189 11.7036
201 1 18.0545 24.4613 33.9139
202 1 18.047 24.4402 36.9588
203 1 19.6905 26.0068 10.175
204 1 22.8377 29.1325 16.5859
205 1 20.9712 27.7135 18.0148
206 1 19.325 29.3452 22.8733
207 1 20.5659 24.212 27.7749
208 1 19.458 26.1355 29.2123
209 1 16.3759 26.0775 32.3062
210 1 18.0461 27.5328 33.9128
211 1 18.1459 27.6451 37.0289
212 1 16.5715 25.9868 38.5839
213 1 18.0473 27.5806 40.183
214 1 22.8275 32.2952 13.3667
215 1 16.4072 29.1964 16.4303
216 1 17.9633 30.9345 21.1452
217 1 17.8111 27.7119 21.1829
218 1 19.5226 29.2594 29.2099
219 1 18.0159 30.8012 30.8391
220 1 19.6492 29.3107 32.3419
221 1 16.4582 29.1676 35.4663
222 1 18.0694 30.7461 36.9969
223 1 16.5086 29.1489 38.5709
224 1 18.0982 30.7179 40.1912
225 1 19.6749 32.2798 13.3308
226 1 17.9023 30.9123 24.4937
227 1 17.8345 27.6877 24.4894
228 1 19.6628 32.418 29.1843
229 1 16.4726 32.4528 32.3275
230 1 18.0909 30.7929 33.8701
231 1 19.6514 32.3536 35.4487
232 1 17.9987 33.9338 40.125
233 1 21.282 24.4882 40.1965
234 1 22.7919 26.0591 10.2298
235 1 19.736 29.2372 13.378
236 1 19.6951 29.1853 10.1945
237 1 18.0798 30.8043 14.8782
238 1 26.2204 26.182 16.3904
239 1 20.5119 27.5957 21.2794
240 1 22.7394 29.5754 25.9859
241 2 23.0939 27.427 24.7606
242 1 21.8276 25.8577 26.2163
243 2 24.3228 25.242 28.846
244 1 22.1573 25.979 28.994
245 1 19.5637 26.0377 32.3748
246 1 22.7186 26.0657 32.2481
247 1 19.664 25.975 35.4956
248 1 21.2133 27.6174 37.0356
249 1 19.5908 25.9777 38.585
250 1 21.241 27.5536 40.1688
251 1 16.5676 32.2589 10.2107
252 1 18.101 30.6877 11.8294
253 1 21.2279 30.7524 11.7675
254 1 19.5928 29.2233 16.3518
255 1 22.8498 26.0123 16.7733
256 1 16.4193 32.3877 19.5982
257 1 24.7365 27.685 18.0017
258 1 19.5181 29.2962 19.5731
259 1 22.0088 29.2876 22.9984
260 1 19.0786 25.99 22.8973
261 1 17.8724 27.646 27.686
262 1 21.1324 30.8581 27.6344
263 1 20.9378 27.8545 27.535
264 1 21.2197 30.8349 30.7103
265 1 18.036 27.6881 30.821
266 1 21.1655 27.7042 30.7486
267 1 19.6417 29.2276 35.4533
268 1 21.2404 30.8442 37.0071
269 1 19.673 29.1937 38.5544
270 1 21.2008 30.6966 40.1619
271 1 18.1659 33.9296 11.7347
272 1 21.413 33.918 11.8153
273 1 22.7803 29.0987 13.3913
274 1 18.0272 30.8276 18.0694
275 1 16.5352 32.3628 16.4659
276 1 21.1897 33.8794 21.2803
277 1 16.4933 32.4318 22.8349
278 1 19.5684 32.4302 22.7313
279 2 24.4261 29.0303 23.1862
280 1 21.2487 33.9167 30.7986
281 1 19.6753 32.3483 32.299
282 1 22.8506 29.1316 32.2711
283 1 21.2877 30.8063 33.9078
284 1 21.1917 33.9268 37.0259
285 1 19.6665 32.3062 38.5892
286 1 21.1975 33.8716 40.2034
287 1 24.392 24.5322 33.9082
288 1 22.8089 26.0739 35.3844
289 1 21.1731 27.544 11.7449
290 1 24.3666 27.5406 11.81
291 1 22.8718 26.0597 13.441
292 1 19.2077 26.0005 19.4873
293 2 24.3658 25.8772 23.0194
294 2 25.7496 27.3467 24.7335
295 1 24.3624 27.8247 27.492
296 1 26.0097 29.1868 29.0856
297 1 26.1191 26.069 32.2478
298 1 24.4361 27.5377 33.7566
299 1 21.2139 27.6749 33.8512
300 1 24.425 27.5775 36.9589
301 1 22.8123 26.0123 38.5223
302 1 24.3605 27.6584 40.1565
303 1 22.8951 29.1136 10.2342
304 1 26.1277 32.2538 10.2067
305 1 21.2364 27.5292 14.958
306 1 24.4612 30.7562 11.7573
307 1 24.4583 27.6618 14.9727
308 1 26.3677 29.2357 19.5579
309 2 21.8399 25.9496 19.6854
310 1 21.0894 30.8868 21.163
311 1 20.5318 27.6858 24.5276
312 1 24.4197 31.1011 24.4616
313 1 24.405 30.8739 27.5665
314 1 22.7656 29.232 29.1276
315 1 24.3747 30.6976 30.6436
316 1 24.4294 27.5113 30.6019
317 1 24.4458 30.7259 33.8743
318 1 22.9093 29.1861 35.3734
319 1 24.436 30.7454 36.9515
320 1 22.8481 29.157 38.5546
321 1 24.407 30.749 40.1691
322 1 22.9077 32.2891 10.1927
323 1 24.4814 33.8437 11.7997
324 1 24.398 33.875 14.923
325 1 22.8372 32.3829 16.4903
326 1 25.9925 32.3517 16.5207
327 1 22.6189 29.1486 19.553
328 1 22.7128 32.2689 22.817
329 1 22.7652 32.4401 26.1126
330 1 24.3841 33.9272 27.6162
331 1 22.8523 32.3745 29.1826
332 1 24.3853 33.9311 30.714
333 1 22.8335 32.3005 32.275
334 1 22.8181 32.3621 35.41
335 1 24.4032 33.8889 37.0053
336 1 22.8321 32.3478 38.6349
337 1 24.4093 33.8765 40.2046
338 1 26.0201 26.0283 10.1425
339 1 26.5568 26.0746 29.0075
340 1 26.0587 25.9653 35.4148
341 1 25.9857 26.0007 38.5525
342 1 26.075 29.2145 13.2875
343 2 25.5901 27.4488 21.2679
344 1 25.9655 29.1945 32.2799
345 1 26.0465 29.1795 35.4707
346 1 26.0312 29.1722 38.5614
347 1 26.0179 32.3823 26.053
348 1 26.0068 32.3276 32.3778
349 1 26.018 32.3478 35.4408
350 1 25.9689 32.2739 38.5636
351 1 21.2934 30.8238 14.9238
352 2 23.1345 27.5682 21.411
353 1 24.3767 33.8445 33.8639
354 1 21.2166 33.9329 33.8652
355 1 24.5579 30.6848 18.0428
356 1 21.195 33.8911 18.0276
357 1 16.475 25.9549 10.2002
358 1 18.0383 27.6342 14.8094
359 1 18.0181 33.978 30.7667
360 1 18.0581 24.4381 40.1845
361 1 17.9044 30.9236 27.7054
362 1 19.3499 29.3857 26.0995
363 1 21.1972 30.775 17.9485
364 1 16.4335 25.9935 16.3731
365 1 16.4141 32.498 29.1905
366 1 24.4416 30.7434 14.946
367 1 26.0379 29.1871 10.2094
368 1 16.5136 25.9959 13.2838
369 1 24.413 24.493 40.1253
370 1 24.3663 30.6291 21.1855
371 1 24.4004 24.4509 36.9715
372 1 26.0472 26.0947 13.3848
373 1 16.4199 26.0805 29.269
374 1 19.6026 32.4115 19.5939
375 1 16.377 32.432 26.0387
376 1 26.1817 29.2505 16.4014
377 1 19.711 32.3344 10.2112
378 1 21.2526 24.4267 33.905
379 1 26.0041 32.2932 29.1617
380 1 26.0659 32.379 13.4192
381 1 22.8523 32.271 19.6874
382 1 17.8558 24.3859 27.7093
383 2 27.0465 25.9846 22.8666
384 2 24.2136 25.8455 19.6641
385 1 19.4982 26.0153 16.3807
386 1 21.2239 33.984 24.4594
387 1 21.2183 33.9292 14.9026
388 1 16.5121 32.3967 35.4446
389 1 21.1973 24.4073 37.0078
390 1 16.4601 26.039 35.5264
391 1 18.0704 33.978 21.2193
392 1 18.0742 33.8997 37.0258
393 1 21.0735 31.0295 24.4767
394 1 17.747 24.4226 21.1612
395 1 24.3865 33.9303 24.3028
396 1 19.6068 32.3692 16.4
397 1 24.4579 24.4571 11.8716
398 1 16.5837 32.286 38.5786
399 1 17.9238 24.42 30.7976
400 1 21.0442 24.419 30.818
401 1 21.2142 33.9538 27.6342
402 2 24.4097 25.6998 26.2618
403 1 19.6794 25.9119 13.366
404 1 19.4925 32.4827 26.0341
405 1 18.0003 33.9673 27.6457
406 1 16.4705 29.2451 22.8367
407 1 19.1619 26.0177 26.1333
408 1 16.3551 26.0543 26.0318
409 1 26.0652 29.5169 25.9776
410 1 26.872 25.9608 19.5336
411 1 24.4183 33.9031 18.1233
412 1 18.1116 34.0261 14.9326
413 1 24.4216 33.8285 21.1724
414 1 24.4035 24.3769 31.1162
415 1 16.476 29.1935 32.3683
416 1 16.4027 26.0641 22.773
417 1 18.1139 33.9576 33.9004
418 1 17.9173 27.689 17.9587
419 1 21.2875 24.4677 14.9724
420 1 17.7322 24.315 24.494
421 2 26.823 29.118 22.887
422 1 17.9604 33.9802 24.4194
423 1 21.2595 24.4596 11.8277
424 2 27.0215 25.7478 26.2628
425 1 16.4974 29.1466 10.2244
426 1 24.4601 24.4197 14.9757
427 1 20.8532 24.4145 17.9153
428 1 16.3953 29.1842 29.2711
429 1 17.8746 24.3923 17.9021
430 1 18.1316 24.389 11.7611
431 1 26.0621 32.337 22.7784
432 1 18.0482 24.383 14.8497
433 1 16.4489 29.2603 26.1036
434 1 16.3593 26.032 19.5905
435 1 16.4273 29.1412 13.3187
436 2 25.684 24.3811 21.3075
437 1 26.0107 32.295 19.6131
438 2 25.7324 24.2383 24.5319
439 2 23.0378 24.3416 21.422
440 2 21.6938 25.99 22.9869
441 1 20.3986 24.3518 24.501
442 1 16.4108 29.2165 19.5033
443 1 16.4866 32.3746 13.3457
444 1 20.4002 24.3684 21.2542
445 1 18.0804 33.9859 18.113
446 2 23.0338 24.205 24.5682
447 1 24.9803 24.4283 17.6815
448 1 22.9189 35.4368 10.278
449 1 22.8587 35.4624 25.9714
450 1 16.5338 35.4594 10.1804
451 1 16.4719 35.4912 19.6238
452 1 22.8286 35.4382 22.8548
453 1 26.0261 35.4964 10.1625
454 1 19.6682 35.4543 13.3465
455 1 22.9409 35.4693 16.469
456 1 27.5539 30.7342 37.0452
457 1 29.6204 25.9949 26.1629
458 1 30.7871 24.4565 30.7659
459 1 30.7097 24.4101 37.0564
460 1 29.2506 26.0378 10.1598
461 1 30.8502 27.6501 11.7338
462 1 29.2708 26.081 13.1745
463 1 30.9933 27.6555 14.8257
464 1 29.3958 26.1761 16.3201
465 1 30.9142 27.71 17.9472
466 1 29.5588 26.0609 19.4802
467 1 30.9589 27.6702 21.1101
468 1 32.4754 26.0354 26.0384
469 1 32.3546 26.0289 29.1949
470 1 29.2853 26.0611 29.2072
471 1 30.7749 27.6632 30.7389
472 1 29.2493 26.0023 32.2641
473 1 30.7664 27.529 33.8645
474 1 29.1618 25.9738 35.4981
475 1 30.7726 27.5877 37.0258
476 1 29.1577 26.0356 38.5645
477 1 30.7149 27.5611 40.1848
478 1 29.2118 29.2009 10.18
479 1 30.842 30.853 11.751
480 1 29.3139 29.1731 13.2515
481 1 30.8729 30.8763 14.8253
482 1 29.3671 29.2729 16.4059
483 1 30.8871 30.887 18.002
484 1 29.3588 29.3568 19.5268
485 1 29.4986 29.2757 22.8357
486 1 29.2045 32.4433 22.8248
487 1 30.9926 27.7107 24.4707
488 1 29.4273 29.3619 26.0751
489 1 29.2945 29.3067 29.1562
490 1 30.8455 30.7674 30.7485
491 1 29.1765 29.2274 32.2942
492 1 30.7607 30.7592 33.8984
493 1 29.2562 29.0741 35.4666
494 1 30.6903 30.7846 36.9884
495 1 29.151 29.2026 38.6477
496 1 30.7843 30.6844 40.1344
497 1 29.1743 32.2722 10.1299
498 1 30.8092 33.8498 11.7397
499 1 29.2354 32.3419 13.3216
500 1 30.8139 33.9371 14.9026
501 1 29.3062 32.3917 16.4483
502 1 30.8244 34.011 18.0346
503 1 29.3279 32.3496 19.5603
504 1 30.812 33.8908 21.1819
505 1 30.7397 34.0449 27.5972
506 1 29.2289 32.3631 29.255
507 1 30.8202 33.8899 30.7479
508 1 29.1396 32.3025 32.3548
509 1 30.7186 33.8958 33.8524
510 1 29.0963 32.3599 35.5402
511 1 30.7032 33.904 36.9932
512 1 29.1455 32.3409 38.5145
513 1 30.6772 33.9611 40.1355
514 1 32.4478 26.0368 10.1159
515 1 34.0171 27.669 11.7858
516 1 32.4554 26.0595 13.2682
517 1 34.0154 27.5565 14.806
518 1 32.4781 26.0772 16.4008
519 1 34.0365 27.6059 18.0453
520 1 33.9473 27.6729 21.2339
521 1 32.3744 29.3059 22.8006
522 1 33.9147 27.6445 24.3701
523 1 33.9826 27.5882 27.5941
524 1 33.9324 24.4524 30.7457
525 1 33.998 27.6194 30.7871
526 1 32.3457 26.0013 32.374
527 1 33.9477 27.5872 33.9238
528 1 32.3129 26.054 35.4278
529 1 33.9078 27.5625 37.0073
530 1 30.7107 24.4412 40.1495
531 1 33.9092 27.6476 40.1104
532 1 32.3844 29.1995 10.1294
533 1 33.9685 30.8229 11.6461
534 1 32.467 29.2342 13.2702
535 1 34.0315 30.8344 14.8554
536 1 32.3924 29.2676 16.4089
537 1 33.966 30.7958 18.0714
538 1 30.8249 30.8339 21.1941
539 1 33.8973 30.8289 21.155
540 1 32.4011 26.077 22.8014
541 1 30.8808 30.9418 24.3947
542 1 32.4748 29.3074 25.9892
543 1 34.0074 30.7822 27.5851
544 1 32.4125 29.2168 29.167
545 1 33.959 30.7574 30.7427
546 1 32.424 29.1192 32.336
547 1 33.9357 30.7876 33.8958
548 1 32.3519 29.2271 35.4188
549 1 33.8753 30.7168 37.0324
550 1 32.2857 29.1643 38.5592
551 1 33.9418 30.7588 40.1219
552 1 32.3237 32.3197 10.1247
553 1 33.8906 33.8781 11.7085
554 1 32.4402 32.4301 13.3143
555 1 34.0049 33.9893 14.9101
556 1 32.4919 32.3908 16.4604
557 1 34.0423 33.9142 18.0335
558 1 32.4613 32.4126 19.6059
559 1 33.9801 33.9205 21.2106
560 1 32.4201 32.4615 22.7806
561 1 30.8607 33.9931 24.373
562 1 33.935 33.9561 27.5878
563 1 32.4251 32.3381 29.204
564 1 33.999 33.9579 30.7604
565 1 32.2996 32.2742 32.3273
566 1 33.9103 33.9343 33.8795
567 1 32.2871 32.4055 35.4405
568 1 33.9896 33.8553 37.0235
569 1 32.2775 32.3014 38.6346
570 1 33.8834 33.8883 40.1639
571 1 32.4216 29.2092 19.5219
572 1 33.9816 30.805 24.3598
573 1 32.3857 32.4796 25.9919
574 1 30.87 30.8678 27.624
575 1 30.8096 24.3885 33.9196
576 1 28.2873 27.5984 24.5241
577 1 33.967 24.4488 21.2116
578 1 33.9274 24.5225 11.7005
579 1 32.2921 26.0386 38.62
580 1 32.4803 26.06 19.5451
581 1 33.8999 24.414 40.1627
582 1 33.9848 24.4089 14.8593
583 1 33.9722 24.4515 27.5138
584 1 30.8084 24.4415 11.6749
585 1 30.8665 27.7027 27.6229
586 1 33.8612 24.4545 37.0664
587 1 33.8941 24.4374 33.8916
588 1 29.7106 25.9634 22.7887
589 1 29.2802 32.3886 26.0878
590 1 33.9687 24.3925 17.9583
591 1 30.9602 24.3596 27.6966
592 1 33.9087 33.9261 24.3316
593 1 28.1974 27.6377 21.1313
594 1 33.9886 24.4533 24.3858
595 1 28.3479 24.4005 21.1671
596 1 28.3774 24.3769 24.4907
597 1 30.9357 24.4586 17.8625
598 1 31.0715 24.3321 24.4188
599 1 30.905 24.4589 14.7787
600 1 31.0718 24.43 21.1011
601 1 27.8767 27.7458 17.8993
602 1 27.7563 27.9473 27.4673
603 1 28.2001 24.1749 27.7305
604 1 28.025 24.5374 17.8222
605 1 27.7469 30.9479 24.5072
606 1 27.7134 27.6802 14.8123
607 1 27.7754 30.817 21.1429
608 1 27.7942 24.6056 14.7299
609 1 27.7864 30.8024 17.9722
610 1 27.7085 24.466 30.7831
611 1 27.6745 30.7982 11.8159
612 1 27.6793 27.6573 30.7653
613 1 27.6743 30.9205 27.6299
614 1 27.7148 30.7328 14.8448
615 1 27.557 33.9298 27.5863
616 1 27.6032 33.9015 24.4044
617 1 27.7039 27.6012 33.8851
618 1 27.6335 33.91 11.7876
619 1 27.6176 30.7574 30.7746
620 1 27.5831 24.4183 11.7648
621 1 27.6488 27.5836 11.6578
622 1 27.602 33.9623 14.9375
623 1 27.6495 33.8882 18.0782
624 1 27.6257 24.4302 33.8343
625 1 27.5822 27.5393 36.9913
626 1 27.6021 33.9042 21.2396
627 1 27.567 33.9394 30.6796
628 1 27.576 24.3731 36.9653
629 1 27.481 33.9178 37.0641
630 1 27.617 30.7603 33.9167
631 1 27.5912 33.873 33.9066
632 1 27.6212 24.4288 40.1843
633 1 27.6323 27.5659 40.1677
634 1 27.5696 33.8857 40.2034
635 1 27.6126 30.7253 40.1837
636 1 29.1562 35.566 29.1295
637 1 32.2946 35.5175 32.3297
638 1 32.4312 35.4587 19.6343
639 1 13.2931 16.484 16.3985
640 1 13.2745 19.6413 22.8386
641 1 13.3834 13.4129 10.1995
642 1 14.9555 14.9769 11.7201
643 1 13.2534 13.3625 13.2804
644 1 14.8614 14.8848 14.8204
645 1 13.3142 13.4254 22.8405
646 1 13.336 13.4546 26.0679
647 1 13.3004 13.373 29.1884
648 1 14.871 14.8859 30.7299
649 1 13.3333 13.3002 32.3583
650 1 14.863 14.9179 33.9773
651 1 13.2883 13.3256 35.4897
652 1 14.9368 14.9283 37.0195
653 1 13.2945 13.3945 38.6104
654 1 14.9137 14.8904 40.1773
655 1 13.3436 16.5411 10.1405
656 1 14.8873 18.0721 11.6995
657 1 13.3773 16.5128 13.2867
658 1 14.8342 18.0322 14.8571
659 1 13.2881 16.452 19.6379
660 1 13.2862 16.49 22.894
661 1 13.2663 16.4648 25.9359
662 1 13.3091 16.4676 29.2251
663 1 14.8354 18.0774 30.7938
664 1 13.2564 16.4749 32.2994
665 1 14.8072 18.0754 33.9524
666 1 13.3653 16.5237 35.5836
667 1 14.9592 18.0764 37.016
668 1 13.3199 16.6057 38.5943
669 1 14.9315 18.1358 40.2348
670 1 13.3687 19.7489 10.1687
671 1 14.9393 21.2781 11.7401
672 1 13.3459 19.7089 13.2948
673 1 13.3144 19.6525 16.4701
674 1 13.357 19.6456 26.0181
675 1 13.271 19.6133 29.2004
676 1 13.2424 19.6715 32.3447
677 1 14.9196 21.2244 33.8131
678 1 13.2906 19.7049 35.476
679 1 14.8824 21.2766 37.0665
680 1 13.3822 19.6988 38.6236
681 1 14.9098 21.2484 40.1905
682 1 13.3523 22.8144 10.1872
683 1 13.365 22.8543 13.3011
684 1 13.2858 22.8144 26.0034
685 1 13.3206 22.8792 32.359
686 1 13.2449 22.8764 35.4396
687 1 13.3556 22.8683 38.5502
688 1 13.2942 13.3033 19.7183
689 1 13.3294 22.86 29.1846
690 1 14.8829 21.288 30.8161
691 1 14.9173 14.9952 27.5968
692 1 14.8891 18.0597 21.1925
693 1 13.3338 13.3353 16.4126
694 1 14.808 18.038 27.6426
695 1 13.2847 22.8896 19.5918
696 1 14.888 14.8028 18.0026
697 1 14.8149 21.2346 14.8659
698 1 14.9181 14.949 24.3931
699 1 14.934 14.9538 21.2959
700 1 13.2644 22.9385 16.4405
701 1 14.8526 18.0729 17.9741
702 1 14.8348 21.1812 27.6756
703 1 13.2601 22.8915 22.7953
704 1 13.2574 19.6781 19.6035
705 1 14.8887 21.2394 18.0108
706 1 14.8428 21.2073 24.4562
707 1 14.8763 21.1738 21.252
708 1 14.7895 18.0185 24.4494
709 1 16.4961 13.3698 10.1714
710 1 18.0551 14.9084 11.6937
711 1 16.5217 13.4083 13.3115
712 1 18.0913 14.8493 14.8648
713 1 19.5913 16.4162 16.3822
714 1 24.4344 18.2306 24.3815
715 1 19.6466 13.3451 26.0792
716 1 16.4514 13.3108 29.1423
717 1 18.0635 14.8821 30.6967
718 1 16.3938 13.3196 32.3345
719 1 18.0562 14.8818 33.9293
720 1 16.5284 13.3976 35.5336
721 1 18.0685 14.9229 37.0867
722 1 16.512 13.4001 38.6271
723 1 18.1039 14.9456 40.2191
724 1 16.5371 16.5995 10.1444
725 1 18.0205 18.0699 11.6943
726 1 16.4938 16.5394 13.3357
727 1 18.055 18.0444 14.8028
728 1 17.9133 21.1162 17.8712
729 1 18.0453 15.0276 21.2543
730 1 21.0568 17.9238 17.9306
731 1 18.0542 14.9076 24.5046
732 1 17.8511 21.0916 24.5464
733 1 21.1796 18.1073 24.6871
734 1 16.4447 16.4826 29.2546
735 1 17.994 18.0244 30.853
736 1 16.3885 16.4957 32.3575
737 1 17.9611 18.116 33.8947
738 1 16.5065 16.4889 35.4102
739 1 18.0791 18.1564 37.0684
740 1 16.4497 16.5335 38.6124
741 1 18.1011 18.1461 40.2334
742 1 16.4545 19.7554 10.1629
743 1 18.0896 21.2176 11.6974
744 1 16.4201 19.6782 13.2574
745 1 17.9971 21.2091 14.8228
746 1 17.9161 18.0046 17.8826
747 1 17.9594 18.0021 27.7043
748 1 16.3025 22.7467 26.052
749 1 17.8959 21.156 30.8022
750 1 16.4064 19.5934 32.3155
751 1 17.9743 21.2167 33.8976
752 1 16.4658 19.6764 35.5266
753 1 17.9664 21.2485 37.0696
754 1 16.4183 19.7203 38.6156
755 1 18.0065 21.2405 40.2076
756 1 16.5134 22.8508 10.2375
757 1 16.5071 22.8451 13.2667
758 1 16.4545 22.7972 35.4337
759 1 16.4994 22.78 38.6254
760 1 19.7672 13.4135 10.1992
761 1 21.2572 15.0324 11.7471
762 1 19.725 13.3882 13.3312
763 1 21.2444 14.9776 14.8725
764 1 19.657 13.3362 16.4356
765 1 17.9866 14.7839 17.9368
766 1 19.4532 16.3239 19.418
767 1 24.4956 15.0425 24.4124
768 1 21.2728 14.9704 27.6811
769 1 19.6129 13.3268 29.1598
770 1 21.2818 14.9607 30.7466
771 1 19.6721 13.3873 32.3057
772 1 21.2303 14.9629 33.8514
773 1 19.6693 13.3756 35.5079
774 1 21.2143 14.9772 37.0613
775 1 19.669 13.4037 38.569
776 1 21.2337 14.9044 40.1942
777 1 19.6275 16.5648 10.2083
778 1 21.1999 18.1132 11.7911
779 1 19.6979 16.5361 13.2761
780 1 21.2429 18.0436 14.9201
781 1 19.6011 19.5891 16.3232
782 1 20.669 17.5849 20.9837
783 1 21.2389 14.8991 17.9912
784 2 22.028 18.9358 22.3509
785 1 19.5848 16.4611 23.0359
786 1 22.7368 19.7323 26.3838
787 1 21.2774 14.9455 24.522
788 1 21.1913 18.0391 27.6827
789 1 19.6327 16.4671 29.2074
790 1 21.2047 18.0391 30.8774
791 1 19.5951 16.4746 32.2934
792 1 21.1877 18.0509 33.9267
793 1 19.6746 16.5042 35.4585
794 1 21.2489 18.1647 37.0074
795 1 19.6948 16.5518 38.5971
796 1 21.2737 18.1235 40.1444
797 1 19.6192 19.7009 10.1645
798 1 21.2863 21.3213 11.8177
799 1 19.618 19.6876 13.2747
800 1 19.6825 22.8842 13.2977
801 1 19.5402 22.7517 16.3794
802 1 21.9671 19.4033 19.7069
803 1 19.2628 19.2491 22.5651
804 1 16.3546 19.5794 19.5657
805 1 19.1679 22.6894 26.1512
806 1 19.5537 19.668 26.2962
807 1 21.1628 21.3029 28.0495
808 1 19.5141 19.5787 29.3206
809 1 21.1288 21.1441 30.9024
810 1 19.5929 19.5743 32.416
811 1 21.1956 21.2723 33.9259
812 1 19.5517 19.6189 35.4527
813 1 21.2348 21.2545 37.0836
814 1 19.6583 19.7317 38.6202
815 1 21.2643 21.3392 40.1693
816 1 19.6624 22.8159 10.1931
817 1 20.4658 21.1361 21.2298
818 2 21.7241 22.1929 25.6379
819 1 19.4432 22.7355 29.4239
820 1 19.5324 22.7761 32.3442
821 1 19.621 22.839 35.5027
822 1 19.6401 22.8862 38.5808
823 1 22.8188 13.2994 10.1479
824 1 24.343 14.9926 11.7415
825 1 22.7678 13.3806 13.3477
826 1 24.4065 15.0026 14.9332
827 1 22.7334 16.5353 19.5878
828 1 24.4109 18.3705 21.136
829 1 26.0402 16.5712 25.9823
830 1 24.3968 14.9541 27.5912
831 1 24.4117 14.9568 30.7495
832 1 22.7505 13.3342 32.3229
833 1 24.414 14.9529 33.8637
834 1 22.7914 13.4155 35.55
835 1 24.3845 15.0202 37.0127
836 1 22.8354 13.4064 38.5911
837 1 24.4022 14.9434 40.2123
838 1 22.8443 16.5124 10.172
839 1 24.358 18.1663 11.7136
840 1 22.7923 16.5716 13.3496
841 1 22.8179 19.7306 13.3795
842 1 22.8523 16.4795 16.5255
843 1 22.8254 19.6757 16.5168
844 1 21.1437 14.952 21.2346
845 1 22.8119 16.4511 22.8794
846 2 23.0766 20.6109 23.9159
847 2 25.703 20.6537 23.8201
848 1 22.8725 16.542 25.9951
849 1 24.4067 18.1416 27.6829
850 1 22.8652 16.4833 29.1899
851 1 24.3625 18.0579 30.846
852 1 22.8328 16.5159 32.4009
853 1 24.417 18.1142 33.9423
854 1 22.7792 16.5213 35.5319
855 1 24.3667 18.0906 37.03
856 1 22.7918 16.5396 38.6005
857 1 24.3855 18.1265 40.1513
858 1 22.8259 19.6419 10.1563
859 1 24.4063 21.2671 11.8437
860 1 21.1809 21.2713 14.9077
861 1 22.8832 22.8706 13.3902
862 1 20.9547 21.1631 18.0051
863 1 25.9875 16.6028 22.6841
864 2 21.8447 22.7738 19.7106
865 2 24.3383 22.1206 25.5202
866 1 24.399 21.2939 27.9381
867 1 22.8425 19.6519 29.3183
868 1 24.4424 21.2976 30.9552
869 1 22.8274 19.6781 32.3419
870 1 24.462 21.2724 33.9152
871 1 22.7969 19.7312 35.4245
872 1 24.3337 21.2825 37.0188
873 1 22.8208 19.708 38.5776
874 1 24.4229 21.2738 40.1277
875 1 22.8546 22.8237 10.2458
876 1 19.1933 22.7551 19.5365
877 2 24.3785 22.7325 22.9354
878 1 22.7348 22.8071 32.3833
879 1 22.852 22.8305 35.4458
880 1 25.9302 13.3081 10.1691
881 1 25.981 13.2842 13.3405
882 1 24.4498 14.992 18.0933
883 1 24.3821 15.0245 21.2476
884 1 20.4611 20.7253 24.0522
885 1 26.0338 13.4299 26.0131
886 1 26.0194 13.4294 29.1505
887 1 26.0797 13.4615 35.3979
888 1 25.9783 13.383 38.5603
889 1 25.9911 16.5965 10.2463
890 1 25.9765 16.5779 13.3411
891 1 24.398 17.9773 18.0542
892 1 25.9802 16.5186 29.146
893 1 26.0569 16.507 32.3425
894 1 26.0263 16.5827 35.4465
895 1 25.8847 16.5165 38.6189
896 2 23.079 21.0981 21.3455
897 1 26.1127 19.7394 26.258
898 1 26.0023 19.6514 29.2706
899 1 26.0353 19.6676 32.3988
900 1 25.9885 19.6671 35.498
901 1 26.0045 19.662 38.6146
902 1 25.987 22.8827 35.4111
903 1 17.817 21.0904 21.1874
904 1 24.4835 18.0782 14.9686
905 1 22.8215 13.4136 25.9959
906 1 25.9456 22.8196 38.5631
907 1 19.2651 19.5534 19.5071
908 1 18.0725 14.9294 27.5939
909 1 16.4262 16.4482 16.3397
910 1 17.8382 17.8881 21.0745
911 1 19.6373 16.5463 26.1722
912 1 16.3843 16.401 19.5064
913 1 16.4003 19.5793 16.3263
914 1 22.8271 22.8296 38.574
915 1 17.8926 21.1589 27.7511
916 1 26.0487 19.7151 10.184
917 1 16.3836 22.7893 19.5577
918 1 26.0158 19.7087 13.3743
919 1 16.4318 22.7783 16.419
920 1 22.8542 13.4078 16.4272
921 1 25.9627 13.4531 32.335
922 1 16.4955 13.405 22.8083
923 1 22.8577 13.3237 29.1508
924 1 16.4387 13.3995 19.6292
925 1 16.4502 13.3189 16.3829
926 2 21.7709 22.709 22.9379
927 1 16.4738 16.4818 22.8434
928 1 24.5391 21.2723 15.0007
929 1 16.4418 13.3153 26.0208
930 1 19.6127 13.3716 19.6344
931 1 22.8176 13.4736 22.7568
932 1 25.997 13.4547 19.673
933 1 26.0187 22.8602 10.222
934 1 26.0531 16.4983 16.4231
935 1 26.0694 19.5359 16.4411
936 1 19.6146 13.4121 22.8668
937 2 25.3891 21.6849 17.6086
938 2 23.879 20.4674 18.8384
939 1 16.4233 22.8473 32.3741
940 1 19.074 22.7394 22.8493
941 1 26.021 16.5688 19.666
942 1 22.7456 13.4127 19.6637
943 1 26.1021 22.8239 13.3249
944 1 18.0015 18.0546 24.6023
945 1 16.3453 19.5908 29.1655
946 1 26.5328 23.1147 16.1423
947 1 26.0468 13.4733 22.7994
948 1 16.4269 16.4734 26.0338
949 1 22.72 22.8064 29.5694
950 1 26.0721 22.837 29.6057
951 1 26.103 22.7957 32.4149
952 1 16.3867 22.8039 29.2854
953 1 16.3122 22.8082 22.7764
954 1 16.45 19.6079 26.1644
955 1 26.8453 22.8844 19.482
956 1 25.9956 13.3419 16.4945
957 1 26.361 19.5984 19.3736
958 2 26.6738 19.1304 22.2823
959 1 16.3598 19.5817 22.7933
960 1 27.0046 22.7672 22.8231
961 2 27.0311 22.2237 25.5497
962 1 22.8818 22.7714 16.8462
963 2 25.5819 21.2408 21.201
964 2 24.2513 22.888 19.6688
965 2 25.6801 23.6306 27.2882
966 2 23.0565 23.6469 27.1853
967 1 24.487 11.9016 24.3812
968 1 24.4423 11.7633 21.232
969 1 21.2487 11.8174 14.8554
970 1 24.3607 11.8057 14.8783
971 1 21.1844 11.7964 33.8939
972 1 27.5448 14.9614 27.5576
973 1 27.6417 14.9918 33.8525
974 1 27.6292 15.0019 24.3541
975 1 29.1387 13.3569 10.1809
976 1 32.3013 13.3262 10.1568
977 1 29.1788 13.344 13.3177
978 1 29.4003 16.3793 19.4606
979 1 29.2015 13.3865 19.6221
980 1 30.7377 14.935 27.6115
981 1 30.8209 14.969 30.7261
982 1 29.1646 13.3201 32.3614
983 1 30.7636 14.9197 33.9058
984 1 29.2053 13.451 35.4866
985 1 30.7118 14.9966 37.0318
986 1 29.1181 13.3534 38.6801
987 1 30.6503 14.965 40.1255
988 1 29.1871 16.46 10.3173
989 1 30.8081 18.0767 11.7301
990 1 30.8076 14.9184 11.7044
991 1 30.8769 18.0555 14.8141
992 1 29.2721 16.4373 16.346
993 1 30.9878 17.935 21.1002
994 1 32.3516 16.5176 22.8443
995 1 29.1826 16.5303 25.9791
996 1 30.7768 18.093 24.5098
997 1 29.1932 16.5146 29.1995
998 1 30.8178 18.0931 30.8591
999 1 29.2742 16.5284 32.3213
1000 1 30.7598 18.111 33.9118
1001 1 29.24 16.5618 35.4527
1002 1 32.3481 16.519 35.4985
1003 1 30.7215 18.1556 40.1667
1004 1 29.2175 19.6429 10.2019
1005 1 30.8725 21.2265 11.6739
1006 1 29.36 19.5817 16.3529
1007 1 30.9683 21.161 17.8914
1008 1 30.9524 21.1467 21.1847
1009 1 29.5045 19.4079 22.6128
1010 1 30.9525 21.165 27.7419
1011 1 29.1548 19.66 32.3982
1012 1 30.7685 21.2586 33.914
1013 1 29.1717 19.7183 35.4848
1014 1 32.3427 22.8364 35.4882
1015 1 29.1977 19.7252 38.6111
1016 1 32.3454 19.6856 38.5672
1017 1 30.8953 21.1831 14.818
1018 1 29.2605 19.59 29.3038
1019 1 29.1771 22.8228 32.3136
1020 1 29.1752 22.8391 38.5749
1021 1 33.9558 14.9002 11.618
1022 1 32.3455 13.3512 13.2824
1023 1 29.2404 16.4832 13.2459
1024 1 30.8349 14.8383 17.9589
1025 1 30.8388 14.8684 21.2805
1026 1 32.4238 16.3995 19.5263
1027 1 33.939 18.01 27.6214
1028 1 33.9329 14.9656 27.5661
1029 1 32.2685 13.3716 29.1566
1030 1 32.3781 13.3632 32.3023
1031 1 33.9259 14.9143 33.9046
1032 1 32.3075 13.3945 35.4794
1033 1 33.9042 14.9262 37.0725
1034 1 32.248 13.3646 38.61
1035 1 33.8437 14.9875 40.1865
1036 1 32.3946 16.4854 10.1692
1037 1 33.994 18.1175 11.7301
1038 1 32.4033 16.4555 13.2538
1039 1 33.9837 18.0465 14.8047
1040 1 30.9296 18.0033 17.8922
1041 1 33.9654 18.0168 18.0708
1042 1 34.0578 18.0445 21.1786
1043 1 33.8862 15.004 24.4075
1044 1 32.3397 13.315 22.8654
1045 1 33.9426 18.1141 24.4501
1046 1 32.3306 16.475 26.065
1047 1 32.3816 19.6395 26.0978
1048 1 32.3672 16.4973 29.1623
1049 1 33.8936 14.913 30.6867
1050 1 32.3144 16.4822 32.369
1051 1 33.9103 18.071 33.9104
1052 1 33.9187 18.0609 37.0658
1053 1 33.8509 18.0924 40.2264
1054 1 32.2808 16.5834 38.627
1055 1 32.3854 19.6195 10.1937
1056 1 33.9943 21.1985 11.6871
1057 1 32.4128 19.6121 13.2272
1058 1 33.9917 21.328 14.8742
1059 1 32.4469 19.5766 16.3521
1060 1 33.9694 21.2058 17.9714
1061 1 32.3806 19.6127 19.5118
1062 1 31.0186 21.0937 24.2788
1063 1 33.8708 14.9444 21.2619
1064 1 30.8346 18.0783 27.639
1065 1 32.4105 19.5938 32.3787
1066 1 30.8715 21.189 30.9026
1067 1 32.3844 19.7269 35.4768
1068 1 33.9188 21.3107 40.1795
1069 1 32.355 22.8202 10.1218
1070 1 32.452 22.8327 13.2764
1071 1 32.4451 22.7911 16.408
1072 1 32.4869 22.7451 19.5893
1073 1 29.638 22.6167 25.9902
1074 1 33.9276 21.3109 37.0701
1075 1 30.7084 21.3028 36.9761
1076 1 30.7301 21.2059 40.2058
1077 1 33.9522 14.9315 14.8279
1078 1 32.4211 16.5079 16.3806
1079 1 32.4698 19.5814 29.2412
1080 1 33.9014 17.983 30.7844
1081 1 30.7474 18.1132 37.0137
1082 1 33.9493 21.2799 33.9273
1083 1 33.9485 21.2886 30.7992
1084 1 33.9795 21.247 27.6048
1085 1 29.2485 16.5628 22.8783
1086 1 29.2381 19.5884 13.2838
1087 1 29.1061 13.3841 25.9218
1088 1 29.0777 16.5808 38.6471
1089 1 29.1566 22.8582 35.4567
1090 1 32.4446 22.7499 26.0724
1091 1 32.5046 19.5617 22.728
1092 1 34.0388 21.1968 21.1699
1093 1 29.1689 22.8286 10.1498
1094 1 32.3668 22.8428 38.6115
1095 1 30.7478 14.8623 14.8191
1096 1 29.3396 22.79 13.2651
1097 1 29.3938 22.7311 16.3184
1098 1 29.4819 19.5628 19.4494
1099 1 29.1806 13.4178 29.1348
1100 1 28.213 21.1642 21.0666
1101 1 33.9642 14.8663 18.0025
1102 1 29.2023 13.3403 16.426
1103 1 32.4156 22.8364 32.3437
1104 1 32.4341 13.3266 19.6752
1105 1 32.5603 22.8264 22.7783
1106 1 33.9191 21.2124 24.3902
1107 1 29.3572 22.6792 29.358
1108 1 29.1936 13.3979 22.8278
1109 1 32.4582 22.7994 29.1979
1110 1 32.3703 13.3831 16.4188
1111 1 29.2421 19.6867 26.1693
1112 1 30.7337 14.9443 24.4794
1113 1 29.686 22.7917 22.7566
1114 1 28.3206 20.8743 24.0456
1115 1 32.2743 13.3416 25.966
1116 1 29.5646 22.8446 19.4303
1117 1 27.9473 21.1993 17.9273
1118 1 27.7374 21.1393 14.8507
1119 1 27.7601 17.9496 17.8961
1120 1 28.0318 17.7942 20.87
1121 1 27.6992 21.2508 27.8332
1122 1 27.6583 21.2424 30.8431
1123 1 27.6642 17.9875 14.8829
1124 1 27.6044 21.2663 33.9514
1125 1 27.5829 21.2457 11.7164
1126 1 27.6574 14.9594 18.0718
1127 1 27.6221 18.0218 30.8006
1128 1 27.5057 14.9233 11.771
1129 1 27.6586 14.9736 21.1752
1130 1 27.5511 14.8255 14.8283
1131 1 27.626 18.1328 24.505
1132 1 27.4973 18.1349 40.1299
1133 1 27.6301 18.1019 27.6716
1134 1 27.5811 18.1581 33.8725
1135 1 27.5757 18.1251 37.0335
1136 1 27.514 21.2908 37.0242
1137 1 27.5223 21.2571 40.1813
1138 1 27.5762 14.9023 30.721
1139 1 33.8741 11.8025 33.892
1140 1 30.7335 11.863 24.3906
1141 1 27.6415 11.8558 27.6112
1142 1 27.5771 18.0741 11.7605
1143 1 27.4929 14.9428 40.1823
1144 1 27.617 15.0353 37.0456
1145 1 13.3594 10.216 10.216
1146 1 13.4281 10.1664 13.2943
1147 1 13.3378 10.2541 16.4691
1148 1 13.3003 10.2418 19.681
1149 1 13.3384 10.2377 22.7834
1150 1 13.3829 10.2882 25.9705
1151 1 13.3982 10.2718 29.101
1152 1 13.2761 10.1965 32.3052
1153 1 13.3087 10.2915 35.4766
1154 1 13.3716 10.2433 38.6196
1155 1 14.8701 11.7794 14.8949
1156 1 14.9462 11.783 11.7248
1157 1 14.8832 11.7341 18.0918
1158 1 14.8738 11.8207 21.2588
1159 1 14.9171 11.782 30.7697
1160 1 14.9018 11.7973 33.9174
1161 1 14.907 11.8286 37.0151
1162 1 14.947 11.79 24.4116
1163 1 14.9151 11.7487 27.5892
1164 1 14.9675 11.759 40.2202
1165 1 16.5104 10.1897 10.2235
1166 1 16.5305 10.1914 13.3978
1167 1 16.4812 10.2293 16.4928
1168 1 16.5166 10.2719 19.6684
1169 1 16.5832 10.2377 22.8573
1170 1 16.5377 10.2328 25.9915
1171 1 16.4712 10.3332 29.1451
1172 1 16.5101 10.2543 32.3253
1173 1 16.51 10.1905 35.449
1174 1 16.6225 10.2728 38.6087
1175 1 19.7063 10.3003 10.2005
1176 1 19.6714 10.2887 13.3461
1177 1 19.649 10.2367 16.5361
1178 1 19.641 10.2702 19.6627
1179 1 19.7473 10.3199 22.8905
1180 1 19.7203 10.2749 26.0467
1181 1 19.6689 10.1818 29.1173
1182 1 19.6752 10.207 32.3732
1183 1 19.703 10.2101 35.4842
1184 1 19.6406 10.2518 38.5475
1185 1 22.8485 10.1784 10.1814
1186 1 22.8184 10.2119 13.3506
1187 1 22.9179 10.3005 16.5241
1188 1 22.8036 10.1834 19.6322
1189 1 22.8384 10.2935 22.8441
1190 1 22.8244 10.2424 29.1173
1191 1 22.8775 10.2064 32.2871
1192 1 22.8572 10.2442 35.3778
1193 1 22.7708 10.2174 38.5882
1194 1 26.0379 10.2365 10.2027
1195 1 25.9723 10.2238 13.2798
1196 1 26.0505 10.2424 19.6496
1197 1 26.0134 10.3227 25.9983
1198 1 26.0338 10.2941 29.109
1199 1 26.0395 10.2903 32.2486
1200 1 25.9793 10.2343 35.4152
1201 1 25.985 10.2323 38.5585
1202 1 22.8201 10.3148 25.9652
1203 1 26.0025 10.2874 22.8312
1204 1 26.0507 10.3027 16.4975
1205 1 18.0968 11.764 36.9749
1206 1 18.0682 11.8383 11.7731
1207 1 18.1002 11.7903 14.8809
1208 1 24.4089 11.8644 30.7044
1209 1 24.3817 11.8239 33.9017
1210 1 18.1057 11.8245 33.8904
1211 1 24.4103 11.8495 11.7197
1212 1 21.2339 11.8005 37.0918
1213 1 18.1239 11.767 27.5749
1214 1 24.4655 11.8771 18.0944
1215 1 21.3197 11.8044 30.7516
1216 1 18.1232 11.8254 40.1483
1217 1 21.2088 11.8714 27.5958
1218 1 21.2992 11.8154 11.764
1219 1 24.4147 11.8291 37.0084
1220 1 18.0351 11.8118 18.0298
1221 1 21.2226 11.835 21.2293
1222 1 21.2958 11.8105 24.379
1223 1 18.0679 11.8209 30.8005
1224 1 24.416 11.8361 40.0899
1225 1 18.0153 11.8337 24.4243
1226 1 21.2512 11.8247 18.0849
1227 1 17.9425 11.8262 21.2521
1228 1 21.2157 11.8687 40.1423
1229 1 24.3742 11.8835 27.5312
1230 1 27.5532 11.7842 40.1585
1231 1 29.2454 10.3315 19.5931
1232 1 32.3418 10.2009 16.4802
1233 1 29.186 10.1855 10.1842
1234 1 29.1294 10.2295 13.3392
1235 1 29.2122 10.317 16.4531
1236 1 29.1503 10.2523 25.9499
1237 1 29.1757 10.2467 29.136
1238 1 29.2091 10.2811 32.3182
1239 1 29.1724 10.2898 35.3975
1240 1 29.1344 10.2322 38.578
1241 1 32.3254 10.299 13.327
1242 1 32.3981 10.2639 19.6005
1243 1 32.313 10.1452 10.1556
1244 1 32.3263 10.2311 22.8273
1245 1 32.2942 10.2688 29.0917
1246 1 32.2557 10.1889 32.1552
1247 1 32.283 10.1902 35.3328
1248 1 32.2805 10.2291 38.5643
1249 1 32.2518 10.2948 25.9812
1250 1 29.2006 10.2515 22.8034
1251 1 33.917 11.7784 14.8946
1252 1 30.6765 11.7854 11.7687
1253 1 33.9735 11.7901 18.0471
1254 1 33.8497 11.8001 11.7284
1255 1 33.9196 11.7883 24.3504
1256 1 30.794 11.8314 18.0996
1257 1 33.856 11.7833 37.0087
1258 1 33.9039 11.7847 21.2484
1259 1 33.864 11.788 30.6684
1260 1 27.5604 11.771 14.8657
1261 1 30.7837 11.7856 33.8891
1262 1 30.6925 11.8254 27.6339
1263 1 30.8095 11.7932 14.9195
1264 1 27.5949 11.7942 37.0078
1265 1 30.7227 11.7669 40.1599
1266 1 33.8528 11.867 27.5092
1267 1 30.7121 11.8421 37.0181
1268 1 27.6358 11.8778 18.0394
1269 1 27.5479 11.8485 11.7298
1270 1 27.6249 11.823 24.4607
1271 1 30.727 11.8637 21.2429
1272 1 27.5591 11.821 30.7003
1273 1 27.5059 11.789 33.8748
1274 1 33.8705 11.7416 40.0931
1275 1 27.5648 11.8587 21.304
1276 1 30.7383 11.8168 30.646
1277 1 0.7858 0.7858 0.7858
1278 1 2.3575 2.3575 2.3575
1279 1 0.7858 0.7858 3.9292
1280 1 2.3575 2.3575 5.5009
1281 1 0.7858 0.7858 7.0726
1282 1 2.3575 2.3575 8.6443
1283 1 0.7858 0.7858 10.216
1284 1 2.3575 2.3575 11.7877
1285 1 0.7858 0.7858 13.3594
1286 1 2.3575 2.3575 14.9311
1287 1 0.7858 0.7858 16.5028
1288 1 2.3575 2.3575 18.0745
1289 1 0.7858 0.7858 19.6462
1290 1 2.3575 2.3575 21.2179
1291 1 0.7858 0.7858 22.7896
1292 1 2.3575 2.3575 24.3613
1293 1 0.7858 0.7858 25.933
1294 1 2.3575 2.3575 27.5047
1295 1 0.7858 0.7858 29.0764
1296 1 2.3575 2.3575 30.6481
1297 1 0.7858 0.7858 32.2197
1298 1 2.3575 2.3575 33.7914
1299 1 0.7858 0.7858 35.3631
1300 1 2.3575 2.3575 36.9348
1301 1 0.7858 0.7858 38.5065
1302 1 2.3575 2.3575 40.0782
1303 1 0.7858 0.7858 41.6499
1304 1 2.3575 2.3575 43.2216
1305 1 0.7858 0.7858 44.7933
1306 1 2.3575 2.3575 46.365
1307 1 0.7858 0.7858 47.9367
1308 1 2.3575 2.3575 49.5084
1309 1 0.7858 3.9292 0.7858
1310 1 2.3575 5.5009 2.3575
1311 1 0.7858 3.9292 3.9292
1312 1 2.3575 5.5009 5.5009
1313 1 0.7858 3.9292 7.0726
1314 1 2.3575 5.5009 8.6443
1315 1 0.7858 3.9292 10.216
1316 1 2.3575 5.5009 11.7877
1317 1 0.7858 3.9292 13.3594
1318 1 2.3575 5.5009 14.9311
1319 1 0.7858 3.9292 16.5028
1320 1 2.3575 5.5009 18.0745
1321 1 0.7858 3.9292 19.6462
1322 1 2.3575 5.5009 21.2179
1323 1 0.7858 3.9292 22.7896
1324 1 2.3575 5.5009 24.3613
1325 1 0.7858 3.9292 25.933
1326 1 2.3575 5.5009 27.5047
1327 1 0.7858 3.9292 29.0764
1328 1 2.3575 5.5009 30.6481
1329 1 0.7858 3.9292 32.2197
1330 1 2.3575 5.5009 33.7914
1331 1 0.7858 3.9292 35.3631
1332 1 2.3575 5.5009 36.9348
1333 1 0.7858 3.9292 38.5065
1334 1 2.3575 5.5009 40.0782
1335 1 0.7858 3.9292 41.6499
1336 1 2.3575 5.5009 43.2216
1337 1 0.7858 3.9292 44.7933
1338 1 2.3575 5.5009 46.365
1339 1 0.7858 3.9292 47.9367
1340 1 2.3575 5.5009 49.5084
1341 1 0.7858 7.0726 0.7858
1342 1 2.3575 8.6443 2.3575
1343 1 0.7858 7.0726 3.9292
1344 1 2.3575 8.6443 5.5009
1345 1 0.7858 7.0726 7.0726
1346 1 2.3575 8.6443 8.6443
1347 1 0.7858 7.0726 10.216
1348 1 2.3575 8.6443 11.7877
1349 1 0.7858 7.0726 13.3594
1350 1 2.3575 8.6443 14.9311
1351 1 0.7858 7.0726 16.5028
1352 1 2.3575 8.6443 18.0745
1353 1 0.7858 7.0726 19.6462
1354 1 2.3575 8.6443 21.2179
1355 1 0.7858 7.0726 22.7896
1356 1 2.3575 8.6443 24.3613
1357 1 0.7858 7.0726 25.933
1358 1 2.3575 8.6443 27.5047
1359 1 0.7858 7.0726 29.0764
1360 1 2.3575 8.6443 30.6481
1361 1 0.7858 7.0726 32.2197
1362 1 2.3575 8.6443 33.7914
1363 1 0.7858 7.0726 35.3631
1364 1 2.3575 8.6443 36.9348
1365 1 0.7858 7.0726 38.5065
1366 1 2.3575 8.6443 40.0782
1367 1 0.7858 7.0726 41.6499
1368 1 2.3575 8.6443 43.2216
1369 1 0.7858 7.0726 44.7933
1370 1 2.3575 8.6443 46.365
1371 1 0.7858 7.0726 47.9367
1372 1 2.3575 8.6443 49.5084
1373 1 0.7858 10.216 0.7858
1374 1 2.3575 11.7877 2.3575
1375 1 0.7858 10.216 3.9292
1376 1 2.3575 11.7877 5.5009
1377 1 0.7858 10.216 7.0726
1378 1 2.3575 11.7877 8.6443
1379 1 0.7858 10.216 10.216
1380 1 2.3575 11.7877 11.7877
1381 1 0.7858 10.216 13.3594
1382 1 2.3575 11.7877 14.9311
1383 1 0.7858 10.216 16.5028
1384 1 2.3575 11.7877 18.0745
1385 1 0.7858 10.216 19.6462
1386 1 2.3575 11.7877 21.2179
1387 1 0.7858 10.216 22.7896
1388 1 2.3575 11.7877 24.3613
1389 1 0.7858 10.216 25.933
1390 1 2.3575 11.7877 27.5047
1391 1 0.7858 10.216 29.0764
1392 1 2.3575 11.7877 30.6481
1393 1 0.7858 10.216 32.2197
1394 1 2.3575 11.7877 33.7914
1395 1 0.7858 10.216 35.3631
1396 1 2.3575 11.7877 36.9348
1397 1 0.7858 10.216 38.5065
1398 1 2.3575 11.7877 40.0782
1399 1 0.7858 10.216 41.6499
1400 1 2.3575 11.7877 43.2216
1401 1 0.7858 10.216 44.7933
1402 1 2.3575 11.7877 46.365
1403 1 0.7858 10.216 47.9367
1404 1 2.3575 11.7877 49.5084
1405 1 0.7858 13.3594 0.7858
1406 1 2.3575 14.9311 2.3575
1407 1 0.7858 13.3594 3.9292
1408 1 2.3575 14.9311 5.5009
1409 1 0.7858 13.3594 7.0726
1410 1 2.3575 14.9311 8.6443
1411 1 0.7858 13.3594 10.216
1412 1 2.3575 14.9311 11.7877
1413 1 0.7858 13.3594 13.3594
1414 1 2.3575 14.9311 14.9311
1415 1 0.7858 13.3594 16.5028
1416 1 2.3575 14.9311 18.0745
1417 1 0.7858 13.3594 19.6462
1418 1 2.3575 14.9311 21.2179
1419 1 0.7858 13.3594 22.7896
1420 1 2.3575 14.9311 24.3613
1421 1 0.7858 13.3594 25.933
1422 1 2.3575 14.9311 27.5047
1423 1 0.7858 13.3594 29.0764
1424 1 2.3575 14.9311 30.6481
1425 1 0.7858 13.3594 32.2197
1426 1 2.3575 14.9311 33.7914
1427 1 0.7858 13.3594 35.3631
1428 1 2.3575 14.9311 36.9348
1429 1 0.7858 13.3594 38.5065
1430 1 2.3575 14.9311 40.0782
1431 1 0.7858 13.3594 41.6499
1432 1 2.3575 14.9311 43.2216
1433 1 0.7858 13.3594 44.7933
1434 1 2.3575 14.9311 46.365
1435 1 0.7858 13.3594 47.9367
1436 1 2.3575 14.9311 49.5084
1437 1 0.7858 16.5028 0.7858
1438 1 2.3575 18.0745 2.3575
1439 1 0.7858 16.5028 3.9292
1440 1 2.3575 18.0745 5.5009
1441 1 0.7858 16.5028 7.0726
1442 1 2.3575 18.0745 8.6443
1443 1 0.7858 16.5028 10.216
1444 1 2.3575 18.0745 11.7877
1445 1 0.7858 16.5028 13.3594
1446 1 2.3575 18.0745 14.9311
1447 1 0.7858 16.5028 16.5028
1448 1 2.3575 18.0745 18.0745
1449 1 0.7858 16.5028 19.6462
1450 1 2.3575 18.0745 21.2179
1451 1 0.7858 16.5028 22.7896
1452 1 2.3575 18.0745 24.3613
1453 1 0.7858 16.5028 25.933
1454 1 2.3575 18.0745 27.5047
1455 1 0.7858 16.5028 29.0764
1456 1 2.3575 18.0745 30.6481
1457 1 0.7858 16.5028 32.2197
1458 1 2.3575 18.0745 33.7914
1459 1 0.7858 16.5028 35.3631
1460 1 2.3575 18.0745 36.9348
1461 1 0.7858 16.5028 38.5065
1462 1 2.3575 18.0745 40.0782
1463 1 0.7858 16.5028 41.6499
1464 1 2.3575 18.0745 43.2216
1465 1 0.7858 16.5028 44.7933
1466 1 2.3575 18.0745 46.365
1467 1 0.7858 16.5028 47.9367
1468 1 2.3575 18.0745 49.5084
1469 1 0.7858 19.6462 0.7858
1470 1 2.3575 21.2179 2.3575
1471 1 0.7858 19.6462 3.9292
1472 1 2.3575 21.2179 5.5009
1473 1 0.7858 19.6462 7.0726
1474 1 2.3575 21.2179 8.6443
1475 1 0.7858 19.6462 10.216
1476 1 2.3575 21.2179 11.7877
1477 1 0.7858 19.6462 13.3594
1478 1 2.3575 21.2179 14.9311
1479 1 0.7858 19.6462 16.5028
1480 1 2.3575 21.2179 18.0745
1481 1 0.7858 19.6462 19.6462
1482 1 2.3575 21.2179 21.2179
1483 1 0.7858 19.6462 22.7896
1484 1 2.3575 21.2179 24.3613
1485 1 0.7858 19.6462 25.933
1486 1 2.3575 21.2179 27.5047
1487 1 0.7858 19.6462 29.0764
1488 1 2.3575 21.2179 30.6481
1489 1 0.7858 19.6462 32.2197
1490 1 2.3575 21.2179 33.7914
1491 1 0.7858 19.6462 35.3631
1492 1 2.3575 21.2179 36.9348
1493 1 0.7858 19.6462 38.5065
1494 1 2.3575 21.2179 40.0782
1495 1 0.7858 19.6462 41.6499
1496 1 2.3575 21.2179 43.2216
1497 1 0.7858 19.6462 44.7933
1498 1 2.3575 21.2179 46.365
1499 1 0.7858 19.6462 47.9367
1500 1 2.3575 21.2179 49.5084
1501 1 0.7858 22.7896 0.7858
1502 1 2.3575 24.3613 2.3575
1503 1 0.7858 22.7896 3.9292
1504 1 2.3575 24.3613 5.5009
1505 1 0.7858 22.7896 7.0726
1506 1 2.3575 24.3613 8.6443
1507 1 0.7858 22.7896 10.216
1508 1 2.3575 24.3613 11.7877
1509 1 0.7858 22.7896 13.3594
1510 1 2.3575 24.3613 14.9311
1511 1 0.7858 22.7896 16.5028
1512 1 2.3575 24.3613 18.0745
1513 1 0.7858 22.7896 19.6462
1514 1 2.3575 24.3613 21.2179
1515 1 0.7858 22.7896 22.7896
1516 1 2.3575 24.3613 24.3613
1517 1 0.7858 22.7896 25.933
1518 1 2.3575 24.3613 27.5047
1519 1 0.7858 22.7896 29.0764
1520 1 2.3575 24.3613 30.6481
1521 1 0.7858 22.7896 32.2197
1522 1 2.3575 24.3613 33.7914
1523 1 0.7858 22.7896 35.3631
1524 1 2.3575 24.3613 36.9348
1525 1 0.7858 22.7896 38.5065
1526 1 2.3575 24.3613 40.0782
1527 1 0.7858 22.7896 41.6499
1528 1 2.3575 24.3613 43.2216
1529 1 0.7858 22.7896 44.7933
1530 1 2.3575 24.3613 46.365
1531 1 0.7858 22.7896 47.9367
1532 1 2.3575 24.3613 49.5084
1533 1 0.7858 25.933 0.7858
1534 1 2.3575 27.5047 2.3575
1535 1 0.7858 25.933 3.9292
1536 1 2.3575 27.5047 5.5009
1537 1 0.7858 25.933 7.0726
1538 1 2.3575 27.5047 8.6443
1539 1 0.7858 25.933 10.216
1540 1 2.3575 27.5047 11.7877
1541 1 0.7858 25.933 13.3594
1542 1 2.3575 27.5047 14.9311
1543 1 0.7858 25.933 16.5028
1544 1 2.3575 27.5047 18.0745
1545 1 0.7858 25.933 19.6462
1546 1 2.3575 27.5047 21.2179
1547 1 0.7858 25.933 22.7896
1548 1 2.3575 27.5047 24.3613
1549 1 0.7858 25.933 25.933
1550 1 2.3575 27.5047 27.5047
1551 1 0.7858 25.933 29.0764
1552 1 2.3575 27.5047 30.6481
1553 1 0.7858 25.933 32.2197
1554 1 2.3575 27.5047 33.7914
1555 1 0.7858 25.933 35.3631
1556 1 2.3575 27.5047 36.9348
1557 1 0.7858 25.933 38.5065
1558 1 2.3575 27.5047 40.0782
1559 1 0.7858 25.933 41.6499
1560 1 2.3575 27.5047 43.2216
1561 1 0.7858 25.933 44.7933
1562 1 2.3575 27.5047 46.365
1563 1 0.7858 25.933 47.9367
1564 1 2.3575 27.5047 49.5084
1565 1 0.7858 29.0764 0.7858
1566 1 2.3575 30.6481 2.3575
1567 1 0.7858 29.0764 3.9292
1568 1 2.3575 30.6481 5.5009
1569 1 0.7858 29.0764 7.0726
1570 1 2.3575 30.6481 8.6443
1571 1 0.7858 29.0764 10.216
1572 1 2.3575 30.6481 11.7877
1573 1 0.7858 29.0764 13.3594
1574 1 2.3575 30.6481 14.9311
1575 1 0.7858 29.0764 16.5028
1576 1 2.3575 30.6481 18.0745
1577 1 0.7858 29.0764 19.6462
1578 1 2.3575 30.6481 21.2179
1579 1 0.7858 29.0764 22.7896
1580 1 2.3575 30.6481 24.3613
1581 1 0.7858 29.0764 25.933
1582 1 2.3575 30.6481 27.5047
1583 1 0.7858 29.0764 29.0764
1584 1 2.3575 30.6481 30.6481
1585 1 0.7858 29.0764 32.2197
1586 1 2.3575 30.6481 33.7914
1587 1 0.7858 29.0764 35.3631
1588 1 2.3575 30.6481 36.9348
1589 1 0.7858 29.0764 38.5065
1590 1 2.3575 30.6481 40.0782
1591 1 0.7858 29.0764 41.6499
1592 1 2.3575 30.6481 43.2216
1593 1 0.7858 29.0764 44.7933
1594 1 2.3575 30.6481 46.365
1595 1 0.7858 29.0764 47.9367
1596 1 2.3575 30.6481 49.5084
1597 1 0.7858 32.2197 0.7858
1598 1 2.3575 33.7914 2.3575
1599 1 0.7858 32.2197 3.9292
1600 1 2.3575 33.7914 5.5009
1601 1 0.7858 32.2197 7.0726
1602 1 2.3575 33.7914 8.6443
1603 1 0.7858 32.2197 10.216
1604 1 2.3575 33.7914 11.7877
1605 1 0.7858 32.2197 13.3594
1606 1 2.3575 33.7914 14.9311
1607 1 0.7858 32.2197 16.5028
1608 1 2.3575 33.7914 18.0745
1609 1 0.7858 32.2197 19.6462
1610 1 2.3575 33.7914 21.2179
1611 1 0.7858 32.2197 22.7896
1612 1 2.3575 33.7914 24.3613
1613 1 0.7858 32.2197 25.933
1614 1 2.3575 33.7914 27.5047
1615 1 0.7858 32.2197 29.0764
1616 1 2.3575 33.7914 30.6481
1617 1 0.7858 32.2197 32.2197
1618 1 2.3575 33.7914 33.7914
1619 1 0.7858 32.2197 35.3631
1620 1 2.3575 33.7914 36.9348
1621 1 0.7858 32.2197 38.5065
1622 1 2.3575 33.7914 40.0782
1623 1 0.7858 32.2197 41.6499
1624 1 2.3575 33.7914 43.2216
1625 1 0.7858 32.2197 44.7933
1626 1 2.3575 33.7914 46.365
1627 1 0.7858 32.2197 47.9367
1628 1 2.3575 33.7914 49.5084
1629 1 0.7858 35.3631 0.7858
1630 1 2.3575 36.9348 2.3575
1631 1 0.7858 35.3631 3.9292
1632 1 2.3575 36.9348 5.5009
1633 1 0.7858 35.3631 7.0726
1634 1 2.3575 36.9348 8.6443
1635 1 0.7858 35.3631 10.216
1636 1 2.3575 36.9348 11.7877
1637 1 0.7858 35.3631 13.3594
1638 1 2.3575 36.9348 14.9311
1639 1 0.7858 35.3631 16.5028
1640 1 2.3575 36.9348 18.0745
1641 1 0.7858 35.3631 19.6462
1642 1 2.3575 36.9348 21.2179
1643 1 0.7858 35.3631 22.7896
1644 1 2.3575 36.9348 24.3613
1645 1 0.7858 35.3631 25.933
1646 1 2.3575 36.9348 27.5047
1647 1 0.7858 35.3631 29.0764
1648 1 2.3575 36.9348 30.6481
1649 1 0.7858 35.3631 32.2197
1650 1 2.3575 36.9348 33.7914
1651 1 0.7858 35.3631 35.3631
1652 1 2.3575 36.9348 36.9348
1653 1 0.7858 35.3631 38.5065
1654 1 2.3575 36.9348 40.0782
1655 1 0.7858 35.3631 41.6499
1656 1 2.3575 36.9348 43.2216
1657 1 0.7858 35.3631 44.7933
1658 1 2.3575 36.9348 46.365
1659 1 0.7858 35.3631 47.9367
1660 1 2.3575 36.9348 49.5084
1661 1 0.7858 38.5065 0.7858
1662 1 2.3575 40.0782 2.3575
1663 1 0.7858 38.5065 3.9292
1664 1 2.3575 40.0782 5.5009
1665 1 0.7858 38.5065 7.0726
1666 1 2.3575 40.0782 8.6443
1667 1 0.7858 38.5065 10.216
1668 1 2.3575 40.0782 11.7877
1669 1 0.7858 38.5065 13.3594
1670 1 2.3575 40.0782 14.9311
1671 1 0.7858 38.5065 16.5028
1672 1 2.3575 40.0782 18.0745
1673 1 0.7858 38.5065 19.6462
1674 1 2.3575 40.0782 21.2179
1675 1 0.7858 38.5065 22.7896
1676 1 2.3575 40.0782 24.3613
1677 1 0.7858 38.5065 25.933
1678 1 2.3575 40.0782 27.5047
1679 1 0.7858 38.5065 29.0764
1680 1 2.3575 40.0782 30.6481
1681 1 0.7858 38.5065 32.2197
1682 1 2.3575 40.0782 33.7914
1683 1 0.7858 38.5065 35.3631
1684 1 2.3575 40.0782 36.9348
1685 1 0.7858 38.5065 38.5065
1686 1 2.3575 40.0782 40.0782
1687 1 0.7858 38.5065 41.6499
1688 1 2.3575 40.0782 43.2216
1689 1 0.7858 38.5065 44.7933
1690 1 2.3575 40.0782 46.365
1691 1 0.7858 38.5065 47.9367
1692 1 2.3575 40.0782 49.5084
1693 1 0.7858 41.6499 0.7858
1694 1 2.3575 43.2216 2.3575
1695 1 0.7858 41.6499 3.9292
1696 1 2.3575 43.2216 5.5009
1697 1 0.7858 41.6499 7.0726
1698 1 2.3575 43.2216 8.6443
1699 1 0.7858 41.6499 10.216
1700 1 2.3575 43.2216 11.7877
1701 1 0.7858 41.6499 13.3594
1702 1 2.3575 43.2216 14.9311
1703 1 0.7858 41.6499 16.5028
1704 1 2.3575 43.2216 18.0745
1705 1 0.7858 41.6499 19.6462
1706 1 2.3575 43.2216 21.2179
1707 1 0.7858 41.6499 22.7896
1708 1 2.3575 43.2216 24.3613
1709 1 0.7858 41.6499 25.933
1710 1 2.3575 43.2216 27.5047
1711 1 0.7858 41.6499 29.0764
1712 1 2.3575 43.2216 30.6481
1713 1 0.7858 41.6499 32.2197
1714 1 2.3575 43.2216 33.7914
1715 1 0.7858 41.6499 35.3631
1716 1 2.3575 43.2216 36.9348
1717 1 0.7858 41.6499 38.5065
1718 1 2.3575 43.2216 40.0782
1719 1 0.7858 41.6499 41.6499
1720 1 2.3575 43.2216 43.2216
1721 1 0.7858 41.6499 44.7933
1722 1 2.3575 43.2216 46.365
1723 1 0.7858 41.6499 47.9367
1724 1 2.3575 43.2216 49.5084
1725 1 0.7858 44.7933 0.7858
1726 1 2.3575 46.365 2.3575
1727 1 0.7858 44.7933 3.9292
1728 1 2.3575 46.365 5.5009
1729 1 0.7858 44.7933 7.0726
1730 1 2.3575 46.365 8.6443
1731 1 0.7858 44.7933 10.216
1732 1 2.3575 46.365 11.7877
1733 1 0.7858 44.7933 13.3594
1734 1 2.3575 46.365 14.9311
1735 1 0.7858 44.7933 16.5028
1736 1 2.3575 46.365 18.0745
1737 1 0.7858 44.7933 19.6462
1738 1 2.3575 46.365 21.2179
1739 1 0.7858 44.7933 22.7896
1740 1 2.3575 46.365 24.3613
1741 1 0.7858 44.7933 25.933
1742 1 2.3575 46.365 27.5047
1743 1 0.7858 44.7933 29.0764
1744 1 2.3575 46.365 30.6481
1745 1 0.7858 44.7933 32.2197
1746 1 2.3575 46.365 33.7914
1747 1 0.7858 44.7933 35.3631
1748 1 2.3575 46.365 36.9348
1749 1 0.7858 44.7933 38.5065
1750 1 2.3575 46.365 40.0782
1751 1 0.7858 44.7933 41.6499
1752 1 2.3575 46.365 43.2216
1753 1 0.7858 44.7933 44.7933
1754 1 2.3575 46.365 46.365
1755 1 0.7858 44.7933 47.9367
1756 1 2.3575 46.365 49.5084
1757 1 0.7858 47.9367 0.7858
1758 1 2.3575 49.5084 2.3575
1759 1 0.7858 47.9367 3.9292
1760 1 2.3575 49.5084 5.5009
1761 1 0.7858 47.9367 7.0726
1762 1 2.3575 49.5084 8.6443
1763 1 0.7858 47.9367 10.216
1764 1 2.3575 49.5084 11.7877
1765 1 0.7858 47.9367 13.3594
1766 1 2.3575 49.5084 14.9311
1767 1 0.7858 47.9367 16.5028
1768 1 2.3575 49.5084 18.0745
1769 1 0.7858 47.9367 19.6462
1770 1 2.3575 49.5084 21.2179
1771 1 0.7858 47.9367 22.7896
1772 1 2.3575 49.5084 24.3613
1773 1 0.7858 47.9367 25.933
1774 1 2.3575 49.5084 27.5047
1775 1 0.7858 47.9367 29.0764
1776 1 2.3575 49.5084 30.6481
1777 1 0.7858 47.9367 32.2197
1778 1 2.3575 49.5084 33.7914
1779 1 0.7858 47.9367 35.3631
1780 1 2.3575 49.5084 36.9348
1781 1 0.7858 47.9367 38.5065
1782 1 2.3575 49.5084 40.0782
1783 1 0.7858 47.9367 41.6499
1784 1 2.3575 49.5084 43.2216
1785 1 0.7858 47.9367 44.7933
1786 1 2.3575 49.5084 46.365
1787 1 0.7858 47.9367 47.9367
1788 1 2.3575 49.5084 49.5084
1789 1 3.9292 0.7858 0.7858
1790 1 5.5009 2.3575 2.3575
1791 1 3.9292 0.7858 3.9292
1792 1 5.5009 2.3575 5.5009
1793 1 3.9292 0.7858 7.0726
1794 1 5.5009 2.3575 8.6443
1795 1 3.9292 0.7858 10.216
1796 1 5.5009 2.3575 11.7877
1797 1 3.9292 0.7858 13.3594
1798 1 5.5009 2.3575 14.9311
1799 1 3.9292 0.7858 16.5028
1800 1 5.5009 2.3575 18.0745
1801 1 3.9292 0.7858 19.6462
1802 1 5.5009 2.3575 21.2179
1803 1 3.9292 0.7858 22.7896
1804 1 5.5009 2.3575 24.3613
1805 1 3.9292 0.7858 25.933
1806 1 5.5009 2.3575 27.5047
1807 1 3.9292 0.7858 29.0764
1808 1 5.5009 2.3575 30.6481
1809 1 3.9292 0.7858 32.2197
1810 1 5.5009 2.3575 33.7914
1811 1 3.9292 0.7858 35.3631
1812 1 5.5009 2.3575 36.9348
1813 1 3.9292 0.7858 38.5065
1814 1 5.5009 2.3575 40.0782
1815 1 3.9292 0.7858 41.6499
1816 1 5.5009 2.3575 43.2216
1817 1 3.9292 0.7858 44.7933
1818 1 5.5009 2.3575 46.365
1819 1 3.9292 0.7858 47.9367
1820 1 5.5009 2.3575 49.5084
1821 1 3.9292 3.9292 0.7858
1822 1 5.5009 5.5009 2.3575
1823 1 3.9292 3.9292 3.9292
1824 1 5.5009 5.5009 5.5009
1825 1 3.9292 3.9292 7.0726
1826 1 5.5009 5.5009 8.6443
1827 1 3.9292 3.9292 10.216
1828 1 5.5009 5.5009 11.7877
1829 1 3.9292 3.9292 13.3594
1830 1 5.5009 5.5009 14.9311
1831 1 3.9292 3.9292 16.5028
1832 1 5.5009 5.5009 18.0745
1833 1 3.9292 3.9292 19.6462
1834 1 5.5009 5.5009 21.2179
1835 1 3.9292 3.9292 22.7896
1836 1 5.5009 5.5009 24.3613
1837 1 3.9292 3.9292 25.933
1838 1 5.5009 5.5009 27.5047
1839 1 3.9292 3.9292 29.0764
1840 1 5.5009 5.5009 30.6481
1841 1 3.9292 3.9292 32.2197
1842 1 5.5009 5.5009 33.7914
1843 1 3.9292 3.9292 35.3631
1844 1 5.5009 5.5009 36.9348
1845 1 3.9292 3.9292 38.5065
1846 1 5.5009 5.5009 40.0782
1847 1 3.9292 3.9292 41.6499
1848 1 5.5009 5.5009 43.2216
1849 1 3.9292 3.9292 44.7933
1850 1 5.5009 5.5009 46.365
1851 1 3.9292 3.9292 47.9367
1852 1 5.5009 5.5009 49.5084
1853 1 3.9292 7.0726 0.7858
1854 1 5.5009 8.6443 2.3575
1855 1 3.9292 7.0726 3.9292
1856 1 5.5009 8.6443 5.5009
1857 1 3.9292 7.0726 7.0726
1858 1 5.5009 8.6443 8.6443
1859 1 3.9292 7.0726 10.216
1860 1 5.5009 8.6443 11.7877
1861 1 3.9292 7.0726 13.3594
1862 1 5.5009 8.6443 14.9311
1863 1 3.9292 7.0726 16.5028
1864 1 5.5009 8.6443 18.0745
1865 1 3.9292 7.0726 19.6462
1866 1 5.5009 8.6443 21.2179
1867 1 3.9292 7.0726 22.7896
1868 1 5.5009 8.6443 24.3613
1869 1 3.9292 7.0726 25.933
1870 1 5.5009 8.6443 27.5047
1871 1 3.9292 7.0726 29.0764
1872 1 5.5009 8.6443 30.6481
1873 1 3.9292 7.0726 32.2197
1874 1 5.5009 8.6443 33.7914
1875 1 3.9292 7.0726 35.3631
1876 1 5.5009 8.6443 36.9348
1877 1 3.9292 7.0726 38.5065
1878 1 5.5009 8.6443 40.0782
1879 1 3.9292 7.0726 41.6499
1880 1 5.5009 8.6443 43.2216
1881 1 3.9292 7.0726 44.7933
1882 1 5.5009 8.6443 46.365
1883 1 3.9292 7.0726 47.9367
1884 1 5.5009 8.6443 49.5084
1885 1 3.9292 10.216 0.7858
1886 1 5.5009 11.7877 2.3575
1887 1 3.9292 10.216 3.9292
1888 1 5.5009 11.7877 5.5009
1889 1 3.9292 10.216 7.0726
1890 1 5.5009 11.7877 8.6443
1891 1 3.9292 10.216 10.216
1892 1 5.5009 11.7877 11.7877
1893 1 3.9292 10.216 13.3594
1894 1 5.5009 11.7877 14.9311
1895 1 3.9292 10.216 16.5028
1896 1 5.5009 11.7877 18.0745
1897 1 3.9292 10.216 19.6462
1898 1 5.5009 11.7877 21.2179
1899 1 3.9292 10.216 22.7896
1900 1 5.5009 11.7877 24.3613
1901 1 3.9292 10.216 25.933
1902 1 5.5009 11.7877 27.5047
1903 1 3.9292 10.216 29.0764
1904 1 5.5009 11.7877 30.6481
1905 1 3.9292 10.216 32.2197
1906 1 5.5009 11.7877 33.7914
1907 1 3.9292 10.216 35.3631
1908 1 5.5009 11.7877 36.9348
1909 1 3.9292 10.216 38.5065
1910 1 5.5009 11.7877 40.0782
1911 1 3.9292 10.216 41.6499
1912 1 5.5009 11.7877 43.2216
1913 1 3.9292 10.216 44.7933
1914 1 5.5009 11.7877 46.365
1915 1 3.9292 10.216 47.9367
1916 1 5.5009 11.7877 49.5084
1917 1 3.9292 13.3594 0.7858
1918 1 5.5009 14.9311 2.3575
1919 1 3.9292 13.3594 3.9292
1920 1 5.5009 14.9311 5.5009
1921 1 3.9292 13.3594 7.0726
1922 1 5.5009 14.9311 8.6443
1923 1 3.9292 13.3594 10.216
1924 1 5.5009 14.9311 11.7877
1925 1 3.9292 13.3594 13.3594
1926 1 5.5009 14.9311 14.9311
1927 1 3.9292 13.3594 16.5028
1928 1 5.5009 14.9311 18.0745
1929 1 3.9292 13.3594 19.6462
1930 1 5.5009 14.9311 21.2179
1931 1 3.9292 13.3594 22.7896
1932 1 5.5009 14.9311 24.3613
1933 1 3.9292 13.3594 25.933
1934 1 5.5009 14.9311 27.5047
1935 1 3.9292 13.3594 29.0764
1936 1 5.5009 14.9311 30.6481
1937 1 3.9292 13.3594 32.2197
1938 1 5.5009 14.9311 33.7914
1939 1 3.9292 13.3594 35.3631
1940 1 5.5009 14.9311 36.9348
1941 1 3.9292 13.3594 38.5065
1942 1 5.5009 14.9311 40.0782
1943 1 3.9292 13.3594 41.6499
1944 1 5.5009 14.9311 43.2216
1945 1 3.9292 13.3594 44.7933
1946 1 5.5009 14.9311 46.365
1947 1 3.9292 13.3594 47.9367
1948 1 5.5009 14.9311 49.5084
1949 1 3.9292 16.5028 0.7858
1950 1 5.5009 18.0745 2.3575
1951 1 3.9292 16.5028 3.9292
1952 1 5.5009 18.0745 5.5009
1953 1 3.9292 16.5028 7.0726
1954 1 5.5009 18.0745 8.6443
1955 1 3.9292 16.5028 10.216
1956 1 5.5009 18.0745 11.7877
1957 1 3.9292 16.5028 13.3594
1958 1 5.5009 18.0745 14.9311
1959 1 3.9292 16.5028 16.5028
1960 1 5.5009 18.0745 18.0745
1961 1 3.9292 16.5028 19.6462
1962 1 5.5009 18.0745 21.2179
1963 1 3.9292 16.5028 22.7896
1964 1 5.5009 18.0745 24.3613
1965 1 3.9292 16.5028 25.933
1966 1 5.5009 18.0745 27.5047
1967 1 3.9292 16.5028 29.0764
1968 1 5.5009 18.0745 30.6481
1969 1 3.9292 16.5028 32.2197
1970 1 5.5009 18.0745 33.7914
1971 1 3.9292 16.5028 35.3631
1972 1 5.5009 18.0745 36.9348
1973 1 3.9292 16.5028 38.5065
1974 1 5.5009 18.0745 40.0782
1975 1 3.9292 16.5028 41.6499
1976 1 5.5009 18.0745 43.2216
1977 1 3.9292 16.5028 44.7933
1978 1 5.5009 18.0745 46.365
1979 1 3.9292 16.5028 47.9367
1980 1 5.5009 18.0745 49.5084
1981 1 3.9292 19.6462 0.7858
1982 1 5.5009 21.2179 2.3575
1983 1 3.9292 19.6462 3.9292
1984 1 5.5009 21.2179 5.5009
1985 1 3.9292 19.6462 7.0726
1986 1 5.5009 21.2179 8.6443
1987 1 3.9292 19.6462 10.216
1988 1 5.5009 21.2179 11.7877
1989 1 3.9292 19.6462 13.3594
1990 1 5.5009 21.2179 14.9311
1991 1 3.9292 19.6462 16.5028
1992 1 5.5009 21.2179 18.0745
1993 1 3.9292 19.6462 19.6462
1994 1 5.5009 21.2179 21.2179
1995 1 3.9292 19.6462 22.7896
1996 1 5.5009 21.2179 24.3613
1997 1 3.9292 19.6462 25.933
1998 1 5.5009 21.2179 27.5047
1999 1 3.9292 19.6462 29.0764
2000 1 5.5009 21.2179 30.6481
2001 1 3.9292 19.6462 32.2197
2002 1 5.5009 21.2179 33.7914
2003 1 3.9292 19.6462 35.3631
2004 1 5.5009 21.2179 36.9348
2005 1 3.9292 19.6462 38.5065
2006 1 5.5009 21.2179 40.0782
2007 1 3.9292 19.6462 41.6499
2008 1 5.5009 21.2179 43.2216
2009 1 3.9292 19.6462 44.7933
2010 1 5.5009 21.2179 46.365
2011 1 3.9292 19.6462 47.9367
2012 1 5.5009 21.2179 49.5084
2013 1 3.9292 22.7896 0.7858
2014 1 5.5009 24.3613 2.3575
2015 1 3.9292 22.7896 3.9292
2016 1 5.5009 24.3613 5.5009
2017 1 3.9292 22.7896 7.0726
2018 1 5.5009 24.3613 8.6443
2019 1 3.9292 22.7896 10.216
2020 1 5.5009 24.3613 11.7877
2021 1 3.9292 22.7896 13.3594
2022 1 5.5009 24.3613 14.9311
2023 1 3.9292 22.7896 16.5028
2024 1 5.5009 24.3613 18.0745
2025 1 3.9292 22.7896 19.6462
2026 1 5.5009 24.3613 21.2179
2027 1 3.9292 22.7896 22.7896
2028 1 5.5009 24.3613 24.3613
2029 1 3.9292 22.7896 25.933
2030 1 5.5009 24.3613 27.5047
2031 1 3.9292 22.7896 29.0764
2032 1 5.5009 24.3613 30.6481
2033 1 3.9292 22.7896 32.2197
2034 1 5.5009 24.3613 33.7914
2035 1 3.9292 22.7896 35.3631
2036 1 5.5009 24.3613 36.9348
2037 1 3.9292 22.7896 38.5065
2038 1 5.5009 24.3613 40.0782
2039 1 3.9292 22.7896 41.6499
2040 1 5.5009 24.3613 43.2216
2041 1 3.9292 22.7896 44.7933
2042 1 5.5009 24.3613 46.365
2043 1 3.9292 22.7896 47.9367
2044 1 5.5009 24.3613 49.5084
2045 1 3.9292 25.933 0.7858
2046 1 5.5009 27.5047 2.3575
2047 1 3.9292 25.933 3.9292
2048 1 5.5009 27.5047 5.5009
2049 1 3.9292 25.933 7.0726
2050 1 5.5009 27.5047 8.6443
2051 1 3.9292 25.933 10.216
2052 1 5.5009 27.5047 11.7877
2053 1 3.9292 25.933 13.3594
2054 1 5.5009 27.5047 14.9311
2055 1 3.9292 25.933 16.5028
2056 1 5.5009 27.5047 18.0745
2057 1 3.9292 25.933 19.6462
2058 1 5.5009 27.5047 21.2179
2059 1 3.9292 25.933 22.7896
2060 1 5.5009 27.5047 24.3613
2061 1 3.9292 25.933 25.933
2062 1 5.5009 27.5047 27.5047
2063 1 3.9292 25.933 29.0764
2064 1 5.5009 27.5047 30.6481
2065 1 3.9292 25.933 32.2197
2066 1 5.5009 27.5047 33.7914
2067 1 3.9292 25.933 35.3631
2068 1 5.5009 27.5047 36.9348
2069 1 3.9292 25.933 38.5065
2070 1 5.5009 27.5047 40.0782
2071 1 3.9292 25.933 41.6499
2072 1 5.5009 27.5047 43.2216
2073 1 3.9292 25.933 44.7933
2074 1 5.5009 27.5047 46.365
2075 1 3.9292 25.933 47.9367
2076 1 5.5009 27.5047 49.5084
2077 1 3.9292 29.0764 0.7858
2078 1 5.5009 30.6481 2.3575
2079 1 3.9292 29.0764 3.9292
2080 1 5.5009 30.6481 5.5009
2081 1 3.9292 29.0764 7.0726
2082 1 5.5009 30.6481 8.6443
2083 1 3.9292 29.0764 10.216
2084 1 5.5009 30.6481 11.7877
2085 1 3.9292 29.0764 13.3594
2086 1 5.5009 30.6481 14.9311
2087 1 3.9292 29.0764 16.5028
2088 1 5.5009 30.6481 18.0745
2089 1 3.9292 29.0764 19.6462
2090 1 5.5009 30.6481 21.2179
2091 1 3.9292 29.0764 22.7896
2092 1 5.5009 30.6481 24.3613
2093 1 3.9292 29.0764 25.933
2094 1 5.5009 30.6481 27.5047
2095 1 3.9292 29.0764 29.0764
2096 1 5.5009 30.6481 30.6481
2097 1 3.9292 29.0764 32.2197
2098 1 5.5009 30.6481 33.7914
2099 1 3.9292 29.0764 35.3631
2100 1 5.5009 30.6481 36.9348
2101 1 3.9292 29.0764 38.5065
2102 1 5.5009 30.6481 40.0782
2103 1 3.9292 29.0764 41.6499
2104 1 5.5009 30.6481 43.2216
2105 1 3.9292 29.0764 44.7933
2106 1 5.5009 30.6481 46.365
2107 1 3.9292 29.0764 47.9367
2108 1 5.5009 30.6481 49.5084
2109 1 3.9292 32.2197 0.7858
2110 1 5.5009 33.7914 2.3575
2111 1 3.9292 32.2197 3.9292
2112 1 5.5009 33.7914 5.5009
2113 1 3.9292 32.2197 7.0726
2114 1 5.5009 33.7914 8.6443
2115 1 3.9292 32.2197 10.216
2116 1 5.5009 33.7914 11.7877
2117 1 3.9292 32.2197 13.3594
2118 1 5.5009 33.7914 14.9311
2119 1 3.9292 32.2197 16.5028
2120 1 5.5009 33.7914 18.0745
2121 1 3.9292 32.2197 19.6462
2122 1 5.5009 33.7914 21.2179
2123 1 3.9292 32.2197 22.7896
2124 1 5.5009 33.7914 24.3613
2125 1 3.9292 32.2197 25.933
2126 1 5.5009 33.7914 27.5047
2127 1 3.9292 32.2197 29.0764
2128 1 5.5009 33.7914 30.6481
2129 1 3.9292 32.2197 32.2197
2130 1 5.5009 33.7914 33.7914
2131 1 3.9292 32.2197 35.3631
2132 1 5.5009 33.7914 36.9348
2133 1 3.9292 32.2197 38.5065
2134 1 5.5009 33.7914 40.0782
2135 1 3.9292 32.2197 41.6499
2136 1 5.5009 33.7914 43.2216
2137 1 3.9292 32.2197 44.7933
2138 1 5.5009 33.7914 46.365
2139 1 3.9292 32.2197 47.9367
2140 1 5.5009 33.7914 49.5084
2141 1 3.9292 35.3631 0.7858
2142 1 5.5009 36.9348 2.3575
2143 1 3.9292 35.3631 3.9292
2144 1 5.5009 36.9348 5.5009
2145 1 3.9292 35.3631 7.0726
2146 1 5.5009 36.9348 8.6443
2147 1 3.9292 35.3631 10.216
2148 1 5.5009 36.9348 11.7877
2149 1 3.9292 35.3631 13.3594
2150 1 5.5009 36.9348 14.9311
2151 1 3.9292 35.3631 16.5028
2152 1 5.5009 36.9348 18.0745
2153 1 3.9292 35.3631 19.6462
2154 1 5.5009 36.9348 21.2179
2155 1 3.9292 35.3631 22.7896
2156 1 5.5009 36.9348 24.3613
2157 1 3.9292 35.3631 25.933
2158 1 5.5009 36.9348 27.5047
2159 1 3.9292 35.3631 29.0764
2160 1 5.5009 36.9348 30.6481
2161 1 3.9292 35.3631 32.2197
2162 1 5.5009 36.9348 33.7914
2163 1 3.9292 35.3631 35.3631
2164 1 5.5009 36.9348 36.9348
2165 1 3.9292 35.3631 38.5065
2166 1 5.5009 36.9348 40.0782
2167 1 3.9292 35.3631 41.6499
2168 1 5.5009 36.9348 43.2216
2169 1 3.9292 35.3631 44.7933
2170 1 5.5009 36.9348 46.365
2171 1 3.9292 35.3631 47.9367
2172 1 5.5009 36.9348 49.5084
2173 1 3.9292 38.5065 0.7858
2174 1 5.5009 40.0782 2.3575
2175 1 3.9292 38.5065 3.9292
2176 1 5.5009 40.0782 5.5009
2177 1 3.9292 38.5065 7.0726
2178 1 5.5009 40.0782 8.6443
2179 1 3.9292 38.5065 10.216
2180 1 5.5009 40.0782 11.7877
2181 1 3.9292 38.5065 13.3594
2182 1 5.5009 40.0782 14.9311
2183 1 3.9292 38.5065 16.5028
2184 1 5.5009 40.0782 18.0745
2185 1 3.9292 38.5065 19.6462
2186 1 5.5009 40.0782 21.2179
2187 1 3.9292 38.5065 22.7896
2188 1 5.5009 40.0782 24.3613
2189 1 3.9292 38.5065 25.933
2190 1 5.5009 40.0782 27.5047
2191 1 3.9292 38.5065 29.0764
2192 1 5.5009 40.0782 30.6481
2193 1 3.9292 38.5065 32.2197
2194 1 5.5009 40.0782 33.7914
2195 1 3.9292 38.5065 35.3631
2196 1 5.5009 40.0782 36.9348
2197 1 3.9292 38.5065 38.5065
2198 1 5.5009 40.0782 40.0782
2199 1 3.9292 38.5065 41.6499
2200 1 5.5009 40.0782 43.2216
2201 1 3.9292 38.5065 44.7933
2202 1 5.5009 40.0782 46.365
2203 1 3.9292 38.5065 47.9367
2204 1 5.5009 40.0782 49.5084
2205 1 3.9292 41.6499 0.7858
2206 1 5.5009 43.2216 2.3575
2207 1 3.9292 41.6499 3.9292
2208 1 5.5009 43.2216 5.5009
2209 1 3.9292 41.6499 7.0726
2210 1 5.5009 43.2216 8.6443
2211 1 3.9292 41.6499 10.216
2212 1 5.5009 43.2216 11.7877
2213 1 3.9292 41.6499 13.3594
2214 1 5.5009 43.2216 14.9311
2215 1 3.9292 41.6499 16.5028
2216 1 5.5009 43.2216 18.0745
2217 1 3.9292 41.6499 19.6462
2218 1 5.5009 43.2216 21.2179
2219 1 3.9292 41.6499 22.7896
2220 1 5.5009 43.2216 24.3613
2221 1 3.9292 41.6499 25.933
2222 1 5.5009 43.2216 27.5047
2223 1 3.9292 41.6499 29.0764
2224 1 5.5009 43.2216 30.6481
2225 1 3.9292 41.6499 32.2197
2226 1 5.5009 43.2216 33.7914
2227 1 3.9292 41.6499 35.3631
2228 1 5.5009 43.2216 36.9348
2229 1 3.9292 41.6499 38.5065
2230 1 5.5009 43.2216 40.0782
2231 1 3.9292 41.6499 41.6499
2232 1 5.5009 43.2216 43.2216
2233 1 3.9292 41.6499 44.7933
2234 1 5.5009 43.2216 46.365
2235 1 3.9292 41.6499 47.9367
2236 1 5.5009 43.2216 49.5084
2237 1 3.9292 44.7933 0.7858
2238 1 5.5009 46.365 2.3575
2239 1 3.9292 44.7933 3.9292
2240 1 5.5009 46.365 5.5009
2241 1 3.9292 44.7933 7.0726
2242 1 5.5009 46.365 8.6443
2243 1 3.9292 44.7933 10.216
2244 1 5.5009 46.365 11.7877
2245 1 3.9292 44.7933 13.3594
2246 1 5.5009 46.365 14.9311
2247 1 3.9292 44.7933 16.5028
2248 1 5.5009 46.365 18.0745
2249 1 3.9292 44.7933 19.6462
2250 1 5.5009 46.365 21.2179
2251 1 3.9292 44.7933 22.7896
2252 1 5.5009 46.365 24.3613
2253 1 3.9292 44.7933 25.933
2254 1 5.5009 46.365 27.5047
2255 1 3.9292 44.7933 29.0764
2256 1 5.5009 46.365 30.6481
2257 1 3.9292 44.7933 32.2197
2258 1 5.5009 46.365 33.7914
2259 1 3.9292 44.7933 35.3631
2260 1 5.5009 46.365 36.9348
2261 1 3.9292 44.7933 38.5065
2262 1 5.5009 46.365 40.0782
2263 1 3.9292 44.7933 41.6499
2264 1 5.5009 46.365 43.2216
2265 1 3.9292 44.7933 44.7933
2266 1 5.5009 46.365 46.365
2267 1 3.9292 44.7933 47.9367
2268 1 5.5009 46.365 49.5084
2269 1 3.9292 47.9367 0.7858
2270 1 5.5009 49.5084 2.3575
2271 1 3.9292 47.9367 3.9292
2272 1 5.5009 49.5084 5.5009
2273 1 3.9292 47.9367 7.0726
2274 1 5.5009 49.5084 8.6443
2275 1 3.9292 47.9367 10.216
2276 1 5.5009 49.5084 11.7877
2277 1 3.9292 47.9367 13.3594
2278 1 5.5009 49.5084 14.9311
2279 1 3.9292 47.9367 16.5028
2280 1 5.5009 49.5084 18.0745
2281 1 3.9292 47.9367 19.6462
2282 1 5.5009 49.5084 21.2179
2283 1 3.9292 47.9367 22.7896
2284 1 5.5009 49.5084 24.3613
2285 1 3.9292 47.9367 25.933
2286 1 5.5009 49.5084 27.5047
2287 1 3.9292 47.9367 29.0764
2288 1 5.5009 49.5084 30.6481
2289 1 3.9292 47.9367 32.2197
2290 1 5.5009 49.5084 33.7914
2291 1 3.9292 47.9367 35.3631
2292 1 5.5009 49.5084 36.9348
2293 1 3.9292 47.9367 38.5065
2294 1 5.5009 49.5084 40.0782
2295 1 3.9292 47.9367 41.6499
2296 1 5.5009 49.5084 43.2216
2297 1 3.9292 47.9367 44.7933
2298 1 5.5009 49.5084 46.365
2299 1 3.9292 47.9367 47.9367
2300 1 5.5009 49.5084 49.5084
2301 1 7.0726 0.7858 0.7858
2302 1 8.6443 2.3575 2.3575
2303 1 7.0726 0.7858 3.9292
2304 1 8.6443 2.3575 5.5009
2305 1 7.0726 0.7858 7.0726
2306 1 8.6443 2.3575 8.6443
2307 1 7.0726 0.7858 10.216
2308 1 8.6443 2.3575 11.7877
2309 1 7.0726 0.7858 13.3594
2310 1 8.6443 2.3575 14.9311
2311 1 7.0726 0.7858 16.5028
2312 1 8.6443 2.3575 18.0745
2313 1 7.0726 0.7858 19.6462
2314 1 8.6443 2.3575 21.2179
2315 1 7.0726 0.7858 22.7896
2316 1 8.6443 2.3575 24.3613
2317 1 7.0726 0.7858 25.933
2318 1 8.6443 2.3575 27.5047
2319 1 7.0726 0.7858 29.0764
2320 1 8.6443 2.3575 30.6481
2321 1 7.0726 0.7858 32.2197
2322 1 8.6443 2.3575 33.7914
2323 1 7.0726 0.7858 35.3631
2324 1 8.6443 2.3575 36.9348
2325 1 7.0726 0.7858 38.5065
2326 1 8.6443 2.3575 40.0782
2327 1 7.0726 0.7858 41.6499
2328 1 8.6443 2.3575 43.2216
2329 1 7.0726 0.7858 44.7933
2330 1 8.6443 2.3575 46.365
2331 1 7.0726 0.7858 47.9367
2332 1 8.6443 2.3575 49.5084
2333 1 7.0726 3.9292 0.7858
2334 1 8.6443 5.5009 2.3575
2335 1 7.0726 3.9292 3.9292
2336 1 8.6443 5.5009 5.5009
2337 1 7.0726 3.9292 7.0726
2338 1 8.6443 5.5009 8.6443
2339 1 7.0726 3.9292 10.216
2340 1 8.6443 5.5009 11.7877
2341 1 7.0726 3.9292 13.3594
2342 1 8.6443 5.5009 14.9311
2343 1 7.0726 3.9292 16.5028
2344 1 8.6443 5.5009 18.0745
2345 1 7.0726 3.9292 19.6462
2346 1 8.6443 5.5009 21.2179
2347 1 7.0726 3.9292 22.7896
2348 1 8.6443 5.5009 24.3613
2349 1 7.0726 3.9292 25.933
2350 1 8.6443 5.5009 27.5047
2351 1 7.0726 3.9292 29.0764
2352 1 8.6443 5.5009 30.6481
2353 1 7.0726 3.9292 32.2197
2354 1 8.6443 5.5009 33.7914
2355 1 7.0726 3.9292 35.3631
2356 1 8.6443 5.5009 36.9348
2357 1 7.0726 3.9292 38.5065
2358 1 8.6443 5.5009 40.0782
2359 1 7.0726 3.9292 41.6499
2360 1 8.6443 5.5009 43.2216
2361 1 7.0726 3.9292 44.7933
2362 1 8.6443 5.5009 46.365
2363 1 7.0726 3.9292 47.9367
2364 1 8.6443 5.5009 49.5084
2365 1 7.0726 7.0726 0.7858
2366 1 8.6443 8.6443 2.3575
2367 1 7.0726 7.0726 3.9292
2368 1 8.6443 8.6443 5.5009
2369 1 7.0726 7.0726 7.0726
2370 1 8.6443 8.6443 8.6443
2371 1 7.0726 7.0726 10.216
2372 1 8.6443 8.6443 11.7877
2373 1 7.0726 7.0726 13.3594
2374 1 8.6443 8.6443 14.9311
2375 1 7.0726 7.0726 16.5028
2376 1 8.6443 8.6443 18.0745
2377 1 7.0726 7.0726 19.6462
2378 1 8.6443 8.6443 21.2179
2379 1 7.0726 7.0726 22.7896
2380 1 8.6443 8.6443 24.3613
2381 1 7.0726 7.0726 25.933
2382 1 8.6443 8.6443 27.5047
2383 1 7.0726 7.0726 29.0764
2384 1 8.6443 8.6443 30.6481
2385 1 7.0726 7.0726 32.2197
2386 1 8.6443 8.6443 33.7914
2387 1 7.0726 7.0726 35.3631
2388 1 8.6443 8.6443 36.9348
2389 1 7.0726 7.0726 38.5065
2390 1 8.6443 8.6443 40.0782
2391 1 7.0726 7.0726 41.6499
2392 1 8.6443 8.6443 43.2216
2393 1 7.0726 7.0726 44.7933
2394 1 8.6443 8.6443 46.365
2395 1 7.0726 7.0726 47.9367
2396 1 8.6443 8.6443 49.5084
2397 1 7.0726 10.216 0.7858
2398 1 8.6443 11.7877 2.3575
2399 1 7.0726 10.216 3.9292
2400 1 8.6443 11.7877 5.5009
2401 1 7.0726 10.216 7.0726
2402 1 8.6443 11.7877 8.6443
2403 1 7.0726 10.216 10.216
2404 1 8.6443 11.7877 11.7877
2405 1 7.0726 10.216 13.3594
2406 1 8.6443 11.7877 14.9311
2407 1 7.0726 10.216 16.5028
2408 1 8.6443 11.7877 18.0745
2409 1 7.0726 10.216 19.6462
2410 1 8.6443 11.7877 21.2179
2411 1 7.0726 10.216 22.7896
2412 1 8.6443 11.7877 24.3613
2413 1 7.0726 10.216 25.933
2414 1 8.6443 11.7877 27.5047
2415 1 7.0726 10.216 29.0764
2416 1 8.6443 11.7877 30.6481
2417 1 7.0726 10.216 32.2197
2418 1 8.6443 11.7877 33.7914
2419 1 7.0726 10.216 35.3631
2420 1 8.6443 11.7877 36.9348
2421 1 7.0726 10.216 38.5065
2422 1 8.6443 11.7877 40.0782
2423 1 7.0726 10.216 41.6499
2424 1 8.6443 11.7877 43.2216
2425 1 7.0726 10.216 44.7933
2426 1 8.6443 11.7877 46.365
2427 1 7.0726 10.216 47.9367
2428 1 8.6443 11.7877 49.5084
2429 1 7.0726 13.3594 0.7858
2430 1 8.6443 14.9311 2.3575
2431 1 7.0726 13.3594 3.9292
2432 1 8.6443 14.9311 5.5009
2433 1 7.0726 13.3594 7.0726
2434 1 8.6443 14.9311 8.6443
2435 1 7.0726 13.3594 10.216
2436 1 8.6443 14.9311 11.7877
2437 1 7.0726 13.3594 13.3594
2438 1 8.6443 14.9311 14.9311
2439 1 7.0726 13.3594 16.5028
2440 1 8.6443 14.9311 18.0745
2441 1 7.0726 13.3594 19.6462
2442 1 8.6443 14.9311 21.2179
2443 1 7.0726 13.3594 22.7896
2444 1 8.6443 14.9311 24.3613
2445 1 7.0726 13.3594 25.933
2446 1 8.6443 14.9311 27.5047
2447 1 7.0726 13.3594 29.0764
2448 1 8.6443 14.9311 30.6481
2449 1 7.0726 13.3594 32.2197
2450 1 8.6443 14.9311 33.7914
2451 1 7.0726 13.3594 35.3631
2452 1 8.6443 14.9311 36.9348
2453 1 7.0726 13.3594 38.5065
2454 1 8.6443 14.9311 40.0782
2455 1 7.0726 13.3594 41.6499
2456 1 8.6443 14.9311 43.2216
2457 1 7.0726 13.3594 44.7933
2458 1 8.6443 14.9311 46.365
2459 1 7.0726 13.3594 47.9367
2460 1 8.6443 14.9311 49.5084
2461 1 7.0726 16.5028 0.7858
2462 1 8.6443 18.0745 2.3575
2463 1 7.0726 16.5028 3.9292
2464 1 8.6443 18.0745 5.5009
2465 1 7.0726 16.5028 7.0726
2466 1 8.6443 18.0745 8.6443
2467 1 7.0726 16.5028 10.216
2468 1 8.6443 18.0745 11.7877
2469 1 7.0726 16.5028 13.3594
2470 1 8.6443 18.0745 14.9311
2471 1 7.0726 16.5028 16.5028
2472 1 8.6443 18.0745 18.0745
2473 1 7.0726 16.5028 19.6462
2474 1 8.6443 18.0745 21.2179
2475 1 7.0726 16.5028 22.7896
2476 1 8.6443 18.0745 24.3613
2477 1 7.0726 16.5028 25.933
2478 1 8.6443 18.0745 27.5047
2479 1 7.0726 16.5028 29.0764
2480 1 8.6443 18.0745 30.6481
2481 1 7.0726 16.5028 32.2197
2482 1 8.6443 18.0745 33.7914
2483 1 7.0726 16.5028 35.3631
2484 1 8.6443 18.0745 36.9348
2485 1 7.0726 16.5028 38.5065
2486 1 8.6443 18.0745 40.0782
2487 1 7.0726 16.5028 41.6499
2488 1 8.6443 18.0745 43.2216
2489 1 7.0726 16.5028 44.7933
2490 1 8.6443 18.0745 46.365
2491 1 7.0726 16.5028 47.9367
2492 1 8.6443 18.0745 49.5084
2493 1 7.0726 19.6462 0.7858
2494 1 8.6443 21.2179 2.3575
2495 1 7.0726 19.6462 3.9292
2496 1 8.6443 21.2179 5.5009
2497 1 7.0726 19.6462 7.0726
2498 1 8.6443 21.2179 8.6443
2499 1 7.0726 19.6462 10.216
2500 1 8.6443 21.2179 11.7877
2501 1 7.0726 19.6462 13.3594
2502 1 8.6443 21.2179 14.9311
2503 1 7.0726 19.6462 16.5028
2504 1 8.6443 21.2179 18.0745
2505 1 7.0726 19.6462 19.6462
2506 1 8.6443 21.2179 21.2179
2507 1 7.0726 19.6462 22.7896
2508 1 8.6443 21.2179 24.3613
2509 1 7.0726 19.6462 25.933
2510 1 8.6443 21.2179 27.5047
2511 1 7.0726 19.6462 29.0764
2512 1 8.6443 21.2179 30.6481
2513 1 7.0726 19.6462 32.2197
2514 1 8.6443 21.2179 33.7914
2515 1 7.0726 19.6462 35.3631
2516 1 8.6443 21.2179 36.9348
2517 1 7.0726 19.6462 38.5065
2518 1 8.6443 21.2179 40.0782
2519 1 7.0726 19.6462 41.6499
2520 1 8.6443 21.2179 43.2216
2521 1 7.0726 19.6462 44.7933
2522 1 8.6443 21.2179 46.365
2523 1 7.0726 19.6462 47.9367
2524 1 8.6443 21.2179 49.5084
2525 1 7.0726 22.7896 0.7858
2526 1 8.6443 24.3613 2.3575
2527 1 7.0726 22.7896 3.9292
2528 1 8.6443 24.3613 5.5009
2529 1 7.0726 22.7896 7.0726
2530 1 8.6443 24.3613 8.6443
2531 1 7.0726 22.7896 10.216
2532 1 8.6443 24.3613 11.7877
2533 1 7.0726 22.7896 13.3594
2534 1 8.6443 24.3613 14.9311
2535 1 7.0726 22.7896 16.5028
2536 1 8.6443 24.3613 18.0745
2537 1 7.0726 22.7896 19.6462
2538 1 8.6443 24.3613 21.2179
2539 1 7.0726 22.7896 22.7896
2540 1 8.6443 24.3613 24.3613
2541 1 7.0726 22.7896 25.933
2542 1 8.6443 24.3613 27.5047
2543 1 7.0726 22.7896 29.0764
2544 1 8.6443 24.3613 30.6481
2545 1 7.0726 22.7896 32.2197
2546 1 8.6443 24.3613 33.7914
2547 1 7.0726 22.7896 35.3631
2548 1 8.6443 24.3613 36.9348
2549 1 7.0726 22.7896 38.5065
2550 1 8.6443 24.3613 40.0782
2551 1 7.0726 22.7896 41.6499
2552 1 8.6443 24.3613 43.2216
2553 1 7.0726 22.7896 44.7933
2554 1 8.6443 24.3613 46.365
2555 1 7.0726 22.7896 47.9367
2556 1 8.6443 24.3613 49.5084
2557 1 7.0726 25.933 0.7858
2558 1 8.6443 27.5047 2.3575
2559 1 7.0726 25.933 3.9292
2560 1 8.6443 27.5047 5.5009
2561 1 7.0726 25.933 7.0726
2562 1 8.6443 27.5047 8.6443
2563 1 7.0726 25.933 10.216
2564 1 8.6443 27.5047 11.7877
2565 1 7.0726 25.933 13.3594
2566 1 8.6443 27.5047 14.9311
2567 1 7.0726 25.933 16.5028
2568 1 8.6443 27.5047 18.0745
2569 1 7.0726 25.933 19.6462
2570 1 8.6443 27.5047 21.2179
2571 1 7.0726 25.933 22.7896
2572 1 8.6443 27.5047 24.3613
2573 1 7.0726 25.933 25.933
2574 1 8.6443 27.5047 27.5047
2575 1 7.0726 25.933 29.0764
2576 1 8.6443 27.5047 30.6481
2577 1 7.0726 25.933 32.2197
2578 1 8.6443 27.5047 33.7914
2579 1 7.0726 25.933 35.3631
2580 1 8.6443 27.5047 36.9348
2581 1 7.0726 25.933 38.5065
2582 1 8.6443 27.5047 40.0782
2583 1 7.0726 25.933 41.6499
2584 1 8.6443 27.5047 43.2216
2585 1 7.0726 25.933 44.7933
2586 1 8.6443 27.5047 46.365
2587 1 7.0726 25.933 47.9367
2588 1 8.6443 27.5047 49.5084
2589 1 7.0726 29.0764 0.7858
2590 1 8.6443 30.6481 2.3575
2591 1 7.0726 29.0764 3.9292
2592 1 8.6443 30.6481 5.5009
2593 1 7.0726 29.0764 7.0726
2594 1 8.6443 30.6481 8.6443
2595 1 7.0726 29.0764 10.216
2596 1 8.6443 30.6481 11.7877
2597 1 7.0726 29.0764 13.3594
2598 1 8.6443 30.6481 14.9311
2599 1 7.0726 29.0764 16.5028
2600 1 8.6443 30.6481 18.0745
2601 1 7.0726 29.0764 19.6462
2602 1 8.6443 30.6481 21.2179
2603 1 7.0726 29.0764 22.7896
2604 1 8.6443 30.6481 24.3613
2605 1 7.0726 29.0764 25.933
2606 1 8.6443 30.6481 27.5047
2607 1 7.0726 29.0764 29.0764
2608 1 8.6443 30.6481 30.6481
2609 1 7.0726 29.0764 32.2197
2610 1 8.6443 30.6481 33.7914
2611 1 7.0726 29.0764 35.3631
2612 1 8.6443 30.6481 36.9348
2613 1 7.0726 29.0764 38.5065
2614 1 8.6443 30.6481 40.0782
2615 1 7.0726 29.0764 41.6499
2616 1 8.6443 30.6481 43.2216
2617 1 7.0726 29.0764 44.7933
2618 1 8.6443 30.6481 46.365
2619 1 7.0726 29.0764 47.9367
2620 1 8.6443 30.6481 49.5084
2621 1 7.0726 32.2197 0.7858
2622 1 8.6443 33.7914 2.3575
2623 1 7.0726 32.2197 3.9292
2624 1 8.6443 33.7914 5.5009
2625 1 7.0726 32.2197 7.0726
2626 1 8.6443 33.7914 8.6443
2627 1 7.0726 32.2197 10.216
2628 1 8.6443 33.7914 11.7877
2629 1 7.0726 32.2197 13.3594
2630 1 8.6443 33.7914 14.9311
2631 1 7.0726 32.2197 16.5028
2632 1 8.6443 33.7914 18.0745
2633 1 7.0726 32.2197 19.6462
2634 1 8.6443 33.7914 21.2179
2635 1 7.0726 32.2197 22.7896
2636 1 8.6443 33.7914 24.3613
2637 1 7.0726 32.2197 25.933
2638 1 8.6443 33.7914 27.5047
2639 1 7.0726 32.2197 29.0764
2640 1 8.6443 33.7914 30.6481
2641 1 7.0726 32.2197 32.2197
2642 1 8.6443 33.7914 33.7914
2643 1 7.0726 32.2197 35.3631
2644 1 8.6443 33.7914 36.9348
2645 1 7.0726 32.2197 38.5065
2646 1 8.6443 33.7914 40.0782
2647 1 7.0726 32.2197 41.6499
2648 1 8.6443 33.7914 43.2216
2649 1 7.0726 32.2197 44.7933
2650 1 8.6443 33.7914 46.365
2651 1 7.0726 32.2197 47.9367
2652 1 8.6443 33.7914 49.5084
2653 1 7.0726 35.3631 0.7858
2654 1 8.6443 36.9348 2.3575
2655 1 7.0726 35.3631 3.9292
2656 1 8.6443 36.9348 5.5009
2657 1 7.0726 35.3631 7.0726
2658 1 8.6443 36.9348 8.6443
2659 1 7.0726 35.3631 10.216
2660 1 8.6443 36.9348 11.7877
2661 1 7.0726 35.3631 13.3594
2662 1 8.6443 36.9348 14.9311
2663 1 7.0726 35.3631 16.5028
2664 1 8.6443 36.9348 18.0745
2665 1 7.0726 35.3631 19.6462
2666 1 8.6443 36.9348 21.2179
2667 1 7.0726 35.3631 22.7896
2668 1 8.6443 36.9348 24.3613
2669 1 7.0726 35.3631 25.933
2670 1 8.6443 36.9348 27.5047
2671 1 7.0726 35.3631 29.0764
2672 1 8.6443 36.9348 30.6481
2673 1 7.0726 35.3631 32.2197
2674 1 8.6443 36.9348 33.7914
2675 1 7.0726 35.3631 35.3631
2676 1 8.6443 36.9348 36.9348
2677 1 7.0726 35.3631 38.5065
2678 1 8.6443 36.9348 40.0782
2679 1 7.0726 35.3631 41.6499
2680 1 8.6443 36.9348 43.2216
2681 1 7.0726 35.3631 44.7933
2682 1 8.6443 36.9348 46.365
2683 1 7.0726 35.3631 47.9367
2684 1 8.6443 36.9348 49.5084
2685 1 7.0726 38.5065 0.7858
2686 1 8.6443 40.0782 2.3575
2687 1 7.0726 38.5065 3.9292
2688 1 8.6443 40.0782 5.5009
2689 1 7.0726 38.5065 7.0726
2690 1 8.6443 40.0782 8.6443
2691 1 7.0726 38.5065 10.216
2692 1 8.6443 40.0782 11.7877
2693 1 7.0726 38.5065 13.3594
2694 1 8.6443 40.0782 14.9311
2695 1 7.0726 38.5065 16.5028
2696 1 8.6443 40.0782 18.0745
2697 1 7.0726 38.5065 19.6462
2698 1 8.6443 40.0782 21.2179
2699 1 7.0726 38.5065 22.7896
2700 1 8.6443 40.0782 24.3613
2701 1 7.0726 38.5065 25.933
2702 1 8.6443 40.0782 27.5047
2703 1 7.0726 38.5065 29.0764
2704 1 8.6443 40.0782 30.6481
2705 1 7.0726 38.5065 32.2197
2706 1 8.6443 40.0782 33.7914
2707 1 7.0726 38.5065 35.3631
2708 1 8.6443 40.0782 36.9348
2709 1 7.0726 38.5065 38.5065
2710 1 8.6443 40.0782 40.0782
2711 1 7.0726 38.5065 41.6499
2712 1 8.6443 40.0782 43.2216
2713 1 7.0726 38.5065 44.7933
2714 1 8.6443 40.0782 46.365
2715 1 7.0726 38.5065 47.9367
2716 1 8.6443 40.0782 49.5084
2717 1 7.0726 41.6499 0.7858
2718 1 8.6443 43.2216 2.3575
2719 1 7.0726 41.6499 3.9292
2720 1 8.6443 43.2216 5.5009
2721 1 7.0726 41.6499 7.0726
2722 1 8.6443 43.2216 8.6443
2723 1 7.0726 41.6499 10.216
2724 1 8.6443 43.2216 11.7877
2725 1 7.0726 41.6499 13.3594
2726 1 8.6443 43.2216 14.9311
2727 1 7.0726 41.6499 16.5028
2728 1 8.6443 43.2216 18.0745
2729 1 7.0726 41.6499 19.6462
2730 1 8.6443 43.2216 21.2179
2731 1 7.0726 41.6499 22.7896
2732 1 8.6443 43.2216 24.3613
2733 1 7.0726 41.6499 25.933
2734 1 8.6443 43.2216 27.5047
2735 1 7.0726 41.6499 29.0764
2736 1 8.6443 43.2216 30.6481
2737 1 7.0726 41.6499 32.2197
2738 1 8.6443 43.2216 33.7914
2739 1 7.0726 41.6499 35.3631
2740 1 8.6443 43.2216 36.9348
2741 1 7.0726 41.6499 38.5065
2742 1 8.6443 43.2216 40.0782
2743 1 7.0726 41.6499 41.6499
2744 1 8.6443 43.2216 43.2216
2745 1 7.0726 41.6499 44.7933
2746 1 8.6443 43.2216 46.365
2747 1 7.0726 41.6499 47.9367
2748 1 8.6443 43.2216 49.5084
2749 1 7.0726 44.7933 0.7858
2750 1 8.6443 46.365 2.3575
2751 1 7.0726 44.7933 3.9292
2752 1 8.6443 46.365 5.5009
2753 1 7.0726 44.7933 7.0726
2754 1 8.6443 46.365 8.6443
2755 1 7.0726 44.7933 10.216
2756 1 8.6443 46.365 11.7877
2757 1 7.0726 44.7933 13.3594
2758 1 8.6443 46.365 14.9311
2759 1 7.0726 44.7933 16.5028
2760 1 8.6443 46.365 18.0745
2761 1 7.0726 44.7933 19.6462
2762 1 8.6443 46.365 21.2179
2763 1 7.0726 44.7933 22.7896
2764 1 8.6443 46.365 24.3613
2765 1 7.0726 44.7933 25.933
2766 1 8.6443 46.365 27.5047
2767 1 7.0726 44.7933 29.0764
2768 1 8.6443 46.365 30.6481
2769 1 7.0726 44.7933 32.2197
2770 1 8.6443 46.365 33.7914
2771 1 7.0726 44.7933 35.3631
2772 1 8.6443 46.365 36.9348
2773 1 7.0726 44.7933 38.5065
2774 1 8.6443 46.365 40.0782
2775 1 7.0726 44.7933 41.6499
2776 1 8.6443 46.365 43.2216
2777 1 7.0726 44.7933 44.7933
2778 1 8.6443 46.365 46.365
2779 1 7.0726 44.7933 47.9367
2780 1 8.6443 46.365 49.5084
2781 1 7.0726 47.9367 0.7858
2782 1 8.6443 49.5084 2.3575
2783 1 7.0726 47.9367 3.9292
2784 1 8.6443 49.5084 5.5009
2785 1 7.0726 47.9367 7.0726
2786 1 8.6443 49.5084 8.6443
2787 1 7.0726 47.9367 10.216
2788 1 8.6443 49.5084 11.7877
2789 1 7.0726 47.9367 13.3594
2790 1 8.6443 49.5084 14.9311
2791 1 7.0726 47.9367 16.5028
2792 1 8.6443 49.5084 18.0745
2793 1 7.0726 47.9367 19.6462
2794 1 8.6443 49.5084 21.2179
2795 1 7.0726 47.9367 22.7896
2796 1 8.6443 49.5084 24.3613
2797 1 7.0726 47.9367 25.933
2798 1 8.6443 49.5084 27.5047
2799 1 7.0726 47.9367 29.0764
2800 1 8.6443 49.5084 30.6481
2801 1 7.0726 47.9367 32.2197
2802 1 8.6443 49.5084 33.7914
2803 1 7.0726 47.9367 35.3631
2804 1 8.6443 49.5084 36.9348
2805 1 7.0726 47.9367 38.5065
2806 1 8.6443 49.5084 40.0782
2807 1 7.0726 47.9367 41.6499
2808 1 8.6443 49.5084 43.2216
2809 1 7.0726 47.9367 44.7933
2810 1 8.6443 49.5084 46.365
2811 1 7.0726 47.9367 47.9367
2812 1 8.6443 49.5084 49.5084
2813 1 10.216 0.7858 0.7858
2814 1 11.7877 2.3575 2.3575
2815 1 10.216 0.7858 3.9292
2816 1 11.7877 2.3575 5.5009
2817 1 10.216 0.7858 7.0726
2818 1 11.7877 2.3575 8.6443
2819 1 10.216 0.7858 10.216
2820 1 11.7877 2.3575 11.7877
2821 1 10.216 0.7858 13.3594
2822 1 11.7877 2.3575 14.9311
2823 1 10.216 0.7858 16.5028
2824 1 11.7877 2.3575 18.0745
2825 1 10.216 0.7858 19.6462
2826 1 11.7877 2.3575 21.2179
2827 1 10.216 0.7858 22.7896
2828 1 11.7877 2.3575 24.3613
2829 1 10.216 0.7858 25.933
2830 1 11.7877 2.3575 27.5047
2831 1 10.216 0.7858 29.0764
2832 1 11.7877 2.3575 30.6481
2833 1 10.216 0.7858 32.2197
2834 1 11.7877 2.3575 33.7914
2835 1 10.216 0.7858 35.3631
2836 1 11.7877 2.3575 36.9348
2837 1 10.216 0.7858 38.5065
2838 1 11.7877 2.3575 40.0782
2839 1 10.216 0.7858 41.6499
2840 1 11.7877 2.3575 43.2216
2841 1 10.216 0.7858 44.7933
2842 1 11.7877 2.3575 46.365
2843 1 10.216 0.7858 47.9367
2844 1 11.7877 2.3575 49.5084
2845 1 10.216 3.9292 0.7858
2846 1 11.7877 5.5009 2.3575
2847 1 10.216 3.9292 3.9292
2848 1 11.7877 5.5009 5.5009
2849 1 10.216 3.9292 7.0726
2850 1 11.7877 5.5009 8.6443
2851 1 10.216 3.9292 10.216
2852 1 11.7877 5.5009 11.7877
2853 1 10.216 3.9292 13.3594
2854 1 11.7877 5.5009 14.9311
2855 1 10.216 3.9292 16.5028
2856 1 11.7877 5.5009 18.0745
2857 1 10.216 3.9292 19.6462
2858 1 11.7877 5.5009 21.2179
2859 1 10.216 3.9292 22.7896
2860 1 11.7877 5.5009 24.3613
2861 1 10.216 3.9292 25.933
2862 1 11.7877 5.5009 27.5047
2863 1 10.216 3.9292 29.0764
2864 1 11.7877 5.5009 30.6481
2865 1 10.216 3.9292 32.2197
2866 1 11.7877 5.5009 33.7914
2867 1 10.216 3.9292 35.3631
2868 1 11.7877 5.5009 36.9348
2869 1 10.216 3.9292 38.5065
2870 1 11.7877 5.5009 40.0782
2871 1 10.216 3.9292 41.6499
2872 1 11.7877 5.5009 43.2216
2873 1 10.216 3.9292 44.7933
2874 1 11.7877 5.5009 46.365
2875 1 10.216 3.9292 47.9367
2876 1 11.7877 5.5009 49.5084
2877 1 10.216 7.0726 0.7858
2878 1 11.7877 8.6443 2.3575
2879 1 10.216 7.0726 3.9292
2880 1 11.7877 8.6443 5.5009
2881 1 10.216 7.0726 7.0726
2882 1 11.7877 8.6443 8.6443
2883 1 10.216 7.0726 10.216
2884 1 11.7877 8.6443 11.7877
2885 1 10.216 7.0726 13.3594
2886 1 11.7877 8.6443 14.9311
2887 1 10.216 7.0726 16.5028
2888 1 11.7877 8.6443 18.0745
2889 1 10.216 7.0726 19.6462
2890 1 11.7877 8.6443 21.2179
2891 1 10.216 7.0726 22.7896
2892 1 11.7877 8.6443 24.3613
2893 1 10.216 7.0726 25.933
2894 1 11.7877 8.6443 27.5047
2895 1 10.216 7.0726 29.0764
2896 1 11.7877 8.6443 30.6481
2897 1 10.216 7.0726 32.2197
2898 1 11.7877 8.6443 33.7914
2899 1 10.216 7.0726 35.3631
2900 1 11.7877 8.6443 36.9348
2901 1 10.216 7.0726 38.5065
2902 1 11.7877 8.6443 40.0782
2903 1 10.216 7.0726 41.6499
2904 1 11.7877 8.6443 43.2216
2905 1 10.216 7.0726 44.7933
2906 1 11.7877 8.6443 46.365
2907 1 10.216 7.0726 47.9367
2908 1 11.7877 8.6443 49.5084
2909 1 10.216 10.216 0.7858
2910 1 11.7877 11.7877 2.3575
2911 1 10.216 10.216 3.9292
2912 1 11.7877 11.7877 5.5009
2913 1 10.216 10.216 7.0726
2914 1 11.7877 11.7877 8.6443
2915 1 10.216 10.216 10.216
2916 1 11.7877 11.7877 11.7877
2917 1 10.216 10.216 13.3594
2918 1 11.7877 11.7877 14.9311
2919 1 10.216 10.216 16.5028
2920 1 11.7877 11.7877 18.0745
2921 1 10.216 10.216 19.6462
2922 1 11.7877 11.7877 21.2179
2923 1 10.216 10.216 22.7896
2924 1 11.7877 11.7877 24.3613
2925 1 10.216 10.216 25.933
2926 1 11.7877 11.7877 27.5047
2927 1 10.216 10.216 29.0764
2928 1 11.7877 11.7877 30.6481
2929 1 10.216 10.216 32.2197
2930 1 11.7877 11.7877 33.7914
2931 1 10.216 10.216 35.3631
2932 1 11.7877 11.7877 36.9348
2933 1 10.216 10.216 38.5065
2934 1 11.7877 11.7877 40.0782
2935 1 10.216 10.216 41.6499
2936 1 11.7877 11.7877 43.2216
2937 1 10.216 10.216 44.7933
2938 1 11.7877 11.7877 46.365
2939 1 10.216 10.216 47.9367
2940 1 11.7877 11.7877 49.5084
2941 1 10.216 13.3594 0.7858
2942 1 11.7877 14.9311 2.3575
2943 1 10.216 13.3594 3.9292
2944 1 11.7877 14.9311 5.5009
2945 1 10.216 13.3594 7.0726
2946 1 11.7877 14.9311 8.6443
2947 1 10.216 13.3594 10.216
2948 1 11.7877 14.9311 11.7877
2949 1 10.216 13.3594 13.3594
2950 1 11.7877 14.9311 14.9311
2951 1 10.216 13.3594 16.5028
2952 1 11.7877 14.9311 18.0745
2953 1 10.216 13.3594 19.6462
2954 1 11.7877 14.9311 21.2179
2955 1 10.216 13.3594 22.7896
2956 1 11.7877 14.9311 24.3613
2957 1 10.216 13.3594 25.933
2958 1 11.7877 14.9311 27.5047
2959 1 10.216 13.3594 29.0764
2960 1 11.7877 14.9311 30.6481
2961 1 10.216 13.3594 32.2197
2962 1 11.7877 14.9311 33.7914
2963 1 10.216 13.3594 35.3631
2964 1 11.7877 14.9311 36.9348
2965 1 10.216 13.3594 38.5065
2966 1 11.7877 14.9311 40.0782
2967 1 10.216 13.3594 41.6499
2968 1 11.7877 14.9311 43.2216
2969 1 10.216 13.3594 44.7933
2970 1 11.7877 14.9311 46.365
2971 1 10.216 13.3594 47.9367
2972 1 11.7877 14.9311 49.5084
2973 1 10.216 16.5028 0.7858
2974 1 11.7877 18.0745 2.3575
2975 1 10.216 16.5028 3.9292
2976 1 11.7877 18.0745 5.5009
2977 1 10.216 16.5028 7.0726
2978 1 11.7877 18.0745 8.6443
2979 1 10.216 16.5028 10.216
2980 1 11.7877 18.0745 11.7877
2981 1 10.216 16.5028 13.3594
2982 1 11.7877 18.0745 14.9311
2983 1 10.216 16.5028 16.5028
2984 1 11.7877 18.0745 18.0745
2985 1 10.216 16.5028 19.6462
2986 1 11.7877 18.0745 21.2179
2987 1 10.216 16.5028 22.7896
2988 1 11.7877 18.0745 24.3613
2989 1 10.216 16.5028 25.933
2990 1 11.7877 18.0745 27.5047
2991 1 10.216 16.5028 29.0764
2992 1 11.7877 18.0745 30.6481
2993 1 10.216 16.5028 32.2197
2994 1 11.7877 18.0745 33.7914
2995 1 10.216 16.5028 35.3631
2996 1 11.7877 18.0745 36.9348
2997 1 10.216 16.5028 38.5065
2998 1 11.7877 18.0745 40.0782
2999 1 10.216 16.5028 41.6499
3000 1 11.7877 18.0745 43.2216
3001 1 10.216 16.5028 44.7933
3002 1 11.7877 18.0745 46.365
3003 1 10.216 16.5028 47.9367
3004 1 11.7877 18.0745 49.5084
3005 1 10.216 19.6462 0.7858
3006 1 11.7877 21.2179 2.3575
3007 1 10.216 19.6462 3.9292
3008 1 11.7877 21.2179 5.5009
3009 1 10.216 19.6462 7.0726
3010 1 11.7877 21.2179 8.6443
3011 1 10.216 19.6462 10.216
3012 1 11.7877 21.2179 11.7877
3013 1 10.216 19.6462 13.3594
3014 1 11.7877 21.2179 14.9311
3015 1 10.216 19.6462 16.5028
3016 1 11.7877 21.2179 18.0745
3017 1 10.216 19.6462 19.6462
3018 1 11.7877 21.2179 21.2179
3019 1 10.216 19.6462 22.7896
3020 1 11.7877 21.2179 24.3613
3021 1 10.216 19.6462 25.933
3022 1 11.7877 21.2179 27.5047
3023 1 10.216 19.6462 29.0764
3024 1 11.7877 21.2179 30.6481
3025 1 10.216 19.6462 32.2197
3026 1 11.7877 21.2179 33.7914
3027 1 10.216 19.6462 35.3631
3028 1 11.7877 21.2179 36.9348
3029 1 10.216 19.6462 38.5065
3030 1 11.7877 21.2179 40.0782
3031 1 10.216 19.6462 41.6499
3032 1 11.7877 21.2179 43.2216
3033 1 10.216 19.6462 44.7933
3034 1 11.7877 21.2179 46.365
3035 1 10.216 19.6462 47.9367
3036 1 11.7877 21.2179 49.5084
3037 1 10.216 22.7896 0.7858
3038 1 11.7877 24.3613 2.3575
3039 1 10.216 22.7896 3.9292
3040 1 11.7877 24.3613 5.5009
3041 1 10.216 22.7896 7.0726
3042 1 11.7877 24.3613 8.6443
3043 1 10.216 22.7896 10.216
3044 1 11.7877 24.3613 11.7877
3045 1 10.216 22.7896 13.3594
3046 1 11.7877 24.3613 14.9311
3047 1 10.216 22.7896 16.5028
3048 1 11.7877 24.3613 18.0745
3049 1 10.216 22.7896 19.6462
3050 1 11.7877 24.3613 21.2179
3051 1 10.216 22.7896 22.7896
3052 1 11.7877 24.3613 24.3613
3053 1 10.216 22.7896 25.933
3054 1 11.7877 24.3613 27.5047
3055 1 10.216 22.7896 29.0764
3056 1 11.7877 24.3613 30.6481
3057 1 10.216 22.7896 32.2197
3058 1 11.7877 24.3613 33.7914
3059 1 10.216 22.7896 35.3631
3060 1 11.7877 24.3613 36.9348
3061 1 10.216 22.7896 38.5065
3062 1 11.7877 24.3613 40.0782
3063 1 10.216 22.7896 41.6499
3064 1 11.7877 24.3613 43.2216
3065 1 10.216 22.7896 44.7933
3066 1 11.7877 24.3613 46.365
3067 1 10.216 22.7896 47.9367
3068 1 11.7877 24.3613 49.5084
3069 1 10.216 25.933 0.7858
3070 1 11.7877 27.5047 2.3575
3071 1 10.216 25.933 3.9292
3072 1 11.7877 27.5047 5.5009
3073 1 10.216 25.933 7.0726
3074 1 11.7877 27.5047 8.6443
3075 1 10.216 25.933 10.216
3076 1 11.7877 27.5047 11.7877
3077 1 10.216 25.933 13.3594
3078 1 11.7877 27.5047 14.9311
3079 1 10.216 25.933 16.5028
3080 1 11.7877 27.5047 18.0745
3081 1 10.216 25.933 19.6462
3082 1 11.7877 27.5047 21.2179
3083 1 10.216 25.933 22.7896
3084 1 11.7877 27.5047 24.3613
3085 1 10.216 25.933 25.933
3086 1 11.7877 27.5047 27.5047
3087 1 10.216 25.933 29.0764
3088 1 11.7877 27.5047 30.6481
3089 1 10.216 25.933 32.2197
3090 1 11.7877 27.5047 33.7914
3091 1 10.216 25.933 35.3631
3092 1 11.7877 27.5047 36.9348
3093 1 10.216 25.933 38.5065
3094 1 11.7877 27.5047 40.0782
3095 1 10.216 25.933 41.6499
3096 1 11.7877 27.5047 43.2216
3097 1 10.216 25.933 44.7933
3098 1 11.7877 27.5047 46.365
3099 1 10.216 25.933 47.9367
3100 1 11.7877 27.5047 49.5084
3101 1 10.216 29.0764 0.7858
3102 1 11.7877 30.6481 2.3575
3103 1 10.216 29.0764 3.9292
3104 1 11.7877 30.6481 5.5009
3105 1 10.216 29.0764 7.0726
3106 1 11.7877 30.6481 8.6443
3107 1 10.216 29.0764 10.216
3108 1 11.7877 30.6481 11.7877
3109 1 10.216 29.0764 13.3594
3110 1 11.7877 30.6481 14.9311
3111 1 10.216 29.0764 16.5028
3112 1 11.7877 30.6481 18.0745
3113 1 10.216 29.0764 19.6462
3114 1 11.7877 30.6481 21.2179
3115 1 10.216 29.0764 22.7896
3116 1 11.7877 30.6481 24.3613
3117 1 10.216 29.0764 25.933
3118 1 11.7877 30.6481 27.5047
3119 1 10.216 29.0764 29.0764
3120 1 11.7877 30.6481 30.6481
3121 1 10.216 29.0764 32.2197
3122 1 11.7877 30.6481 33.7914
3123 1 10.216 29.0764 35.3631
3124 1 11.7877 30.6481 36.9348
3125 1 10.216 29.0764 38.5065
3126 1 11.7877 30.6481 40.0782
3127 1 10.216 29.0764 41.6499
3128 1 11.7877 30.6481 43.2216
3129 1 10.216 29.0764 44.7933
3130 1 11.7877 30.6481 46.365
3131 1 10.216 29.0764 47.9367
3132 1 11.7877 30.6481 49.5084
3133 1 10.216 32.2197 0.7858
3134 1 11.7877 33.7914 2.3575
3135 1 10.216 32.2197 3.9292
3136 1 11.7877 33.7914 5.5009
3137 1 10.216 32.2197 7.0726
3138 1 11.7877 33.7914 8.6443
3139 1 10.216 32.2197 10.216
3140 1 11.7877 33.7914 11.7877
3141 1 10.216 32.2197 13.3594
3142 1 11.7877 33.7914 14.9311
3143 1 10.216 32.2197 16.5028
3144 1 11.7877 33.7914 18.0745
3145 1 10.216 32.2197 19.6462
3146 1 11.7877 33.7914 21.2179
3147 1 10.216 32.2197 22.7896
3148 1 11.7877 33.7914 24.3613
3149 1 10.216 32.2197 25.933
3150 1 11.7877 33.7914 27.5047
3151 1 10.216 32.2197 29.0764
3152 1 11.7877 33.7914 30.6481
3153 1 10.216 32.2197 32.2197
3154 1 11.7877 33.7914 33.7914
3155 1 10.216 32.2197 35.3631
3156 1 11.7877 33.7914 36.9348
3157 1 10.216 32.2197 38.5065
3158 1 11.7877 33.7914 40.0782
3159 1 10.216 32.2197 41.6499
3160 1 11.7877 33.7914 43.2216
3161 1 10.216 32.2197 44.7933
3162 1 11.7877 33.7914 46.365
3163 1 10.216 32.2197 47.9367
3164 1 11.7877 33.7914 49.5084
3165 1 10.216 35.3631 0.7858
3166 1 11.7877 36.9348 2.3575
3167 1 10.216 35.3631 3.9292
3168 1 11.7877 36.9348 5.5009
3169 1 10.216 35.3631 7.0726
3170 1 11.7877 36.9348 8.6443
3171 1 10.216 35.3631 10.216
3172 1 11.7877 36.9348 11.7877
3173 1 10.216 35.3631 13.3594
3174 1 11.7877 36.9348 14.9311
3175 1 10.216 35.3631 16.5028
3176 1 11.7877 36.9348 18.0745
3177 1 10.216 35.3631 19.6462
3178 1 11.7877 36.9348 21.2179
3179 1 10.216 35.3631 22.7896
3180 1 11.7877 36.9348 24.3613
3181 1 10.216 35.3631 25.933
3182 1 11.7877 36.9348 27.5047
3183 1 10.216 35.3631 29.0764
3184 1 11.7877 36.9348 30.6481
3185 1 10.216 35.3631 32.2197
3186 1 11.7877 36.9348 33.7914
3187 1 10.216 35.3631 35.3631
3188 1 11.7877 36.9348 36.9348
3189 1 10.216 35.3631 38.5065
3190 1 11.7877 36.9348 40.0782
3191 1 10.216 35.3631 41.6499
3192 1 11.7877 36.9348 43.2216
3193 1 10.216 35.3631 44.7933
3194 1 11.7877 36.9348 46.365
3195 1 10.216 35.3631 47.9367
3196 1 11.7877 36.9348 49.5084
3197 1 10.216 38.5065 0.7858
3198 1 11.7877 40.0782 2.3575
3199 1 10.216 38.5065 3.9292
3200 1 11.7877 40.0782 5.5009
3201 1 10.216 38.5065 7.0726
3202 1 11.7877 40.0782 8.6443
3203 1 10.216 38.5065 10.216
3204 1 11.7877 40.0782 11.7877
3205 1 10.216 38.5065 13.3594
3206 1 11.7877 40.0782 14.9311
3207 1 10.216 38.5065 16.5028
3208 1 11.7877 40.0782 18.0745
3209 1 10.216 38.5065 19.6462
3210 1 11.7877 40.0782 21.2179
3211 1 10.216 38.5065 22.7896
3212 1 11.7877 40.0782 24.3613
3213 1 10.216 38.5065 25.933
3214 1 11.7877 40.0782 27.5047
3215 1 10.216 38.5065 29.0764
3216 1 11.7877 40.0782 30.6481
3217 1 10.216 38.5065 32.2197
3218 1 11.7877 40.0782 33.7914
3219 1 10.216 38.5065 35.3631
3220 1 11.7877 40.0782 36.9348
3221 1 10.216 38.5065 38.5065
3222 1 11.7877 40.0782 40.0782
3223 1 10.216 38.5065 41.6499
3224 1 11.7877 40.0782 43.2216
3225 1 10.216 38.5065 44.7933
3226 1 11.7877 40.0782 46.365
3227 1 10.216 38.5065 47.9367
3228 1 11.7877 40.0782 49.5084
3229 1 10.216 41.6499 0.7858
3230 1 11.7877 43.2216 2.3575
3231 1 10.216 41.6499 3.9292
3232 1 11.7877 43.2216 5.5009
3233 1 10.216 41.6499 7.0726
3234 1 11.7877 43.2216 8.6443
3235 1 10.216 41.6499 10.216
3236 1 11.7877 43.2216 11.7877
3237 1 10.216 41.6499 13.3594
3238 1 11.7877 43.2216 14.9311
3239 1 10.216 41.6499 16.5028
3240 1 11.7877 43.2216 18.0745
3241 1 10.216 41.6499 19.6462
3242 1 11.7877 43.2216 21.2179
3243 1 10.216 41.6499 22.7896
3244 1 11.7877 43.2216 24.3613
3245 1 10.216 41.6499 25.933
3246 1 11.7877 43.2216 27.5047
3247 1 10.216 41.6499 29.0764
3248 1 11.7877 43.2216 30.6481
3249 1 10.216 41.6499 32.2197
3250 1 11.7877 43.2216 33.7914
3251 1 10.216 41.6499 35.3631
3252 1 11.7877 43.2216 36.9348
3253 1 10.216 41.6499 38.5065
3254 1 11.7877 43.2216 40.0782
3255 1 10.216 41.6499 41.6499
3256 1 11.7877 43.2216 43.2216
3257 1 10.216 41.6499 44.7933
3258 1 11.7877 43.2216 46.365
3259 1 10.216 41.6499 47.9367
3260 1 11.7877 43.2216 49.5084
3261 1 10.216 44.7933 0.7858
3262 1 11.7877 46.365 2.3575
3263 1 10.216 44.7933 3.9292
3264 1 11.7877 46.365 5.5009
3265 1 10.216 44.7933 7.0726
3266 1 11.7877 46.365 8.6443
3267 1 10.216 44.7933 10.216
3268 1 11.7877 46.365 11.7877
3269 1 10.216 44.7933 13.3594
3270 1 11.7877 46.365 14.9311
3271 1 10.216 44.7933 16.5028
3272 1 11.7877 46.365 18.0745
3273 1 10.216 44.7933 19.6462
3274 1 11.7877 46.365 21.2179
3275 1 10.216 44.7933 22.7896
3276 1 11.7877 46.365 24.3613
3277 1 10.216 44.7933 25.933
3278 1 11.7877 46.365 27.5047
3279 1 10.216 44.7933 29.0764
3280 1 11.7877 46.365 30.6481
3281 1 10.216 44.7933 32.2197
3282 1 11.7877 46.365 33.7914
3283 1 10.216 44.7933 35.3631
3284 1 11.7877 46.365 36.9348
3285 1 10.216 44.7933 38.5065
3286 1 11.7877 46.365 40.0782
3287 1 10.216 44.7933 41.6499
3288 1 11.7877 46.365 43.2216
3289 1 10.216 44.7933 44.7933
3290 1 11.7877 46.365 46.365
3291 1 10.216 44.7933 47.9367
3292 1 11.7877 46.365 49.5084
3293 1 10.216 47.9367 0.7858
3294 1 11.7877 49.5084 2.3575
3295 1 10.216 47.9367 3.9292
3296 1 11.7877 49.5084 5.5009
3297 1 10.216 47.9367 7.0726
3298 1 11.7877 49.5084 8.6443
3299 1 10.216 47.9367 10.216
3300 1 11.7877 49.5084 11.7877
3301 1 10.216 47.9367 13.3594
3302 1 11.7877 49.5084 14.9311
3303 1 10.216 47.9367 16.5028
3304 1 11.7877 49.5084 18.0745
3305 1 10.216 47.9367 19.6462
3306 1 11.7877 49.5084 21.2179
3307 1 10.216 47.9367 22.7896
3308 1 11.7877 49.5084 24.3613
3309 1 10.216 47.9367 25.933
3310 1 11.7877 49.5084 27.5047
3311 1 10.216 47.9367 29.0764
3312 1 11.7877 49.5084 30.6481
3313 1 10.216 47.9367 32.2197
3314 1 11.7877 49.5084 33.7914
3315 1 10.216 47.9367 35.3631
3316 1 11.7877 49.5084 36.9348
3317 1 10.216 47.9367 38.5065
3318 1 11.7877 49.5084 40.0782
3319 1 10.216 47.9367 41.6499
3320 1 11.7877 49.5084 43.2216
3321 1 10.216 47.9367 44.7933
3322 1 11.7877 49.5084 46.365
3323 1 10.216 47.9367 47.9367
3324 1 11.7877 49.5084 49.5084
3325 1 35.3631 0.7858 0.7858
3326 1 36.9348 2.3575 2.3575
3327 1 35.3631 0.7858 3.9292
3328 1 36.9348 2.3575 5.5009
3329 1 35.3631 0.7858 7.0726
3330 1 36.9348 2.3575 8.6443
3331 1 35.3631 0.7858 10.216
3332 1 36.9348 2.3575 11.7877
3333 1 35.3631 0.7858 13.3594
3334 1 36.9348 2.3575 14.9311
3335 1 35.3631 0.7858 16.5028
3336 1 36.9348 2.3575 18.0745
3337 1 35.3631 0.7858 19.6462
3338 1 36.9348 2.3575 21.2179
3339 1 35.3631 0.7858 22.7896
3340 1 36.9348 2.3575 24.3613
3341 1 35.3631 0.7858 25.933
3342 1 36.9348 2.3575 27.5047
3343 1 35.3631 0.7858 29.0764
3344 1 36.9348 2.3575 30.6481
3345 1 35.3631 0.7858 32.2197
3346 1 36.9348 2.3575 33.7914
3347 1 35.3631 0.7858 35.3631
3348 1 36.9348 2.3575 36.9348
3349 1 35.3631 0.7858 38.5065
3350 1 36.9348 2.3575 40.0782
3351 1 35.3631 0.7858 41.6499
3352 1 36.9348 2.3575 43.2216
3353 1 35.3631 0.7858 44.7933
3354 1 36.9348 2.3575 46.365
3355 1 35.3631 0.7858 47.9367
3356 1 36.9348 2.3575 49.5084
3357 1 35.3631 3.9292 0.7858
3358 1 36.9348 5.5009 2.3575
3359 1 35.3631 3.9292 3.9292
3360 1 36.9348 5.5009 5.5009
3361 1 35.3631 3.9292 7.0726
3362 1 36.9348 5.5009 8.6443
3363 1 35.3631 3.9292 10.216
3364 1 36.9348 5.5009 11.7877
3365 1 35.3631 3.9292 13.3594
3366 1 36.9348 5.5009 14.9311
3367 1 35.3631 3.9292 16.5028
3368 1 36.9348 5.5009 18.0745
3369 1 35.3631 3.9292 19.6462
3370 1 36.9348 5.5009 21.2179
3371 1 35.3631 3.9292 22.7896
3372 1 36.9348 5.5009 24.3613
3373 1 35.3631 3.9292 25.933
3374 1 36.9348 5.5009 27.5047
3375 1 35.3631 3.9292 29.0764
3376 1 36.9348 5.5009 30.6481
3377 1 35.3631 3.9292 32.2197
3378 1 36.9348 5.5009 33.7914
3379 1 35.3631 3.9292 35.3631
3380 1 36.9348 5.5009 36.9348
3381 1 35.3631 3.9292 38.5065
3382 1 36.9348 5.5009 40.0782
3383 1 35.3631 3.9292 41.6499
3384 1 36.9348 5.5009 43.2216
3385 1 35.3631 3.9292 44.7933
3386 1 36.9348 5.5009 46.365
3387 1 35.3631 3.9292 47.9367
3388 1 36.9348 5.5009 49.5084
3389 1 35.3631 7.0726 0.7858
3390 1 36.9348 8.6443 2.3575
3391 1 35.3631 7.0726 3.9292
3392 1 36.9348 8.6443 5.5009
3393 1 35.3631 7.0726 7.0726
3394 1 36.9348 8.6443 8.6443
3395 1 35.3631 7.0726 10.216
3396 1 36.9348 8.6443 11.7877
3397 1 35.3631 7.0726 13.3594
3398 1 36.9348 8.6443 14.9311
3399 1 35.3631 7.0726 16.5028
3400 1 36.9348 8.6443 18.0745
3401 1 35.3631 7.0726 19.6462
3402 1 36.9348 8.6443 21.2179
3403 1 35.3631 7.0726 22.7896
3404 1 36.9348 8.6443 24.3613
3405 1 35.3631 7.0726 25.933
3406 1 36.9348 8.6443 27.5047
3407 1 35.3631 7.0726 29.0764
3408 1 36.9348 8.6443 30.6481
3409 1 35.3631 7.0726 32.2197
3410 1 36.9348 8.6443 33.7914
3411 1 35.3631 7.0726 35.3631
3412 1 36.9348 8.6443 36.9348
3413 1 35.3631 7.0726 38.5065
3414 1 36.9348 8.6443 40.0782
3415 1 35.3631 7.0726 41.6499
3416 1 36.9348 8.6443 43.2216
3417 1 35.3631 7.0726 44.7933
3418 1 36.9348 8.6443 46.365
3419 1 35.3631 7.0726 47.9367
3420 1 36.9348 8.6443 49.5084
3421 1 35.3631 10.216 0.7858
3422 1 36.9348 11.7877 2.3575
3423 1 35.3631 10.216 3.9292
3424 1 36.9348 11.7877 5.5009
3425 1 35.3631 10.216 7.0726
3426 1 36.9348 11.7877 8.6443
3427 1 35.3631 10.216 10.216
3428 1 36.9348 11.7877 11.7877
3429 1 35.3631 10.216 13.3594
3430 1 36.9348 11.7877 14.9311
3431 1 35.3631 10.216 16.5028
3432 1 36.9348 11.7877 18.0745
3433 1 35.3631 10.216 19.6462
3434 1 36.9348 11.7877 21.2179
3435 1 35.3631 10.216 22.7896
3436 1 36.9348 11.7877 24.3613
3437 1 35.3631 10.216 25.933
3438 1 36.9348 11.7877 27.5047
3439 1 35.3631 10.216 29.0764
3440 1 36.9348 11.7877 30.6481
3441 1 35.3631 10.216 32.2197
3442 1 36.9348 11.7877 33.7914
3443 1 35.3631 10.216 35.3631
3444 1 36.9348 11.7877 36.9348
3445 1 35.3631 10.216 38.5065
3446 1 36.9348 11.7877 40.0782
3447 1 35.3631 10.216 41.6499
3448 1 36.9348 11.7877 43.2216
3449 1 35.3631 10.216 44.7933
3450 1 36.9348 11.7877 46.365
3451 1 35.3631 10.216 47.9367
3452 1 36.9348 11.7877 49.5084
3453 1 35.3631 13.3594 0.7858
3454 1 36.9348 14.9311 2.3575
3455 1 35.3631 13.3594 3.9292
3456 1 36.9348 14.9311 5.5009
3457 1 35.3631 13.3594 7.0726
3458 1 36.9348 14.9311 8.6443
3459 1 35.3631 13.3594 10.216
3460 1 36.9348 14.9311 11.7877
3461 1 35.3631 13.3594 13.3594
3462 1 36.9348 14.9311 14.9311
3463 1 35.3631 13.3594 16.5028
3464 1 36.9348 14.9311 18.0745
3465 1 35.3631 13.3594 19.6462
3466 1 36.9348 14.9311 21.2179
3467 1 35.3631 13.3594 22.7896
3468 1 36.9348 14.9311 24.3613
3469 1 35.3631 13.3594 25.933
3470 1 36.9348 14.9311 27.5047
3471 1 35.3631 13.3594 29.0764
3472 1 36.9348 14.9311 30.6481
3473 1 35.3631 13.3594 32.2197
3474 1 36.9348 14.9311 33.7914
3475 1 35.3631 13.3594 35.3631
3476 1 36.9348 14.9311 36.9348
3477 1 35.3631 13.3594 38.5065
3478 1 36.9348 14.9311 40.0782
3479 1 35.3631 13.3594 41.6499
3480 1 36.9348 14.9311 43.2216
3481 1 35.3631 13.3594 44.7933
3482 1 36.9348 14.9311 46.365
3483 1 35.3631 13.3594 47.9367
3484 1 36.9348 14.9311 49.5084
3485 1 35.3631 16.5028 0.7858
3486 1 36.9348 18.0745 2.3575
3487 1 35.3631 16.5028 3.9292
3488 1 36.9348 18.0745 5.5009
3489 1 35.3631 16.5028 7.0726
3490 1 36.9348 18.0745 8.6443
3491 1 35.3631 16.5028 10.216
3492 1 36.9348 18.0745 11.7877
3493 1 35.3631 16.5028 13.3594
3494 1 36.9348 18.0745 14.9311
3495 1 35.3631 16.5028 16.5028
3496 1 36.9348 18.0745 18.0745
3497 1 35.3631 16.5028 19.6462
3498 1 36.9348 18.0745 21.2179
3499 1 35.3631 16.5028 22.7896
3500 1 36.9348 18.0745 24.3613
3501 1 35.3631 16.5028 25.933
3502 1 36.9348 18.0745 27.5047
3503 1 35.3631 16.5028 29.0764
3504 1 36.9348 18.0745 30.6481
3505 1 35.3631 16.5028 32.2197
3506 1 36.9348 18.0745 33.7914
3507 1 35.3631 16.5028 35.3631
3508 1 36.9348 18.0745 36.9348
3509 1 35.3631 16.5028 38.5065
3510 1 36.9348 18.0745 40.0782
3511 1 35.3631 16.5028 41.6499
3512 1 36.9348 18.0745 43.2216
3513 1 35.3631 16.5028 44.7933
3514 1 36.9348 18.0745 46.365
3515 1 35.3631 16.5028 47.9367
3516 1 36.9348 18.0745 49.5084
3517 1 35.3631 19.6462 0.7858
3518 1 36.9348 21.2179 2.3575
3519 1 35.3631 19.6462 3.9292
3520 1 36.9348 21.2179 5.5009
3521 1 35.3631 19.6462 7.0726
3522 1 36.9348 21.2179 8.6443
3523 1 35.3631 19.6462 10.216
3524 1 36.9348 21.2179 11.7877
3525 1 35.3631 19.6462 13.3594
3526 1 36.9348 21.2179 14.9311
3527 1 35.3631 19.6462 16.5028
3528 1 36.9348 21.2179 18.0745
3529 1 35.3631 19.6462 19.6462
3530 1 36.9348 21.2179 21.2179
3531 1 35.3631 19.6462 22.7896
3532 1 36.9348 21.2179 24.3613
3533 1 35.3631 19.6462 25.933
3534 1 36.9348 21.2179 27.5047
3535 1 35.3631 19.6462 29.0764
3536 1 36.9348 21.2179 30.6481
3537 1 35.3631 19.6462 32.2197
3538 1 36.9348 21.2179 33.7914
3539 1 35.3631 19.6462 35.3631
3540 1 36.9348 21.2179 36.9348
3541 1 35.3631 19.6462 38.5065
3542 1 36.9348 21.2179 40.0782
3543 1 35.3631 19.6462 41.6499
3544 1 36.9348 21.2179 43.2216
3545 1 35.3631 19.6462 44.7933
3546 1 36.9348 21.2179 46.365
3547 1 35.3631 19.6462 47.9367
3548 1 36.9348 21.2179 49.5084
3549 1 35.3631 22.7896 0.7858
3550 1 36.9348 24.3613 2.3575
3551 1 35.3631 22.7896 3.9292
3552 1 36.9348 24.3613 5.5009
3553 1 35.3631 22.7896 7.0726
3554 1 36.9348 24.3613 8.6443
3555 1 35.3631 22.7896 10.216
3556 1 36.9348 24.3613 11.7877
3557 1 35.3631 22.7896 13.3594
3558 1 36.9348 24.3613 14.9311
3559 1 35.3631 22.7896 16.5028
3560 1 36.9348 24.3613 18.0745
3561 1 35.3631 22.7896 19.6462
3562 1 36.9348 24.3613 21.2179
3563 1 35.3631 22.7896 22.7896
3564 1 36.9348 24.3613 24.3613
3565 1 35.3631 22.7896 25.933
3566 1 36.9348 24.3613 27.5047
3567 1 35.3631 22.7896 29.0764
3568 1 36.9348 24.3613 30.6481
3569 1 35.3631 22.7896 32.2197
3570 1 36.9348 24.3613 33.7914
3571 1 35.3631 22.7896 35.3631
3572 1 36.9348 24.3613 36.9348
3573 1 35.3631 22.7896 38.5065
3574 1 36.9348 24.3613 40.0782
3575 1 35.3631 22.7896 41.6499
3576 1 36.9348 24.3613 43.2216
3577 1 35.3631 22.7896 44.7933
3578 1 36.9348 24.3613 46.365
3579 1 35.3631 22.7896 47.9367
3580 1 36.9348 24.3613 49.5084
3581 1 35.3631 25.933 0.7858
3582 1 36.9348 27.5047 2.3575
3583 1 35.3631 25.933 3.9292
3584 1 36.9348 27.5047 5.5009
3585 1 35.3631 25.933 7.0726
3586 1 36.9348 27.5047 8.6443
3587 1 35.3631 25.933 10.216
3588 1 36.9348 27.5047 11.7877
3589 1 35.3631 25.933 13.3594
3590 1 36.9348 27.5047 14.9311
3591 1 35.3631 25.933 16.5028
3592 1 36.9348 27.5047 18.0745
3593 1 35.3631 25.933 19.6462
3594 1 36.9348 27.5047 21.2179
3595 1 35.3631 25.933 22.7896
3596 1 36.9348 27.5047 24.3613
3597 1 35.3631 25.933 25.933
3598 1 36.9348 27.5047 27.5047
3599 1 35.3631 25.933 29.0764
3600 1 36.9348 27.5047 30.6481
3601 1 35.3631 25.933 32.2197
3602 1 36.9348 27.5047 33.7914
3603 1 35.3631 25.933 35.3631
3604 1 36.9348 27.5047 36.9348
3605 1 35.3631 25.933 38.5065
3606 1 36.9348 27.5047 40.0782
3607 1 35.3631 25.933 41.6499
3608 1 36.9348 27.5047 43.2216
3609 1 35.3631 25.933 44.7933
3610 1 36.9348 27.5047 46.365
3611 1 35.3631 25.933 47.9367
3612 1 36.9348 27.5047 49.5084
3613 1 35.3631 29.0764 0.7858
3614 1 36.9348 30.6481 2.3575
3615 1 35.3631 29.0764 3.9292
3616 1 36.9348 30.6481 5.5009
3617 1 35.3631 29.0764 7.0726
3618 1 36.9348 30.6481 8.6443
3619 1 35.3631 29.0764 10.216
3620 1 36.9348 30.6481 11.7877
3621 1 35.3631 29.0764 13.3594
3622 1 36.9348 30.6481 14.9311
3623 1 35.3631 29.0764 16.5028
3624 1 36.9348 30.6481 18.0745
3625 1 35.3631 29.0764 19.6462
3626 1 36.9348 30.6481 21.2179
3627 1 35.3631 29.0764 22.7896
3628 1 36.9348 30.6481 24.3613
3629 1 35.3631 29.0764 25.933
3630 1 36.9348 30.6481 27.5047
3631 1 35.3631 29.0764 29.0764
3632 1 36.9348 30.6481 30.6481
3633 1 35.3631 29.0764 32.2197
3634 1 36.9348 30.6481 33.7914
3635 1 35.3631 29.0764 35.3631
3636 1 36.9348 30.6481 36.9348
3637 1 35.3631 29.0764 38.5065
3638 1 36.9348 30.6481 40.0782
3639 1 35.3631 29.0764 41.6499
3640 1 36.9348 30.6481 43.2216
3641 1 35.3631 29.0764 44.7933
3642 1 36.9348 30.6481 46.365
3643 1 35.3631 29.0764 47.9367
3644 1 36.9348 30.6481 49.5084
3645 1 35.3631 32.2197 0.7858
3646 1 36.9348 33.7914 2.3575
3647 1 35.3631 32.2197 3.9292
3648 1 36.9348 33.7914 5.5009
3649 1 35.3631 32.2197 7.0726
3650 1 36.9348 33.7914 8.6443
3651 1 35.3631 32.2197 10.216
3652 1 36.9348 33.7914 11.7877
3653 1 35.3631 32.2197 13.3594
3654 1 36.9348 33.7914 14.9311
3655 1 35.3631 32.2197 16.5028
3656 1 36.9348 33.7914 18.0745
3657 1 35.3631 32.2197 19.6462
3658 1 36.9348 33.7914 21.2179
3659 1 35.3631 32.2197 22.7896
3660 1 36.9348 33.7914 24.3613
3661 1 35.3631 32.2197 25.933
3662 1 36.9348 33.7914 27.5047
3663 1 35.3631 32.2197 29.0764
3664 1 36.9348 33.7914 30.6481
3665 1 35.3631 32.2197 32.2197
3666 1 36.9348 33.7914 33.7914
3667 1 35.3631 32.2197 35.3631
3668 1 36.9348 33.7914 36.9348
3669 1 35.3631 32.2197 38.5065
3670 1 36.9348 33.7914 40.0782
3671 1 35.3631 32.2197 41.6499
3672 1 36.9348 33.7914 43.2216
3673 1 35.3631 32.2197 44.7933
3674 1 36.9348 33.7914 46.365
3675 1 35.3631 32.2197 47.9367
3676 1 36.9348 33.7914 49.5084
3677 1 35.3631 35.3631 0.7858
3678 1 36.9348 36.9348 2.3575
3679 1 35.3631 35.3631 3.9292
3680 1 36.9348 36.9348 5.5009
3681 1 35.3631 35.3631 7.0726
3682 1 36.9348 36.9348 8.6443
3683 1 35.3631 35.3631 10.216
3684 1 36.9348 36.9348 11.7877
3685 1 35.3631 35.3631 13.3594
3686 1 36.9348 36.9348 14.9311
3687 1 35.3631 35.3631 16.5028
3688 1 36.9348 36.9348 18.0745
3689 1 35.3631 35.3631 19.6462
3690 1 36.9348 36.9348 21.2179
3691 1 35.3631 35.3631 22.7896
3692 1 36.9348 36.9348 24.3613
3693 1 35.3631 35.3631 25.933
3694 1 36.9348 36.9348 27.5047
3695 1 35.3631 35.3631 29.0764
3696 1 36.9348 36.9348 30.6481
3697 1 35.3631 35.3631 32.2197
3698 1 36.9348 36.9348 33.7914
3699 1 35.3631 35.3631 35.3631
3700 1 36.9348 36.9348 36.9348
3701 1 35.3631 35.3631 38.5065
3702 1 36.9348 36.9348 40.0782
3703 1 35.3631 35.3631 41.6499
3704 1 36.9348 36.9348 43.2216
3705 1 35.3631 35.3631 44.7933
3706 1 36.9348 36.9348 46.365
3707 1 35.3631 35.3631 47.9367
3708 1 36.9348 36.9348 49.5084
3709 1 35.3631 38.5065 0.7858
3710 1 36.9348 40.0782 2.3575
3711 1 35.3631 38.5065 3.9292
3712 1 36.9348 40.0782 5.5009
3713 1 35.3631 38.5065 7.0726
3714 1 36.9348 40.0782 8.6443
3715 1 35.3631 38.5065 10.216
3716 1 36.9348 40.0782 11.7877
3717 1 35.3631 38.5065 13.3594
3718 1 36.9348 40.0782 14.9311
3719 1 35.3631 38.5065 16.5028
3720 1 36.9348 40.0782 18.0745
3721 1 35.3631 38.5065 19.6462
3722 1 36.9348 40.0782 21.2179
3723 1 35.3631 38.5065 22.7896
3724 1 36.9348 40.0782 24.3613
3725 1 35.3631 38.5065 25.933
3726 1 36.9348 40.0782 27.5047
3727 1 35.3631 38.5065 29.0764
3728 1 36.9348 40.0782 30.6481
3729 1 35.3631 38.5065 32.2197
3730 1 36.9348 40.0782 33.7914
3731 1 35.3631 38.5065 35.3631
3732 1 36.9348 40.0782 36.9348
3733 1 35.3631 38.5065 38.5065
3734 1 36.9348 40.0782 40.0782
3735 1 35.3631 38.5065 41.6499
3736 1 36.9348 40.0782 43.2216
3737 1 35.3631 38.5065 44.7933
3738 1 36.9348 40.0782 46.365
3739 1 35.3631 38.5065 47.9367
3740 1 36.9348 40.0782 49.5084
3741 1 35.3631 41.6499 0.7858
3742 1 36.9348 43.2216 2.3575
3743 1 35.3631 41.6499 3.9292
3744 1 36.9348 43.2216 5.5009
3745 1 35.3631 41.6499 7.0726
3746 1 36.9348 43.2216 8.6443
3747 1 35.3631 41.6499 10.216
3748 1 36.9348 43.2216 11.7877
3749 1 35.3631 41.6499 13.3594
3750 1 36.9348 43.2216 14.9311
3751 1 35.3631 41.6499 16.5028
3752 1 36.9348 43.2216 18.0745
3753 1 35.3631 41.6499 19.6462
3754 1 36.9348 43.2216 21.2179
3755 1 35.3631 41.6499 22.7896
3756 1 36.9348 43.2216 24.3613
3757 1 35.3631 41.6499 25.933
3758 1 36.9348 43.2216 27.5047
3759 1 35.3631 41.6499 29.0764
3760 1 36.9348 43.2216 30.6481
3761 1 35.3631 41.6499 32.2197
3762 1 36.9348 43.2216 33.7914
3763 1 35.3631 41.6499 35.3631
3764 1 36.9348 43.2216 36.9348
3765 1 35.3631 41.6499 38.5065
3766 1 36.9348 43.2216 40.0782
3767 1 35.3631 41.6499 41.6499
3768 1 36.9348 43.2216 43.2216
3769 1 35.3631 41.6499 44.7933
3770 1 36.9348 43.2216 46.365
3771 1 35.3631 41.6499 47.9367
3772 1 36.9348 43.2216 49.5084
3773 1 35.3631 44.7933 0.7858
3774 1 36.9348 46.365 2.3575
3775 1 35.3631 44.7933 3.9292
3776 1 36.9348 46.365 5.5009
3777 1 35.3631 44.7933 7.0726
3778 1 36.9348 46.365 8.6443
3779 1 35.3631 44.7933 10.216
3780 1 36.9348 46.365 11.7877
3781 1 35.3631 44.7933 13.3594
3782 1 36.9348 46.365 14.9311
3783 1 35.3631 44.7933 16.5028
3784 1 36.9348 46.365 18.0745
3785 1 35.3631 44.7933 19.6462
3786 1 36.9348 46.365 21.2179
3787 1 35.3631 44.7933 22.7896
3788 1 36.9348 46.365 24.3613
3789 1 35.3631 44.7933 25.933
3790 1 36.9348 46.365 27.5047
3791 1 35.3631 44.7933 29.0764
3792 1 36.9348 46.365 30.6481
3793 1 35.3631 44.7933 32.2197
3794 1 36.9348 46.365 33.7914
3795 1 35.3631 44.7933 35.3631
3796 1 36.9348 46.365 36.9348
3797 1 35.3631 44.7933 38.5065
3798 1 36.9348 46.365 40.0782
3799 1 35.3631 44.7933 41.6499
3800 1 36.9348 46.365 43.2216
3801 1 35.3631 44.7933 44.7933
3802 1 36.9348 46.365 46.365
3803 1 35.3631 44.7933 47.9367
3804 1 36.9348 46.365 49.5084
3805 1 35.3631 47.9367 0.7858
3806 1 36.9348 49.5084 2.3575
3807 1 35.3631 47.9367 3.9292
3808 1 36.9348 49.5084 5.5009
3809 1 35.3631 47.9367 7.0726
3810 1 36.9348 49.5084 8.6443
3811 1 35.3631 47.9367 10.216
3812 1 36.9348 49.5084 11.7877
3813 1 35.3631 47.9367 13.3594
3814 1 36.9348 49.5084 14.9311
3815 1 35.3631 47.9367 16.5028
3816 1 36.9348 49.5084 18.0745
3817 1 35.3631 47.9367 19.6462
3818 1 36.9348 49.5084 21.2179
3819 1 35.3631 47.9367 22.7896
3820 1 36.9348 49.5084 24.3613
3821 1 35.3631 47.9367 25.933
3822 1 36.9348 49.5084 27.5047
3823 1 35.3631 47.9367 29.0764
3824 1 36.9348 49.5084 30.6481
3825 1 35.3631 47.9367 32.2197
3826 1 36.9348 49.5084 33.7914
3827 1 35.3631 47.9367 35.3631
3828 1 36.9348 49.5084 36.9348
3829 1 35.3631 47.9367 38.5065
3830 1 36.9348 49.5084 40.0782
3831 1 35.3631 47.9367 41.6499
3832 1 36.9348 49.5084 43.2216
3833 1 35.3631 47.9367 44.7933
3834 1 36.9348 49.5084 46.365
3835 1 35.3631 47.9367 47.9367
3836 1 36.9348 49.5084 49.5084
3837 1 38.5065 0.7858 0.7858
3838 1 40.0782 2.3575 2.3575
3839 1 38.5065 0.7858 3.9292
3840 1 40.0782 2.3575 5.5009
3841 1 38.5065 0.7858 7.0726
3842 1 40.0782 2.3575 8.6443
3843 1 38.5065 0.7858 10.216
3844 1 40.0782 2.3575 11.7877
3845 1 38.5065 0.7858 13.3594
3846 1 40.0782 2.3575 14.9311
3847 1 38.5065 0.7858 16.5028
3848 1 40.0782 2.3575 18.0745
3849 1 38.5065 0.7858 19.6462
3850 1 40.0782 2.3575 21.2179
3851 1 38.5065 0.7858 22.7896
3852 1 40.0782 2.3575 24.3613
3853 1 38.5065 0.7858 25.933
3854 1 40.0782 2.3575 27.5047
3855 1 38.5065 0.7858 29.0764
3856 1 40.0782 2.3575 30.6481
3857 1 38.5065 0.7858 32.2197
3858 1 40.0782 2.3575 33.7914
3859 1 38.5065 0.7858 35.3631
3860 1 40.0782 2.3575 36.9348
3861 1 38.5065 0.7858 38.5065
3862 1 40.0782 2.3575 40.0782
3863 1 38.5065 0.7858 41.6499
3864 1 40.0782 2.3575 43.2216
3865 1 38.5065 0.7858 44.7933
3866 1 40.0782 2.3575 46.365
3867 1 38.5065 0.7858 47.9367
3868 1 40.0782 2.3575 49.5084
3869 1 38.5065 3.9292 0.7858
3870 1 40.0782 5.5009 2.3575
3871 1 38.5065 3.9292 3.9292
3872 1 40.0782 5.5009 5.5009
3873 1 38.5065 3.9292 7.0726
3874 1 40.0782 5.5009 8.6443
3875 1 38.5065 3.9292 10.216
3876 1 40.0782 5.5009 11.7877
3877 1 38.5065 3.9292 13.3594
3878 1 40.0782 5.5009 14.9311
3879 1 38.5065 3.9292 16.5028
3880 1 40.0782 5.5009 18.0745
3881 1 38.5065 3.9292 19.6462
3882 1 40.0782 5.5009 21.2179
3883 1 38.5065 3.9292 22.7896
3884 1 40.0782 5.5009 24.3613
3885 1 38.5065 3.9292 25.933
3886 1 40.0782 5.5009 27.5047
3887 1 38.5065 3.9292 29.0764
3888 1 40.0782 5.5009 30.6481
3889 1 38.5065 3.9292 32.2197
3890 1 40.0782 5.5009 33.7914
3891 1 38.5065 3.9292 35.3631
3892 1 40.0782 5.5009 36.9348
3893 1 38.5065 3.9292 38.5065
3894 1 40.0782 5.5009 40.0782
3895 1 38.5065 3.9292 41.6499
3896 1 40.0782 5.5009 43.2216
3897 1 38.5065 3.9292 44.7933
3898 1 40.0782 5.5009 46.365
3899 1 38.5065 3.9292 47.9367
3900 1 40.0782 5.5009 49.5084
3901 1 38.5065 7.0726 0.7858
3902 1 40.0782 8.6443 2.3575
3903 1 38.5065 7.0726 3.9292
3904 1 40.0782 8.6443 5.5009
3905 1 38.5065 7.0726 7.0726
3906 1 40.0782 8.6443 8.6443
3907 1 38.5065 7.0726 10.216
3908 1 40.0782 8.6443 11.7877
3909 1 38.5065 7.0726 13.3594
3910 1 40.0782 8.6443 14.9311
3911 1 38.5065 7.0726 16.5028
3912 1 40.0782 8.6443 18.0745
3913 1 38.5065 7.0726 19.6462
3914 1 40.0782 8.6443 21.2179
3915 1 38.5065 7.0726 22.7896
3916 1 40.0782 8.6443 24.3613
3917 1 38.5065 7.0726 25.933
3918 1 40.0782 8.6443 27.5047
3919 1 38.5065 7.0726 29.0764
3920 1 40.0782 8.6443 30.6481
3921 1 38.5065 7.0726 32.2197
3922 1 40.0782 8.6443 33.7914
3923 1 38.5065 7.0726 35.3631
3924 1 40.0782 8.6443 36.9348
3925 1 38.5065 7.0726 38.5065
3926 1 40.0782 8.6443 40.0782
3927 1 38.5065 7.0726 41.6499
3928 1 40.0782 8.6443 43.2216
3929 1 38.5065 7.0726 44.7933
3930 1 40.0782 8.6443 46.365
3931 1 38.5065 7.0726 47.9367
3932 1 40.0782 8.6443 49.5084
3933 1 38.5065 10.216 0.7858
3934 1 40.0782 11.7877 2.3575
3935 1 38.5065 10.216 3.9292
3936 1 40.0782 11.7877 5.5009
3937 1 38.5065 10.216 7.0726
3938 1 40.0782 11.7877 8.6443
3939 1 38.5065 10.216 10.216
3940 1 40.0782 11.7877 11.7877
3941 1 38.5065 10.216 13.3594
3942 1 40.0782 11.7877 14.9311
3943 1 38.5065 10.216 16.5028
3944 1 40.0782 11.7877 18.0745
3945 1 38.5065 10.216 19.6462
3946 1 40.0782 11.7877 21.2179
3947 1 38.5065 10.216 22.7896
3948 1 40.0782 11.7877 24.3613
3949 1 38.5065 10.216 25.933
3950 1 40.0782 11.7877 27.5047
3951 1 38.5065 10.216 29.0764
3952 1 40.0782 11.7877 30.6481
3953 1 38.5065 10.216 32.2197
3954 1 40.0782 11.7877 33.7914
3955 1 38.5065 10.216 35.3631
3956 1 40.0782 11.7877 36.9348
3957 1 38.5065 10.216 38.5065
3958 1 40.0782 11.7877 40.0782
3959 1 38.5065 10.216 41.6499
3960 1 40.0782 11.7877 43.2216
3961 1 38.5065 10.216 44.7933
3962 1 40.0782 11.7877 46.365
3963 1 38.5065 10.216 47.9367
3964 1 40.0782 11.7877 49.5084
3965 1 38.5065 13.3594 0.7858
3966 1 40.0782 14.9311 2.3575
3967 1 38.5065 13.3594 3.9292
3968 1 40.0782 14.9311 5.5009
3969 1 38.5065 13.3594 7.0726
3970 1 40.0782 14.9311 8.6443
3971 1 38.5065 13.3594 10.216
3972 1 40.0782 14.9311 11.7877
3973 1 38.5065 13.3594 13.3594
3974 1 40.0782 14.9311 14.9311
3975 1 38.5065 13.3594 16.5028
3976 1 40.0782 14.9311 18.0745
3977 1 38.5065 13.3594 19.6462
3978 1 40.0782 14.9311 21.2179
3979 1 38.5065 13.3594 22.7896
3980 1 40.0782 14.9311 24.3613
3981 1 38.5065 13.3594 25.933
3982 1 40.0782 14.9311 27.5047
3983 1 38.5065 13.3594 29.0764
3984 1 40.0782 14.9311 30.6481
3985 1 38.5065 13.3594 32.2197
3986 1 40.0782 14.9311 33.7914
3987 1 38.5065 13.3594 35.3631
3988 1 40.0782 14.9311 36.9348
3989 1 38.5065 13.3594 38.5065
3990 1 40.0782 14.9311 40.0782
3991 1 38.5065 13.3594 41.6499
3992 1 40.0782 14.9311 43.2216
3993 1 38.5065 13.3594 44.7933
3994 1 40.0782 14.9311 46.365
3995 1 38.5065 13.3594 47.9367
3996 1 40.0782 14.9311 49.5084
3997 1 38.5065 16.5028 0.7858
3998 1 40.0782 18.0745 2.3575
3999 1 38.5065 16.5028 3.9292
4000 1 40.0782 18.0745 5.5009
4001 1 38.5065 16.5028 7.0726
4002 1 40.0782 18.0745 8.6443
4003 1 38.5065 16.5028 10.216
4004 1 40.0782 18.0745 11.7877
4005 1 38.5065 16.5028 13.3594
4006 1 40.0782 18.0745 14.9311
4007 1 38.5065 16.5028 16.5028
4008 1 40.0782 18.0745 18.0745
4009 1 38.5065 16.5028 19.6462
4010 1 40.0782 18.0745 21.2179
4011 1 38.5065 16.5028 22.7896
4012 1 40.0782 18.0745 24.3613
4013 1 38.5065 16.5028 25.933
4014 1 40.0782 18.0745 27.5047
4015 1 38.5065 16.5028 29.0764
4016 1 40.0782 18.0745 30.6481
4017 1 38.5065 16.5028 32.2197
4018 1 40.0782 18.0745 33.7914
4019 1 38.5065 16.5028 35.3631
4020 1 40.0782 18.0745 36.9348
4021 1 38.5065 16.5028 38.5065
4022 1 40.0782 18.0745 40.0782
4023 1 38.5065 16.5028 41.6499
4024 1 40.0782 18.0745 43.2216
4025 1 38.5065 16.5028 44.7933
4026 1 40.0782 18.0745 46.365
4027 1 38.5065 16.5028 47.9367
4028 1 40.0782 18.0745 49.5084
4029 1 38.5065 19.6462 0.7858
4030 1 40.0782 21.2179 2.3575
4031 1 38.5065 19.6462 3.9292
4032 1 40.0782 21.2179 5.5009
4033 1 38.5065 19.6462 7.0726
4034 1 40.0782 21.2179 8.6443
4035 1 38.5065 19.6462 10.216
4036 1 40.0782 21.2179 11.7877
4037 1 38.5065 19.6462 13.3594
4038 1 40.0782 21.2179 14.9311
4039 1 38.5065 19.6462 16.5028
4040 1 40.0782 21.2179 18.0745
4041 1 38.5065 19.6462 19.6462
4042 1 40.0782 21.2179 21.2179
4043 1 38.5065 19.6462 22.7896
4044 1 40.0782 21.2179 24.3613
4045 1 38.5065 19.6462 25.933
4046 1 40.0782 21.2179 27.5047
4047 1 38.5065 19.6462 29.0764
4048 1 40.0782 21.2179 30.6481
4049 1 38.5065 19.6462 32.2197
4050 1 40.0782 21.2179 33.7914
4051 1 38.5065 19.6462 35.3631
4052 1 40.0782 21.2179 36.9348
4053 1 38.5065 19.6462 38.5065
4054 1 40.0782 21.2179 40.0782
4055 1 38.5065 19.6462 41.6499
4056 1 40.0782 21.2179 43.2216
4057 1 38.5065 19.6462 44.7933
4058 1 40.0782 21.2179 46.365
4059 1 38.5065 19.6462 47.9367
4060 1 40.0782 21.2179 49.5084
4061 1 38.5065 22.7896 0.7858
4062 1 40.0782 24.3613 2.3575
4063 1 38.5065 22.7896 3.9292
4064 1 40.0782 24.3613 5.5009
4065 1 38.5065 22.7896 7.0726
4066 1 40.0782 24.3613 8.6443
4067 1 38.5065 22.7896 10.216
4068 1 40.0782 24.3613 11.7877
4069 1 38.5065 22.7896 13.3594
4070 1 40.0782 24.3613 14.9311
4071 1 38.5065 22.7896 16.5028
4072 1 40.0782 24.3613 18.0745
4073 1 38.5065 22.7896 19.6462
4074 1 40.0782 24.3613 21.2179
4075 1 38.5065 22.7896 22.7896
4076 1 40.0782 24.3613 24.3613
4077 1 38.5065 22.7896 25.933
4078 1 40.0782 24.3613 27.5047
4079 1 38.5065 22.7896 29.0764
4080 1 40.0782 24.3613 30.6481
4081 1 38.5065 22.7896 32.2197
4082 1 40.0782 24.3613 33.7914
4083 1 38.5065 22.7896 35.3631
4084 1 40.0782 24.3613 36.9348
4085 1 38.5065 22.7896 38.5065
4086 1 40.0782 24.3613 40.0782
4087 1 38.5065 22.7896 41.6499
4088 1 40.0782 24.3613 43.2216
4089 1 38.5065 22.7896 44.7933
4090 1 40.0782 24.3613 46.365
4091 1 38.5065 22.7896 47.9367
4092 1 40.0782 24.3613 49.5084
4093 1 38.5065 25.933 0.7858
4094 1 40.0782 27.5047 2.3575
4095 1 38.5065 25.933 3.9292
4096 1 40.0782 27.5047 5.5009
4097 1 38.5065 25.933 7.0726
4098 1 40.0782 27.5047 8.6443
4099 1 38.5065 25.933 10.216
4100 1 40.0782 27.5047 11.7877
4101 1 38.5065 25.933 13.3594
4102 1 40.0782 27.5047 14.9311
4103 1 38.5065 25.933 16.5028
4104 1 40.0782 27.5047 18.0745
4105 1 38.5065 25.933 19.6462
4106 1 40.0782 27.5047 21.2179
4107 1 38.5065 25.933 22.7896
4108 1 40.0782 27.5047 24.3613
4109 1 38.5065 25.933 25.933
4110 1 40.0782 27.5047 27.5047
4111 1 38.5065 25.933 29.0764
4112 1 40.0782 27.5047 30.6481
4113 1 38.5065 25.933 32.2197
4114 1 40.0782 27.5047 33.7914
4115 1 38.5065 25.933 35.3631
4116 1 40.0782 27.5047 36.9348
4117 1 38.5065 25.933 38.5065
4118 1 40.0782 27.5047 40.0782
4119 1 38.5065 25.933 41.6499
4120 1 40.0782 27.5047 43.2216
4121 1 38.5065 25.933 44.7933
4122 1 40.0782 27.5047 46.365
4123 1 38.5065 25.933 47.9367
4124 1 40.0782 27.5047 49.5084
4125 1 38.5065 29.0764 0.7858
4126 1 40.0782 30.6481 2.3575
4127 1 38.5065 29.0764 3.9292
4128 1 40.0782 30.6481 5.5009
4129 1 38.5065 29.0764 7.0726
4130 1 40.0782 30.6481 8.6443
4131 1 38.5065 29.0764 10.216
4132 1 40.0782 30.6481 11.7877
4133 1 38.5065 29.0764 13.3594
4134 1 40.0782 30.6481 14.9311
4135 1 38.5065 29.0764 16.5028
4136 1 40.0782 30.6481 18.0745
4137 1 38.5065 29.0764 19.6462
4138 1 40.0782 30.6481 21.2179
4139 1 38.5065 29.0764 22.7896
4140 1 40.0782 30.6481 24.3613
4141 1 38.5065 29.0764 25.933
4142 1 40.0782 30.6481 27.5047
4143 1 38.5065 29.0764 29.0764
4144 1 40.0782 30.6481 30.6481
4145 1 38.5065 29.0764 32.2197
4146 1 40.0782 30.6481 33.7914
4147 1 38.5065 29.0764 35.3631
4148 1 40.0782 30.6481 36.9348
4149 1 38.5065 29.0764 38.5065
4150 1 40.0782 30.6481 40.0782
4151 1 38.5065 29.0764 41.6499
4152 1 40.0782 30.6481 43.2216
4153 1 38.5065 29.0764 44.7933
4154 1 40.0782 30.6481 46.365
4155 1 38.5065 29.0764 47.9367
4156 1 40.0782 30.6481 49.5084
4157 1 38.5065 32.2197 0.7858
4158 1 40.0782 33.7914 2.3575
4159 1 38.5065 32.2197 3.9292
4160 1 40.0782 33.7914 5.5009
4161 1 38.5065 32.2197 7.0726
4162 1 40.0782 33.7914 8.6443
4163 1 38.5065 32.2197 10.216
4164 1 40.0782 33.7914 11.7877
4165 1 38.5065 32.2197 13.3594
4166 1 40.0782 33.7914 14.9311
4167 1 38.5065 32.2197 16.5028
4168 1 40.0782 33.7914 18.0745
4169 1 38.5065 32.2197 19.6462
4170 1 40.0782 33.7914 21.2179
4171 1 38.5065 32.2197 22.7896
4172 1 40.0782 33.7914 24.3613
4173 1 38.5065 32.2197 25.933
4174 1 40.0782 33.7914 27.5047
4175 1 38.5065 32.2197 29.0764
4176 1 40.0782 33.7914 30.6481
4177 1 38.5065 32.2197 32.2197
4178 1 40.0782 33.7914 33.7914
4179 1 38.5065 32.2197 35.3631
4180 1 40.0782 33.7914 36.9348
4181 1 38.5065 32.2197 38.5065
4182 1 40.0782 33.7914 40.0782
4183 1 38.5065 32.2197 41.6499
4184 1 40.0782 33.7914 43.2216
4185 1 38.5065 32.2197 44.7933
4186 1 40.0782 33.7914 46.365
4187 1 38.5065 32.2197 47.9367
4188 1 40.0782 33.7914 49.5084
4189 1 38.5065 35.3631 0.7858
4190 1 40.0782 36.9348 2.3575
4191 1 38.5065 35.3631 3.9292
4192 1 40.0782 36.9348 5.5009
4193 1 38.5065 35.3631 7.0726
4194 1 40.0782 36.9348 8.6443
4195 1 38.5065 35.3631 10.216
4196 1 40.0782 36.9348 11.7877
4197 1 38.5065 35.3631 13.3594
4198 1 40.0782 36.9348 14.9311
4199 1 38.5065 35.3631 16.5028
4200 1 40.0782 36.9348 18.0745
4201 1 38.5065 35.3631 19.6462
4202 1 40.0782 36.9348 21.2179
4203 1 38.5065 35.3631 22.7896
4204 1 40.0782 36.9348 24.3613
4205 1 38.5065 35.3631 25.933
4206 1 40.0782 36.9348 27.5047
4207 1 38.5065 35.3631 29.0764
4208 1 40.0782 36.9348 30.6481
4209 1 38.5065 35.3631 32.2197
4210 1 40.0782 36.9348 33.7914
4211 1 38.5065 35.3631 35.3631
4212 1 40.0782 36.9348 36.9348
4213 1 38.5065 35.3631 38.5065
4214 1 40.0782 36.9348 40.0782
4215 1 38.5065 35.3631 41.6499
4216 1 40.0782 36.9348 43.2216
4217 1 38.5065 35.3631 44.7933
4218 1 40.0782 36.9348 46.365
4219 1 38.5065 35.3631 47.9367
4220 1 40.0782 36.9348 49.5084
4221 1 38.5065 38.5065 0.7858
4222 1 40.0782 40.0782 2.3575
4223 1 38.5065 38.5065 3.9292
4224 1 40.0782 40.0782 5.5009
4225 1 38.5065 38.5065 7.0726
4226 1 40.0782 40.0782 8.6443
4227 1 38.5065 38.5065 10.216
4228 1 40.0782 40.0782 11.7877
4229 1 38.5065 38.5065 13.3594
4230 1 40.0782 40.0782 14.9311
4231 1 38.5065 38.5065 16.5028
4232 1 40.0782 40.0782 18.0745
4233 1 38.5065 38.5065 19.6462
4234 1 40.0782 40.0782 21.2179
4235 1 38.5065 38.5065 22.7896
4236 1 40.0782 40.0782 24.3613
4237 1 38.5065 38.5065 25.933
4238 1 40.0782 40.0782 27.5047
4239 1 38.5065 38.5065 29.0764
4240 1 40.0782 40.0782 30.6481
4241 1 38.5065 38.5065 32.2197
4242 1 40.0782 40.0782 33.7914
4243 1 38.5065 38.5065 35.3631
4244 1 40.0782 40.0782 36.9348
4245 1 38.5065 38.5065 38.5065
4246 1 40.0782 40.0782 40.0782
4247 1 38.5065 38.5065 41.6499
4248 1 40.0782 40.0782 43.2216
4249 1 38.5065 38.5065 44.7933
4250 1 40.0782 40.0782 46.365
4251 1 38.5065 38.5065 47.9367
4252 1 40.0782 40.0782 49.5084
4253 1 38.5065 41.6499 0.7858
4254 1 40.0782 43.2216 2.3575
4255 1 38.5065 41.6499 3.9292
4256 1 40.0782 43.2216 5.5009
4257 1 38.5065 41.6499 7.0726
4258 1 40.0782 43.2216 8.6443
4259 1 38.5065 41.6499 10.216
4260 1 40.0782 43.2216 11.7877
4261 1 38.5065 41.6499 13.3594
4262 1 40.0782 43.2216 14.9311
4263 1 38.5065 41.6499 16.5028
4264 1 40.0782 43.2216 18.0745
4265 1 38.5065 41.6499 19.6462
4266 1 40.0782 43.2216 21.2179
4267 1 38.5065 41.6499 22.7896
4268 1 40.0782 43.2216 24.3613
4269 1 38.5065 41.6499 25.933
4270 1 40.0782 43.2216 27.5047
4271 1 38.5065 41.6499 29.0764
4272 1 40.0782 43.2216 30.6481
4273 1 38.5065 41.6499 32.2197
4274 1 40.0782 43.2216 33.7914
4275 1 38.5065 41.6499 35.3631
4276 1 40.0782 43.2216 36.9348
4277 1 38.5065 41.6499 38.5065
4278 1 40.0782 43.2216 40.0782
4279 1 38.5065 41.6499 41.6499
4280 1 40.0782 43.2216 43.2216
4281 1 38.5065 41.6499 44.7933
4282 1 40.0782 43.2216 46.365
4283 1 38.5065 41.6499 47.9367
4284 1 40.0782 43.2216 49.5084
4285 1 38.5065 44.7933 0.7858
4286 1 40.0782 46.365 2.3575
4287 1 38.5065 44.7933 3.9292
4288 1 40.0782 46.365 5.5009
4289 1 38.5065 44.7933 7.0726
4290 1 40.0782 46.365 8.6443
4291 1 38.5065 44.7933 10.216
4292 1 40.0782 46.365 11.7877
4293 1 38.5065 44.7933 13.3594
4294 1 40.0782 46.365 14.9311
4295 1 38.5065 44.7933 16.5028
4296 1 40.0782 46.365 18.0745
4297 1 38.5065 44.7933 19.6462
4298 1 40.0782 46.365 21.2179
4299 1 38.5065 44.7933 22.7896
4300 1 40.0782 46.365 24.3613
4301 1 38.5065 44.7933 25.933
4302 1 40.0782 46.365 27.5047
4303 1 38.5065 44.7933 29.0764
4304 1 40.0782 46.365 30.6481
4305 1 38.5065 44.7933 32.2197
4306 1 40.0782 46.365 33.7914
4307 1 38.5065 44.7933 35.3631
4308 1 40.0782 46.365 36.9348
4309 1 38.5065 44.7933 38.5065
4310 1 40.0782 46.365 40.0782
4311 1 38.5065 44.7933 41.6499
4312 1 40.0782 46.365 43.2216
4313 1 38.5065 44.7933 44.7933
4314 1 40.0782 46.365 46.365
4315 1 38.5065 44.7933 47.9367
4316 1 40.0782 46.365 49.5084
4317 1 38.5065 47.9367 0.7858
4318 1 40.0782 49.5084 2.3575
4319 1 38.5065 47.9367 3.9292
4320 1 40.0782 49.5084 5.5009
4321 1 38.5065 47.9367 7.0726
4322 1 40.0782 49.5084 8.6443
4323 1 38.5065 47.9367 10.216
4324 1 40.0782 49.5084 11.7877
4325 1 38.5065 47.9367 13.3594
4326 1 40.0782 49.5084 14.9311
4327 1 38.5065 47.9367 16.5028
4328 1 40.0782 49.5084 18.0745
4329 1 38.5065 47.9367 19.6462
4330 1 40.0782 49.5084 21.2179
4331 1 38.5065 47.9367 22.7896
4332 1 40.0782 49.5084 24.3613
4333 1 38.5065 47.9367 25.933
4334 1 40.0782 49.5084 27.5047
4335 1 38.5065 47.9367 29.0764
4336 1 40.0782 49.5084 30.6481
4337 1 38.5065 47.9367 32.2197
4338 1 40.0782 49.5084 33.7914
4339 1 38.5065 47.9367 35.3631
4340 1 40.0782 49.5084 36.9348
4341 1 38.5065 47.9367 38.5065
4342 1 40.0782 49.5084 40.0782
4343 1 38.5065 47.9367 41.6499
4344 1 40.0782 49.5084 43.2216
4345 1 38.5065 47.9367 44.7933
4346 1 40.0782 49.5084 46.365
4347 1 38.5065 47.9367 47.9367
4348 1 40.0782 49.5084 49.5084
4349 1 41.6499 0.7858 0.7858
4350 1 43.2216 2.3575 2.3575
4351 1 41.6499 0.7858 3.9292
4352 1 43.2216 2.3575 5.5009
4353 1 41.6499 0.7858 7.0726
4354 1 43.2216 2.3575 8.6443
4355 1 41.6499 0.7858 10.216
4356 1 43.2216 2.3575 11.7877
4357 1 41.6499 0.7858 13.3594
4358 1 43.2216 2.3575 14.9311
4359 1 41.6499 0.7858 16.5028
4360 1 43.2216 2.3575 18.0745
4361 1 41.6499 0.7858 19.6462
4362 1 43.2216 2.3575 21.2179
4363 1 41.6499 0.7858 22.7896
4364 1 43.2216 2.3575 24.3613
4365 1 41.6499 0.7858 25.933
4366 1 43.2216 2.3575 27.5047
4367 1 41.6499 0.7858 29.0764
4368 1 43.2216 2.3575 30.6481
4369 1 41.6499 0.7858 32.2197
4370 1 43.2216 2.3575 33.7914
4371 1 41.6499 0.7858 35.3631
4372 1 43.2216 2.3575 36.9348
4373 1 41.6499 0.7858 38.5065
4374 1 43.2216 2.3575 40.0782
4375 1 41.6499 0.7858 41.6499
4376 1 43.2216 2.3575 43.2216
4377 1 41.6499 0.7858 44.7933
4378 1 43.2216 2.3575 46.365
4379 1 41.6499 0.7858 47.9367
4380 1 43.2216 2.3575 49.5084
4381 1 41.6499 3.9292 0.7858
4382 1 43.2216 5.5009 2.3575
4383 1 41.6499 3.9292 3.9292
4384 1 43.2216 5.5009 5.5009
4385 1 41.6499 3.9292 7.0726
4386 1 43.2216 5.5009 8.6443
4387 1 41.6499 3.9292 10.216
4388 1 43.2216 5.5009 11.7877
4389 1 41.6499 3.9292 13.3594
4390 1 43.2216 5.5009 14.9311
4391 1 41.6499 3.9292 16.5028
4392 1 43.2216 5.5009 18.0745
4393 1 41.6499 3.9292 19.6462
4394 1 43.2216 5.5009 21.2179
4395 1 41.6499 3.9292 22.7896
4396 1 43.2216 5.5009 24.3613
4397 1 41.6499 3.9292 25.933
4398 1 43.2216 5.5009 27.5047
4399 1 41.6499 3.9292 29.0764
4400 1 43.2216 5.5009 30.6481
4401 1 41.6499 3.9292 32.2197
4402 1 43.2216 5.5009 33.7914
4403 1 41.6499 3.9292 35.3631
4404 1 43.2216 5.5009 36.9348
4405 1 41.6499 3.9292 38.5065
4406 1 43.2216 5.5009 40.0782
4407 1 41.6499 3.9292 41.6499
4408 1 43.2216 5.5009 43.2216
4409 1 41.6499 3.9292 44.7933
4410 1 43.2216 5.5009 46.365
4411 1 41.6499 3.9292 47.9367
4412 1 43.2216 5.5009 49.5084
4413 1 41.6499 7.0726 0.7858
4414 1 43.2216 8.6443 2.3575
4415 1 41.6499 7.0726 3.9292
4416 1 43.2216 8.6443 5.5009
4417 1 41.6499 7.0726 7.0726
4418 1 43.2216 8.6443 8.6443
4419 1 41.6499 7.0726 10.216
4420 1 43.2216 8.6443 11.7877
4421 1 41.6499 7.0726 13.3594
4422 1 43.2216 8.6443 14.9311
4423 1 41.6499 7.0726 16.5028
4424 1 43.2216 8.6443 18.0745
4425 1 41.6499 7.0726 19.6462
4426 1 43.2216 8.6443 21.2179
4427 1 41.6499 7.0726 22.7896
4428 1 43.2216 8.6443 24.3613
4429 1 41.6499 7.0726 25.933
4430 1 43.2216 8.6443 27.5047
4431 1 41.6499 7.0726 29.0764
4432 1 43.2216 8.6443 30.6481
4433 1 41.6499 7.0726 32.2197
4434 1 43.2216 8.6443 33.7914
4435 1 41.6499 7.0726 35.3631
4436 1 43.2216 8.6443 36.9348
4437 1 41.6499 7.0726 38.5065
4438 1 43.2216 8.6443 40.0782
4439 1 41.6499 7.0726 41.6499
4440 1 43.2216 8.6443 43.2216
4441 1 41.6499 7.0726 44.7933
4442 1 43.2216 8.6443 46.365
4443 1 41.6499 7.0726 47.9367
4444 1 43.2216 8.6443 49.5084
4445 1 41.6499 10.216 0.7858
4446 1 43.2216 11.7877 2.3575
4447 1 41.6499 10.216 3.9292
4448 1 43.2216 11.7877 5.5009
4449 1 41.6499 10.216 7.0726
4450 1 43.2216 11.7877 8.6443
4451 1 41.6499 10.216 10.216
4452 1 43.2216 11.7877 11.7877
4453 1 41.6499 10.216 13.3594
4454 1 43.2216 11.7877 14.9311
4455 1 41.6499 10.216 16.5028
4456 1 43.2216 11.7877 18.0745
4457 1 41.6499 10.216 19.6462
4458 1 43.2216 11.7877 21.2179
4459 1 41.6499 10.216 22.7896
4460 1 43.2216 11.7877 24.3613
4461 1 41.6499 10.216 25.933
4462 1 43.2216 11.7877 27.5047
4463 1 41.6499 10.216 29.0764
4464 1 43.2216 11.7877 30.6481
4465 1 41.6499 10.216 32.2197
4466 1 43.2216 11.7877 33.7914
4467 1 41.6499 10.216 35.3631
4468 1 43.2216 11.7877 36.9348
4469 1 41.6499 10.216 38.5065
4470 1 43.2216 11.7877 40.0782
4471 1 41.6499 10.216 41.6499
4472 1 43.2216 11.7877 43.2216
4473 1 41.6499 10.216 44.7933
4474 1 43.2216 11.7877 46.365
4475 1 41.6499 10.216 47.9367
4476 1 43.2216 11.7877 49.5084
4477 1 41.6499 13.3594 0.7858
4478 1 43.2216 14.9311 2.3575
4479 1 41.6499 13.3594 3.9292
4480 1 43.2216 14.9311 5.5009
4481 1 41.6499 13.3594 7.0726
4482 1 43.2216 14.9311 8.6443
4483 1 41.6499 13.3594 10.216
4484 1 43.2216 14.9311 11.7877
4485 1 41.6499 13.3594 13.3594
4486 1 43.2216 14.9311 14.9311
4487 1 41.6499 13.3594 16.5028
4488 1 43.2216 14.9311 18.0745
4489 1 41.6499 13.3594 19.6462
4490 1 43.2216 14.9311 21.2179
4491 1 41.6499 13.3594 22.7896
4492 1 43.2216 14.9311 24.3613
4493 1 41.6499 13.3594 25.933
4494 1 43.2216 14.9311 27.5047
4495 1 41.6499 13.3594 29.0764
4496 1 43.2216 14.9311 30.6481
4497 1 41.6499 13.3594 32.2197
4498 1 43.2216 14.9311 33.7914
4499 1 41.6499 13.3594 35.3631
4500 1 43.2216 14.9311 36.9348
4501 1 41.6499 13.3594 38.5065
4502 1 43.2216 14.9311 40.0782
4503 1 41.6499 13.3594 41.6499
4504 1 43.2216 14.9311 43.2216
4505 1 41.6499 13.3594 44.7933
4506 1 43.2216 14.9311 46.365
4507 1 41.6499 13.3594 47.9367
4508 1 43.2216 14.9311 49.5084
4509 1 41.6499 16.5028 0.7858
4510 1 43.2216 18.0745 2.3575
4511 1 41.6499 16.5028 3.9292
4512 1 43.2216 18.0745 5.5009
4513 1 41.6499 16.5028 7.0726
4514 1 43.2216 18.0745 8.6443
4515 1 41.6499 16.5028 10.216
4516 1 43.2216 18.0745 11.7877
4517 1 41.6499 16.5028 13.3594
4518 1 43.2216 18.0745 14.9311
4519 1 41.6499 16.5028 16.5028
4520 1 43.2216 18.0745 18.0745
4521 1 41.6499 16.5028 19.6462
4522 1 43.2216 18.0745 21.2179
4523 1 41.6499 16.5028 22.7896
4524 1 43.2216 18.0745 24.3613
4525 1 41.6499 16.5028 25.933
4526 1 43.2216 18.0745 27.5047
4527 1 41.6499 16.5028 29.0764
4528 1 43.2216 18.0745 30.6481
4529 1 41.6499 16.5028 32.2197
4530 1 43.2216 18.0745 33.7914
4531 1 41.6499 16.5028 35.3631
4532 1 43.2216 18.0745 36.9348
4533 1 41.6499 16.5028 38.5065
4534 1 43.2216 18.0745 40.0782
4535 1 41.6499 16.5028 41.6499
4536 1 43.2216 18.0745 43.2216
4537 1 41.6499 16.5028 44.7933
4538 1 43.2216 18.0745 46.365
4539 1 41.6499 16.5028 47.9367
4540 1 43.2216 18.0745 49.5084
4541 1 41.6499 19.6462 0.7858
4542 1 43.2216 21.2179 2.3575
4543 1 41.6499 19.6462 3.9292
4544 1 43.2216 21.2179 5.5009
4545 1 41.6499 19.6462 7.0726
4546 1 43.2216 21.2179 8.6443
4547 1 41.6499 19.6462 10.216
4548 1 43.2216 21.2179 11.7877
4549 1 41.6499 19.6462 13.3594
4550 1 43.2216 21.2179 14.9311
4551 1 41.6499 19.6462 16.5028
4552 1 43.2216 21.2179 18.0745
4553 1 41.6499 19.6462 19.6462
4554 1 43.2216 21.2179 21.2179
4555 1 41.6499 19.6462 22.7896
4556 1 43.2216 21.2179 24.3613
4557 1 41.6499 19.6462 25.933
4558 1 43.2216 21.2179 27.5047
4559 1 41.6499 19.6462 29.0764
4560 1 43.2216 21.2179 30.6481
4561 1 41.6499 19.6462 32.2197
4562 1 43.2216 21.2179 33.7914
4563 1 41.6499 19.6462 35.3631
4564 1 43.2216 21.2179 36.9348
4565 1 41.6499 19.6462 38.5065
4566 1 43.2216 21.2179 40.0782
4567 1 41.6499 19.6462 41.6499
4568 1 43.2216 21.2179 43.2216
4569 1 41.6499 19.6462 44.7933
4570 1 43.2216 21.2179 46.365
4571 1 41.6499 19.6462 47.9367
4572 1 43.2216 21.2179 49.5084
4573 1 41.6499 22.7896 0.7858
4574 1 43.2216 24.3613 2.3575
4575 1 41.6499 22.7896 3.9292
4576 1 43.2216 24.3613 5.5009
4577 1 41.6499 22.7896 7.0726
4578 1 43.2216 24.3613 8.6443
4579 1 41.6499 22.7896 10.216
4580 1 43.2216 24.3613 11.7877
4581 1 41.6499 22.7896 13.3594
4582 1 43.2216 24.3613 14.9311
4583 1 41.6499 22.7896 16.5028
4584 1 43.2216 24.3613 18.0745
4585 1 41.6499 22.7896 19.6462
4586 1 43.2216 24.3613 21.2179
4587 1 41.6499 22.7896 22.7896
4588 1 43.2216 24.3613 24.3613
4589 1 41.6499 22.7896 25.933
4590 1 43.2216 24.3613 27.5047
4591 1 41.6499 22.7896 29.0764
4592 1 43.2216 24.3613 30.6481
4593 1 41.6499 22.7896 32.2197
4594 1 43.2216 24.3613 33.7914
4595 1 41.6499 22.7896 35.3631
4596 1 43.2216 24.3613 36.9348
4597 1 41.6499 22.7896 38.5065
4598 1 43.2216 24.3613 40.0782
4599 1 41.6499 22.7896 41.6499
4600 1 43.2216 24.3613 43.2216
4601 1 41.6499 22.7896 44.7933
4602 1 43.2216 24.3613 46.365
4603 1 41.6499 22.7896 47.9367
4604 1 43.2216 24.3613 49.5084
4605 1 41.6499 25.933 0.7858
4606 1 43.2216 27.5047 2.3575
4607 1 41.6499 25.933 3.9292
4608 1 43.2216 27.5047 5.5009
4609 1 41.6499 25.933 7.0726
4610 1 43.2216 27.5047 8.6443
4611 1 41.6499 25.933 10.216
4612 1 43.2216 27.5047 11.7877
4613 1 41.6499 25.933 13.3594
4614 1 43.2216 27.5047 14.9311
4615 1 41.6499 25.933 16.5028
4616 1 43.2216 27.5047 18.0745
4617 1 41.6499 25.933 19.6462
4618 1 43.2216 27.5047 21.2179
4619 1 41.6499 25.933 22.7896
4620 1 43.2216 27.5047 24.3613
4621 1 41.6499 25.933 25.933
4622 1 43.2216 27.5047 27.5047
4623 1 41.6499 25.933 29.0764
4624 1 43.2216 27.5047 30.6481
4625 1 41.6499 25.933 32.2197
4626 1 43.2216 27.5047 33.7914
4627 1 41.6499 25.933 35.3631
4628 1 43.2216 27.5047 36.9348
4629 1 41.6499 25.933 38.5065
4630 1 43.2216 27.5047 40.0782
4631 1 41.6499 25.933 41.6499
4632 1 43.2216 27.5047 43.2216
4633 1 41.6499 25.933 44.7933
4634 1 43.2216 27.5047 46.365
4635 1 41.6499 25.933 47.9367
4636 1 43.2216 27.5047 49.5084
4637 1 41.6499 29.0764 0.7858
4638 1 43.2216 30.6481 2.3575
4639 1 41.6499 29.0764 3.9292
4640 1 43.2216 30.6481 5.5009
4641 1 41.6499 29.0764 7.0726
4642 1 43.2216 30.6481 8.6443
4643 1 41.6499 29.0764 10.216
4644 1 43.2216 30.6481 11.7877
4645 1 41.6499 29.0764 13.3594
4646 1 43.2216 30.6481 14.9311
4647 1 41.6499 29.0764 16.5028
4648 1 43.2216 30.6481 18.0745
4649 1 41.6499 29.0764 19.6462
4650 1 43.2216 30.6481 21.2179
4651 1 41.6499 29.0764 22.7896
4652 1 43.2216 30.6481 24.3613
4653 1 41.6499 29.0764 25.933
4654 1 43.2216 30.6481 27.5047
4655 1 41.6499 29.0764 29.0764
4656 1 43.2216 30.6481 30.6481
4657 1 41.6499 29.0764 32.2197
4658 1 43.2216 30.6481 33.7914
4659 1 41.6499 29.0764 35.3631
4660 1 43.2216 30.6481 36.9348
4661 1 41.6499 29.0764 38.5065
4662 1 43.2216 30.6481 40.0782
4663 1 41.6499 29.0764 41.6499
4664 1 43.2216 30.6481 43.2216
4665 1 41.6499 29.0764 44.7933
4666 1 43.2216 30.6481 46.365
4667 1 41.6499 29.0764 47.9367
4668 1 43.2216 30.6481 49.5084
4669 1 41.6499 32.2197 0.7858
4670 1 43.2216 33.7914 2.3575
4671 1 41.6499 32.2197 3.9292
4672 1 43.2216 33.7914 5.5009
4673 1 41.6499 32.2197 7.0726
4674 1 43.2216 33.7914 8.6443
4675 1 41.6499 32.2197 10.216
4676 1 43.2216 33.7914 11.7877
4677 1 41.6499 32.2197 13.3594
4678 1 43.2216 33.7914 14.9311
4679 1 41.6499 32.2197 16.5028
4680 1 43.2216 33.7914 18.0745
4681 1 41.6499 32.2197 19.6462
4682 1 43.2216 33.7914 21.2179
4683 1 41.6499 32.2197 22.7896
4684 1 43.2216 33.7914 24.3613
4685 1 41.6499 32.2197 25.933
4686 1 43.2216 33.7914 27.5047
4687 1 41.6499 32.2197 29.0764
4688 1 43.2216 33.7914 30.6481
4689 1 41.6499 32.2197 32.2197
4690 1 43.2216 33.7914 33.7914
4691 1 41.6499 32.2197 35.3631
4692 1 43.2216 33.7914 36.9348
4693 1 41.6499 32.2197 38.5065
4694 1 43.2216 33.7914 40.0782
4695 1 41.6499 32.2197 41.6499
4696 1 43.2216 33.7914 43.2216
4697 1 41.6499 32.2197 44.7933
4698 1 43.2216 33.7914 46.365
4699 1 41.6499 32.2197 47.9367
4700 1 43.2216 33.7914 49.5084
4701 1 41.6499 35.3631 0.7858
4702 1 43.2216 36.9348 2.3575
4703 1 41.6499 35.3631 3.9292
4704 1 43.2216 36.9348 5.5009
4705 1 41.6499 35.3631 7.0726
4706 1 43.2216 36.9348 8.6443
4707 1 41.6499 35.3631 10.216
4708 1 43.2216 36.9348 11.7877
4709 1 41.6499 35.3631 13.3594
4710 1 43.2216 36.9348 14.9311
4711 1 41.6499 35.3631 16.5028
4712 1 43.2216 36.9348 18.0745
4713 1 41.6499 35.3631 19.6462
4714 1 43.2216 36.9348 21.2179
4715 1 41.6499 35.3631 22.7896
4716 1 43.2216 36.9348 24.3613
4717 1 41.6499 35.3631 25.933
4718 1 43.2216 36.9348 27.5047
4719 1 41.6499 35.3631 29.0764
4720 1 43.2216 36.9348 30.6481
4721 1 41.6499 35.3631 32.2197
4722 1 43.2216 36.9348 33.7914
4723 1 41.6499 35.3631 35.3631
4724 1 43.2216 36.9348 36.9348
4725 1 41.6499 35.3631 38.5065
4726 1 43.2216 36.9348 40.0782
4727 1 41.6499 35.3631 41.6499
4728 1 43.2216 36.9348 43.2216
4729 1 41.6499 35.3631 44.7933
4730 1 43.2216 36.9348 46.365
4731 1 41.6499 35.3631 47.9367
4732 1 43.2216 36.9348 49.5084
4733 1 41.6499 38.5065 0.7858
4734 1 43.2216 40.0782 2.3575
4735 1 41.6499 38.5065 3.9292
4736 1 43.2216 40.0782 5.5009
4737 1 41.6499 38.5065 7.0726
4738 1 43.2216 40.0782 8.6443
4739 1 41.6499 38.5065 10.216
4740 1 43.2216 40.0782 11.7877
4741 1 41.6499 38.5065 13.3594
4742 1 43.2216 40.0782 14.9311
4743 1 41.6499 38.5065 16.5028
4744 1 43.2216 40.0782 18.0745
4745 1 41.6499 38.5065 19.6462
4746 1 43.2216 40.0782 21.2179
4747 1 41.6499 38.5065 22.7896
4748 1 43.2216 40.0782 24.3613
4749 1 41.6499 38.5065 25.933
4750 1 43.2216 40.0782 27.5047
4751 1 41.6499 38.5065 29.0764
4752 1 43.2216 40.0782 30.6481
4753 1 41.6499 38.5065 32.2197
4754 1 43.2216 40.0782 33.7914
4755 1 41.6499 38.5065 35.3631
4756 1 43.2216 40.0782 36.9348
4757 1 41.6499 38.5065 38.5065
4758 1 43.2216 40.0782 40.0782
4759 1 41.6499 38.5065 41.6499
4760 1 43.2216 40.0782 43.2216
4761 1 41.6499 38.5065 44.7933
4762 1 43.2216 40.0782 46.365
4763 1 41.6499 38.5065 47.9367
4764 1 43.2216 40.0782 49.5084
4765 1 41.6499 41.6499 0.7858
4766 1 43.2216 43.2216 2.3575
4767 1 41.6499 41.6499 3.9292
4768 1 43.2216 43.2216 5.5009
4769 1 41.6499 41.6499 7.0726
4770 1 43.2216 43.2216 8.6443
4771 1 41.6499 41.6499 10.216
4772 1 43.2216 43.2216 11.7877
4773 1 41.6499 41.6499 13.3594
4774 1 43.2216 43.2216 14.9311
4775 1 41.6499 41.6499 16.5028
4776 1 43.2216 43.2216 18.0745
4777 1 41.6499 41.6499 19.6462
4778 1 43.2216 43.2216 21.2179
4779 1 41.6499 41.6499 22.7896
4780 1 43.2216 43.2216 24.3613
4781 1 41.6499 41.6499 25.933
4782 1 43.2216 43.2216 27.5047
4783 1 41.6499 41.6499 29.0764
4784 1 43.2216 43.2216 30.6481
4785 1 41.6499 41.6499 32.2197
4786 1 43.2216 43.2216 33.7914
4787 1 41.6499 41.6499 35.3631
4788 1 43.2216 43.2216 36.9348
4789 1 41.6499 41.6499 38.5065
4790 1 43.2216 43.2216 40.0782
4791 1 41.6499 41.6499 41.6499
4792 1 43.2216 43.2216 43.2216
4793 1 41.6499 41.6499 44.7933
4794 1 43.2216 43.2216 46.365
4795 1 41.6499 41.6499 47.9367
4796 1 43.2216 43.2216 49.5084
4797 1 41.6499 44.7933 0.7858
4798 1 43.2216 46.365 2.3575
4799 1 41.6499 44.7933 3.9292
4800 1 43.2216 46.365 5.5009
4801 1 41.6499 44.7933 7.0726
4802 1 43.2216 46.365 8.6443
4803 1 41.6499 44.7933 10.216
4804 1 43.2216 46.365 11.7877
4805 1 41.6499 44.7933 13.3594
4806 1 43.2216 46.365 14.9311
4807 1 41.6499 44.7933 16.5028
4808 1 43.2216 46.365 18.0745
4809 1 41.6499 44.7933 19.6462
4810 1 43.2216 46.365 21.2179
4811 1 41.6499 44.7933 22.7896
4812 1 43.2216 46.365 24.3613
4813 1 41.6499 44.7933 25.933
4814 1 43.2216 46.365 27.5047
4815 1 41.6499 44.7933 29.0764
4816 1 43.2216 46.365 30.6481
4817 1 41.6499 44.7933 32.2197
4818 1 43.2216 46.365 33.7914
4819 1 41.6499 44.7933 35.3631
4820 1 43.2216 46.365 36.9348
4821 1 41.6499 44.7933 38.5065
4822 1 43.2216 46.365 40.0782
4823 1 41.6499 44.7933 41.6499
4824 1 43.2216 46.365 43.2216
4825 1 41.6499 44.7933 44.7933
4826 1 43.2216 46.365 46.365
4827 1 41.6499 44.7933 47.9367
4828 1 43.2216 46.365 49.5084
4829 1 41.6499 47.9367 0.7858
4830 1 43.2216 49.5084 2.3575
4831 1 41.6499 47.9367 3.9292
4832 1 43.2216 49.5084 5.5009
4833 1 41.6499 47.9367 7.0726
4834 1 43.2216 49.5084 8.6443
4835 1 41.6499 47.9367 10.216
4836 1 43.2216 49.5084 11.7877
4837 1 41.6499 47.9367 13.3594
4838 1 43.2216 49.5084 14.9311
4839 1 41.6499 47.9367 16.5028
4840 1 43.2216 49.5084 18.0745
4841 1 41.6499 47.9367 19.6462
4842 1 43.2216 49.5084 21.2179
4843 1 41.6499 47.9367 22.7896
4844 1 43.2216 49.5084 24.3613
4845 1 41.6499 47.9367 25.933
4846 1 43.2216 49.5084 27.5047
4847 1 41.6499 47.9367 29.0764
4848 1 43.2216 49.5084 30.6481
4849 1 41.6499 47.9367 32.2197
4850 1 43.2216 49.5084 33.7914
4851 1 41.6499 47.9367 35.3631
4852 1 43.2216 49.5084 36.9348
4853 1 41.6499 47.9367 38.5065
4854 1 43.2216 49.5084 40.0782
4855 1 41.6499 47.9367 41.6499
4856 1 43.2216 49.5084 43.2216
4857 1 41.6499 47.9367 44.7933
4858 1 43.2216 49.5084 46.365
4859 1 41.6499 47.9367 47.9367
4860 1 43.2216 49.5084 49.5084
4861 1 44.7933 0.7858 0.7858
4862 1 46.365 2.3575 2.3575
4863 1 44.7933 0.7858 3.9292
4864 1 46.365 2.3575 5.5009
4865 1 44.7933 0.7858 7.0726
4866 1 46.365 2.3575 8.6443
4867 1 44.7933 0.7858 10.216
4868 1 46.365 2.3575 11.7877
4869 1 44.7933 0.7858 13.3594
4870 1 46.365 2.3575 14.9311
4871 1 44.7933 0.7858 16.5028
4872 1 46.365 2.3575 18.0745
4873 1 44.7933 0.7858 19.6462
4874 1 46.365 2.3575 21.2179
4875 1 44.7933 0.7858 22.7896
4876 1 46.365 2.3575 24.3613
4877 1 44.7933 0.7858 25.933
4878 1 46.365 2.3575 27.5047
4879 1 44.7933 0.7858 29.0764
4880 1 46.365 2.3575 30.6481
4881 1 44.7933 0.7858 32.2197
4882 1 46.365 2.3575 33.7914
4883 1 44.7933 0.7858 35.3631
4884 1 46.365 2.3575 36.9348
4885 1 44.7933 0.7858 38.5065
4886 1 46.365 2.3575 40.0782
4887 1 44.7933 0.7858 41.6499
4888 1 46.365 2.3575 43.2216
4889 1 44.7933 0.7858 44.7933
4890 1 46.365 2.3575 46.365
4891 1 44.7933 0.7858 47.9367
4892 1 46.365 2.3575 49.5084
4893 1 44.7933 3.9292 0.7858
4894 1 46.365 5.5009 2.3575
4895 1 44.7933 3.9292 3.9292
4896 1 46.365 5.5009 5.5009
4897 1 44.7933 3.9292 7.0726
4898 1 46.365 5.5009 8.6443
4899 1 44.7933 3.9292 10.216
4900 1 46.365 5.5009 11.7877
4901 1 44.7933 3.9292 13.3594
4902 1 46.365 5.5009 14.9311
4903 1 44.7933 3.9292 16.5028
4904 1 46.365 5.5009 18.0745
4905 1 44.7933 3.9292 19.6462
4906 1 46.365 5.5009 21.2179
4907 1 44.7933 3.9292 22.7896
4908 1 46.365 5.5009 24.3613
4909 1 44.7933 3.9292 25.933
4910 1 46.365 5.5009 27.5047
4911 1 44.7933 3.9292 29.0764
4912 1 46.365 5.5009 30.6481
4913 1 44.7933 3.9292 32.2197
4914 1 46.365 5.5009 33.7914
4915 1 44.7933 3.9292 35.3631
4916 1 46.365 5.5009 36.9348
4917 1 44.7933 3.9292 38.5065
4918 1 46.365 5.5009 40.0782
4919 1 44.7933 3.9292 41.6499
4920 1 46.365 5.5009 43.2216
4921 1 44.7933 3.9292 44.7933
4922 1 46.365 5.5009 46.365
4923 1 44.7933 3.9292 47.9367
4924 1 46.365 5.5009 49.5084
4925 1 44.7933 7.0726 0.7858
4926 1 46.365 8.6443 2.3575
4927 1 44.7933 7.0726 3.9292
4928 1 46.365 8.6443 5.5009
4929 1 44.7933 7.0726 7.0726
4930 1 46.365 8.6443 8.6443
4931 1 44.7933 7.0726 10.216
4932 1 46.365 8.6443 11.7877
4933 1 44.7933 7.0726 13.3594
4934 1 46.365 8.6443 14.9311
4935 1 44.7933 7.0726 16.5028
4936 1 46.365 8.6443 18.0745
4937 1 44.7933 7.0726 19.6462
4938 1 46.365 8.6443 21.2179
4939 1 44.7933 7.0726 22.7896
4940 1 46.365 8.6443 24.3613
4941 1 44.7933 7.0726 25.933
4942 1 46.365 8.6443 27.5047
4943 1 44.7933 7.0726 29.0764
4944 1 46.365 8.6443 30.6481
4945 1 44.7933 7.0726 32.2197
4946 1 46.365 8.6443 33.7914
4947 1 44.7933 7.0726 35.3631
4948 1 46.365 8.6443 36.9348
4949 1 44.7933 7.0726 38.5065
4950 1 46.365 8.6443 40.0782
4951 1 44.7933 7.0726 41.6499
4952 1 46.365 8.6443 43.2216
4953 1 44.7933 7.0726 44.7933
4954 1 46.365 8.6443 46.365
4955 1 44.7933 7.0726 47.9367
4956 1 46.365 8.6443 49.5084
4957 1 44.7933 10.216 0.7858
4958 1 46.365 11.7877 2.3575
4959 1 44.7933 10.216 3.9292
4960 1 46.365 11.7877 5.5009
4961 1 44.7933 10.216 7.0726
4962 1 46.365 11.7877 8.6443
4963 1 44.7933 10.216 10.216
4964 1 46.365 11.7877 11.7877
4965 1 44.7933 10.216 13.3594
4966 1 46.365 11.7877 14.9311
4967 1 44.7933 10.216 16.5028
4968 1 46.365 11.7877 18.0745
4969 1 44.7933 10.216 19.6462
4970 1 46.365 11.7877 21.2179
4971 1 44.7933 10.216 22.7896
4972 1 46.365 11.7877 24.3613
4973 1 44.7933 10.216 25.933
4974 1 46.365 11.7877 27.5047
4975 1 44.7933 10.216 29.0764
4976 1 46.365 11.7877 30.6481
4977 1 44.7933 10.216 32.2197
4978 1 46.365 11.7877 33.7914
4979 1 44.7933 10.216 35.3631
4980 1 46.365 11.7877 36.9348
4981 1 44.7933 10.216 38.5065
4982 1 46.365 11.7877 40.0782
4983 1 44.7933 10.216 41.6499
4984 1 46.365 11.7877 43.2216
4985 1 44.7933 10.216 44.7933
4986 1 46.365 11.7877 46.365
4987 1 44.7933 10.216 47.9367
4988 1 46.365 11.7877 49.5084
4989 1 44.7933 13.3594 0.7858
4990 1 46.365 14.9311 2.3575
4991 1 44.7933 13.3594 3.9292
4992 1 46.365 14.9311 5.5009
4993 1 44.7933 13.3594 7.0726
4994 1 46.365 14.9311 8.6443
4995 1 44.7933 13.3594 10.216
4996 1 46.365 14.9311 11.7877
4997 1 44.7933 13.3594 13.3594
4998 1 46.365 14.9311 14.9311
4999 1 44.7933 13.3594 16.5028
5000 1 46.365 14.9311 18.0745
5001 1 44.7933 13.3594 19.6462
5002 1 46.365 14.9311 21.2179
5003 1 44.7933 13.3594 22.7896
5004 1 46.365 14.9311 24.3613
5005 1 44.7933 13.3594 25.933
5006 1 46.365 14.9311 27.5047
5007 1 44.7933 13.3594 29.0764
5008 1 46.365 14.9311 30.6481
5009 1 44.7933 13.3594 32.2197
5010 1 46.365 14.9311 33.7914
5011 1 44.7933 13.3594 35.3631
5012 1 46.365 14.9311 36.9348
5013 1 44.7933 13.3594 38.5065
5014 1 46.365 14.9311 40.0782
5015 1 44.7933 13.3594 41.6499
5016 1 46.365 14.9311 43.2216
5017 1 44.7933 13.3594 44.7933
5018 1 46.365 14.9311 46.365
5019 1 44.7933 13.3594 47.9367
5020 1 46.365 14.9311 49.5084
5021 1 44.7933 16.5028 0.7858
5022 1 46.365 18.0745 2.3575
5023 1 44.7933 16.5028 3.9292
5024 1 46.365 18.0745 5.5009
5025 1 44.7933 16.5028 7.0726
5026 1 46.365 18.0745 8.6443
5027 1 44.7933 16.5028 10.216
5028 1 46.365 18.0745 11.7877
5029 1 44.7933 16.5028 13.3594
5030 1 46.365 18.0745 14.9311
5031 1 44.7933 16.5028 16.5028
5032 1 46.365 18.0745 18.0745
5033 1 44.7933 16.5028 19.6462
5034 1 46.365 18.0745 21.2179
5035 1 44.7933 16.5028 22.7896
5036 1 46.365 18.0745 24.3613
5037 1 44.7933 16.5028 25.933
5038 1 46.365 18.0745 27.5047
5039 1 44.7933 16.5028 29.0764
5040 1 46.365 18.0745 30.6481
5041 1 44.7933 16.5028 32.2197
5042 1 46.365 18.0745 33.7914
5043 1 44.7933 16.5028 35.3631
5044 1 46.365 18.0745 36.9348
5045 1 44.7933 16.5028 38.5065
5046 1 46.365 18.0745 40.0782
5047 1 44.7933 16.5028 41.6499
5048 1 46.365 18.0745 43.2216
5049 1 44.7933 16.5028 44.7933
5050 1 46.365 18.0745 46.365
5051 1 44.7933 16.5028 47.9367
5052 1 46.365 18.0745 49.5084
5053 1 44.7933 19.6462 0.7858
5054 1 46.365 21.2179 2.3575
5055 1 44.7933 19.6462 3.9292
5056 1 46.365 21.2179 5.5009
5057 1 44.7933 19.6462 7.0726
5058 1 46.365 21.2179 8.6443
5059 1 44.7933 19.6462 10.216
5060 1 46.365 21.2179 11.7877
5061 1 44.7933 19.6462 13.3594
5062 1 46.365 21.2179 14.9311
5063 1 44.7933 19.6462 16.5028
5064 1 46.365 21.2179 18.0745
5065 1 44.7933 19.6462 19.6462
5066 1 46.365 21.2179 21.2179
5067 1 44.7933 19.6462 22.7896
5068 1 46.365 21.2179 24.3613
5069 1 44.7933 19.6462 25.933
5070 1 46.365 21.2179 27.5047
5071 1 44.7933 19.6462 29.0764
5072 1 46.365 21.2179 30.6481
5073 1 44.7933 19.6462 32.2197
5074 1 46.365 21.2179 33.7914
5075 1 44.7933 19.6462 35.3631
5076 1 46.365 21.2179 36.9348
5077 1 44.7933 19.6462 38.5065
5078 1 46.365 21.2179 40.0782
5079 1 44.7933 19.6462 41.6499
5080 1 46.365 21.2179 43.2216
5081 1 44.7933 19.6462 44.7933
5082 1 46.365 21.2179 46.365
5083 1 44.7933 19.6462 47.9367
5084 1 46.365 21.2179 49.5084
5085 1 44.7933 22.7896 0.7858
5086 1 46.365 24.3613 2.3575
5087 1 44.7933 22.7896 3.9292
5088 1 46.365 24.3613 5.5009
5089 1 44.7933 22.7896 7.0726
5090 1 46.365 24.3613 8.6443
5091 1 44.7933 22.7896 10.216
5092 1 46.365 24.3613 11.7877
5093 1 44.7933 22.7896 13.3594
5094 1 46.365 24.3613 14.9311
5095 1 44.7933 22.7896 16.5028
5096 1 46.365 24.3613 18.0745
5097 1 44.7933 22.7896 19.6462
5098 1 46.365 24.3613 21.2179
5099 1 44.7933 22.7896 22.7896
5100 1 46.365 24.3613 24.3613
5101 1 44.7933 22.7896 25.933
5102 1 46.365 24.3613 27.5047
5103 1 44.7933 22.7896 29.0764
5104 1 46.365 24.3613 30.6481
5105 1 44.7933 22.7896 32.2197
5106 1 46.365 24.3613 33.7914
5107 1 44.7933 22.7896 35.3631
5108 1 46.365 24.3613 36.9348
5109 1 44.7933 22.7896 38.5065
5110 1 46.365 24.3613 40.0782
5111 1 44.7933 22.7896 41.6499
5112 1 46.365 24.3613 43.2216
5113 1 44.7933 22.7896 44.7933
5114 1 46.365 24.3613 46.365
5115 1 44.7933 22.7896 47.9367
5116 1 46.365 24.3613 49.5084
5117 1 44.7933 25.933 0.7858
5118 1 46.365 27.5047 2.3575
5119 1 44.7933 25.933 3.9292
5120 1 46.365 27.5047 5.5009
5121 1 44.7933 25.933 7.0726
5122 1 46.365 27.5047 8.6443
5123 1 44.7933 25.933 10.216
5124 1 46.365 27.5047 11.7877
5125 1 44.7933 25.933 13.3594
5126 1 46.365 27.5047 14.9311
5127 1 44.7933 25.933 16.5028
5128 1 46.365 27.5047 18.0745
5129 1 44.7933 25.933 19.6462
5130 1 46.365 27.5047 21.2179
5131 1 44.7933 25.933 22.7896
5132 1 46.365 27.5047 24.3613
5133 1 44.7933 25.933 25.933
5134 1 46.365 27.5047 27.5047
5135 1 44.7933 25.933 29.0764
5136 1 46.365 27.5047 30.6481
5137 1 44.7933 25.933 32.2197
5138 1 46.365 27.5047 33.7914
5139 1 44.7933 25.933 35.3631
5140 1 46.365 27.5047 36.9348
5141 1 44.7933 25.933 38.5065
5142 1 46.365 27.5047 40.0782
5143 1 44.7933 25.933 41.6499
5144 1 46.365 27.5047 43.2216
5145 1 44.7933 25.933 44.7933
5146 1 46.365 27.5047 46.365
5147 1 44.7933 25.933 47.9367
5148 1 46.365 27.5047 49.5084
5149 1 44.7933 29.0764 0.7858
5150 1 46.365 30.6481 2.3575
5151 1 44.7933 29.0764 3.9292
5152 1 46.365 30.6481 5.5009
5153 1 44.7933 29.0764 7.0726
5154 1 46.365 30.6481 8.6443
5155 1 44.7933 29.0764 10.216
5156 1 46.365 30.6481 11.7877
5157 1 44.7933 29.0764 13.3594
5158 1 46.365 30.6481 14.9311
5159 1 44.7933 29.0764 16.5028
5160 1 46.365 30.6481 18.0745
5161 1 44.7933 29.0764 19.6462
5162 1 46.365 30.6481 21.2179
5163 1 44.7933 29.0764 22.7896
5164 1 46.365 30.6481 24.3613
5165 1 44.7933 29.0764 25.933
5166 1 46.365 30.6481 27.5047
5167 1 44.7933 29.0764 29.0764
5168 1 46.365 30.6481 30.6481
5169 1 44.7933 29.0764 32.2197
5170 1 46.365 30.6481 33.7914
5171 1 44.7933 29.0764 35.3631
5172 1 46.365 30.6481 36.9348
5173 1 44.7933 29.0764 38.5065
5174 1 46.365 30.6481 40.0782
5175 1 44.7933 29.0764 41.6499
5176 1 46.365 30.6481 43.2216
5177 1 44.7933 29.0764 44.7933
5178 1 46.365 30.6481 46.365
5179 1 44.7933 29.0764 47.9367
5180 1 46.365 30.6481 49.5084
5181 1 44.7933 32.2197 0.7858
5182 1 46.365 33.7914 2.3575
5183 1 44.7933 32.2197 3.9292
5184 1 46.365 33.7914 5.5009
5185 1 44.7933 32.2197 7.0726
5186 1 46.365 33.7914 8.6443
5187 1 44.7933 32.2197 10.216
5188 1 46.365 33.7914 11.7877
5189 1 44.7933 32.2197 13.3594
5190 1 46.365 33.7914 14.9311
5191 1 44.7933 32.2197 16.5028
5192 1 46.365 33.7914 18.0745
5193 1 44.7933 32.2197 19.6462
5194 1 46.365 33.7914 21.2179
5195 1 44.7933 32.2197 22.7896
5196 1 46.365 33.7914 24.3613
5197 1 44.7933 32.2197 25.933
5198 1 46.365 33.7914 27.5047
5199 1 44.7933 32.2197 29.0764
5200 1 46.365 33.7914 30.6481
5201 1 44.7933 32.2197 32.2197
5202 1 46.365 33.7914 33.7914
5203 1 44.7933 32.2197 35.3631
5204 1 46.365 33.7914 36.9348
5205 1 44.7933 32.2197 38.5065
5206 1 46.365 33.7914 40.0782
5207 1 44.7933 32.2197 41.6499
5208 1 46.365 33.7914 43.2216
5209 1 44.7933 32.2197 44.7933
5210 1 46.365 33.7914 46.365
5211 1 44.7933 32.2197 47.9367
5212 1 46.365 33.7914 49.5084
5213 1 44.7933 35.3631 0.7858
5214 1 46.365 36.9348 2.3575
5215 1 44.7933 35.3631 3.9292
5216 1 46.365 36.9348 5.5009
5217 1 44.7933 35.3631 7.0726
5218 1 46.365 36.9348 8.6443
5219 1 44.7933 35.3631 10.216
5220 1 46.365 36.9348 11.7877
5221 1 44.7933 35.3631 13.3594
5222 1 46.365 36.9348 14.9311
5223 1 44.7933 35.3631 16.5028
5224 1 46.365 36.9348 18.0745
5225 1 44.7933 35.3631 19.6462
5226 1 46.365 36.9348 21.2179
5227 1 44.7933 35.3631 22.7896
5228 1 46.365 36.9348 24.3613
5229 1 44.7933 35.3631 25.933
5230 1 46.365 36.9348 27.5047
5231 1 44.7933 35.3631 29.0764
5232 1 46.365 36.9348 30.6481
5233 1 44.7933 35.3631 32.2197
5234 1 46.365 36.9348 33.7914
5235 1 44.7933 35.3631 35.3631
5236 1 46.365 36.9348 36.9348
5237 1 44.7933 35.3631 38.5065
5238 1 46.365 36.9348 40.0782
5239 1 44.7933 35.3631 41.6499
5240 1 46.365 36.9348 43.2216
5241 1 44.7933 35.3631 44.7933
5242 1 46.365 36.9348 46.365
5243 1 44.7933 35.3631 47.9367
5244 1 46.365 36.9348 49.5084
5245 1 44.7933 38.5065 0.7858
5246 1 46.365 40.0782 2.3575
5247 1 44.7933 38.5065 3.9292
5248 1 46.365 40.0782 5.5009
5249 1 44.7933 38.5065 7.0726
5250 1 46.365 40.0782 8.6443
5251 1 44.7933 38.5065 10.216
5252 1 46.365 40.0782 11.7877
5253 1 44.7933 38.5065 13.3594
5254 1 46.365 40.0782 14.9311
5255 1 44.7933 38.5065 16.5028
5256 1 46.365 40.0782 18.0745
5257 1 44.7933 38.5065 19.6462
5258 1 46.365 40.0782 21.2179
5259 1 44.7933 38.5065 22.7896
5260 1 46.365 40.0782 24.3613
5261 1 44.7933 38.5065 25.933
5262 1 46.365 40.0782 27.5047
5263 1 44.7933 38.5065 29.0764
5264 1 46.365 40.0782 30.6481
5265 1 44.7933 38.5065 32.2197
5266 1 46.365 40.0782 33.7914
5267 1 44.7933 38.5065 35.3631
5268 1 46.365 40.0782 36.9348
5269 1 44.7933 38.5065 38.5065
5270 1 46.365 40.0782 40.0782
5271 1 44.7933 38.5065 41.6499
5272 1 46.365 40.0782 43.2216
5273 1 44.7933 38.5065 44.7933
5274 1 46.365 40.0782 46.365
5275 1 44.7933 38.5065 47.9367
5276 1 46.365 40.0782 49.5084
5277 1 44.7933 41.6499 0.7858
5278 1 46.365 43.2216 2.3575
5279 1 44.7933 41.6499 3.9292
5280 1 46.365 43.2216 5.5009
5281 1 44.7933 41.6499 7.0726
5282 1 46.365 43.2216 8.6443
5283 1 44.7933 41.6499 10.216
5284 1 46.365 43.2216 11.7877
5285 1 44.7933 41.6499 13.3594
5286 1 46.365 43.2216 14.9311
5287 1 44.7933 41.6499 16.5028
5288 1 46.365 43.2216 18.0745
5289 1 44.7933 41.6499 19.6462
5290 1 46.365 43.2216 21.2179
5291 1 44.7933 41.6499 22.7896
5292 1 46.365 43.2216 24.3613
5293 1 44.7933 41.6499 25.933
5294 1 46.365 43.2216 27.5047
5295 1 44.7933 41.6499 29.0764
5296 1 46.365 43.2216 30.6481
5297 1 44.7933 41.6499 32.2197
5298 1 46.365 43.2216 33.7914
5299 1 44.7933 41.6499 35.3631
5300 1 46.365 43.2216 36.9348
5301 1 44.7933 41.6499 38.5065
5302 1 46.365 43.2216 40.0782
5303 1 44.7933 41.6499 41.6499
5304 1 46.365 43.2216 43.2216
5305 1 44.7933 41.6499 44.7933
5306 1 46.365 43.2216 46.365
5307 1 44.7933 41.6499 47.9367
5308 1 46.365 43.2216 49.5084
5309 1 44.7933 44.7933 0.7858
5310 1 46.365 46.365 2.3575
5311 1 44.7933 44.7933 3.9292
5312 1 46.365 46.365 5.5009
5313 1 44.7933 44.7933 7.0726
5314 1 46.365 46.365 8.6443
5315 1 44.7933 44.7933 10.216
5316 1 46.365 46.365 11.7877
5317 1 44.7933 44.7933 13.3594
5318 1 46.365 46.365 14.9311
5319 1 44.7933 44.7933 16.5028
5320 1 46.365 46.365 18.0745
5321 1 44.7933 44.7933 19.6462
5322 1 46.365 46.365 21.2179
5323 1 44.7933 44.7933 22.7896
5324 1 46.365 46.365 24.3613
5325 1 44.7933 44.7933 25.933
5326 1 46.365 46.365 27.5047
5327 1 44.7933 44.7933 29.0764
5328 1 46.365 46.365 30.6481
5329 1 44.7933 44.7933 32.2197
5330 1 46.365 46.365 33.7914
5331 1 44.7933 44.7933 35.3631
5332 1 46.365 46.365 36.9348
5333 1 44.7933 44.7933 38.5065
5334 1 46.365 46.365 40.0782
5335 1 44.7933 44.7933 41.6499
5336 1 46.365 46.365 43.2216
5337 1 44.7933 44.7933 44.7933
5338 1 46.365 46.365 46.365
5339 1 44.7933 44.7933 47.9367
5340 1 46.365 46.365 49.5084
5341 1 44.7933 47.9367 0.7858
5342 1 46.365 49.5084 2.3575
5343 1 44.7933 47.9367 3.9292
5344 1 46.365 49.5084 5.5009
5345 1 44.7933 47.9367 7.0726
5346 1 46.365 49.5084 8.6443
5347 1 44.7933 47.9367 10.216
5348 1 46.365 49.5084 11.7877
5349 1 44.7933 47.9367 13.3594
5350 1 46.365 49.5084 14.9311
5351 1 44.7933 47.9367 16.5028
5352 1 46.365 49.5084 18.0745
5353 1 44.7933 47.9367 19.6462
5354 1 46.365 49.5084 21.2179
5355 1 44.7933 47.9367 22.7896
5356 1 46.365 49.5084 24.3613
5357 1 44.7933 47.9367 25.933
5358 1 46.365 49.5084 27.5047
5359 1 44.7933 47.9367 29.0764
5360 1 46.365 49.5084 30.6481
5361 1 44.7933 47.9367 32.2197
5362 1 46.365 49.5084 33.7914
5363 1 44.7933 47.9367 35.3631
5364 1 46.365 49.5084 36.9348
5365 1 44.7933 47.9367 38.5065
5366 1 46.365 49.5084 40.0782
5367 1 44.7933 47.9367 41.6499
5368 1 46.365 49.5084 43.2216
5369 1 44.7933 47.9367 44.7933
5370 1 46.365 49.5084 46.365
5371 1 44.7933 47.9367 47.9367
5372 1 46.365 49.5084 49.5084
5373 1 47.9367 0.7858 0.7858
5374 1 49.5084 2.3575 2.3575
5375 1 47.9367 0.7858 3.9292
5376 1 49.5084 2.3575 5.5009
5377 1 47.9367 0.7858 7.0726
5378 1 49.5084 2.3575 8.6443
5379 1 47.9367 0.7858 10.216
5380 1 49.5084 2.3575 11.7877
5381 1 47.9367 0.7858 13.3594
5382 1 49.5084 2.3575 14.9311
5383 1 47.9367 0.7858 16.5028
5384 1 49.5084 2.3575 18.0745
5385 1 47.9367 0.7858 19.6462
5386 1 49.5084 2.3575 21.2179
5387 1 47.9367 0.7858 22.7896
5388 1 49.5084 2.3575 24.3613
5389 1 47.9367 0.7858 25.933
5390 1 49.5084 2.3575 27.5047
5391 1 47.9367 0.7858 29.0764
5392 1 49.5084 2.3575 30.6481
5393 1 47.9367 0.7858 32.2197
5394 1 49.5084 2.3575 33.7914
5395 1 47.9367 0.7858 35.3631
5396 1 49.5084 2.3575 36.9348
5397 1 47.9367 0.7858 38.5065
5398 1 49.5084 2.3575 40.0782
5399 1 47.9367 0.7858 41.6499
5400 1 49.5084 2.3575 43.2216
5401 1 47.9367 0.7858 44.7933
5402 1 49.5084 2.3575 46.365
5403 1 47.9367 0.7858 47.9367
5404 1 49.5084 2.3575 49.5084
5405 1 47.9367 3.9292 0.7858
5406 1 49.5084 5.5009 2.3575
5407 1 47.9367 3.9292 3.9292
5408 1 49.5084 5.5009 5.5009
5409 1 47.9367 3.9292 7.0726
5410 1 49.5084 5.5009 8.6443
5411 1 47.9367 3.9292 10.216
5412 1 49.5084 5.5009 11.7877
5413 1 47.9367 3.9292 13.3594
5414 1 49.5084 5.5009 14.9311
5415 1 47.9367 3.9292 16.5028
5416 1 49.5084 5.5009 18.0745
5417 1 47.9367 3.9292 19.6462
5418 1 49.5084 5.5009 21.2179
5419 1 47.9367 3.9292 22.7896
5420 1 49.5084 5.5009 24.3613
5421 1 47.9367 3.9292 25.933
5422 1 49.5084 5.5009 27.5047
5423 1 47.9367 3.9292 29.0764
5424 1 49.5084 5.5009 30.6481
5425 1 47.9367 3.9292 32.2197
5426 1 49.5084 5.5009 33.7914
5427 1 47.9367 3.9292 35.3631
5428 1 49.5084 5.5009 36.9348
5429 1 47.9367 3.9292 38.5065
5430 1 49.5084 5.5009 40.0782
5431 1 47.9367 3.9292 41.6499
5432 1 49.5084 5.5009 43.2216
5433 1 47.9367 3.9292 44.7933
5434 1 49.5084 5.5009 46.365
5435 1 47.9367 3.9292 47.9367
5436 1 49.5084 5.5009 49.5084
5437 1 47.9367 7.0726 0.7858
5438 1 49.5084 8.6443 2.3575
5439 1 47.9367 7.0726 3.9292
5440 1 49.5084 8.6443 5.5009
5441 1 47.9367 7.0726 7.0726
5442 1 49.5084 8.6443 8.6443
5443 1 47.9367 7.0726 10.216
5444 1 49.5084 8.6443 11.7877
5445 1 47.9367 7.0726 13.3594
5446 1 49.5084 8.6443 14.9311
5447 1 47.9367 7.0726 16.5028
5448 1 49.5084 8.6443 18.0745
5449 1 47.9367 7.0726 19.6462
5450 1 49.5084 8.6443 21.2179
5451 1 47.9367 7.0726 22.7896
5452 1 49.5084 8.6443 24.3613
5453 1 47.9367 7.0726 25.933
5454 1 49.5084 8.6443 27.5047
5455 1 47.9367 7.0726 29.0764
5456 1 49.5084 8.6443 30.6481
5457 1 47.9367 7.0726 32.2197
5458 1 49.5084 8.6443 33.7914
5459 1 47.9367 7.0726 35.3631
5460 1 49.5084 8.6443 36.9348
5461 1 47.9367 7.0726 38.5065
5462 1 49.5084 8.6443 40.0782
5463 1 47.9367 7.0726 41.6499
5464 1 49.5084 8.6443 43.2216
5465 1 47.9367 7.0726 44.7933
5466 1 49.5084 8.6443 46.365
5467 1 47.9367 7.0726 47.9367
5468 1 49.5084 8.6443 49.5084
5469 1 47.9367 10.216 0.7858
5470 1 49.5084 11.7877 2.3575
5471 1 47.9367 10.216 3.9292
5472 1 49.5084 11.7877 5.5009
5473 1 47.9367 10.216 7.0726
5474 1 49.5084 11.7877 8.6443
5475 1 47.9367 10.216 10.216
5476 1 49.5084 11.7877 11.7877
5477 1 47.9367 10.216 13.3594
5478 1 49.5084 11.7877 14.9311
5479 1 47.9367 10.216 16.5028
5480 1 49.5084 11.7877 18.0745
5481 1 47.9367 10.216 19.6462
5482 1 49.5084 11.7877 21.2179
5483 1 47.9367 10.216 22.7896
5484 1 49.5084 11.7877 24.3613
5485 1 47.9367 10.216 25.933
5486 1 49.5084 11.7877 27.5047
5487 1 47.9367 10.216 29.0764
5488 1 49.5084 11.7877 30.6481
5489 1 47.9367 10.216 32.2197
5490 1 49.5084 11.7877 33.7914
5491 1 47.9367 10.216 35.3631
5492 1 49.5084 11.7877 36.9348
5493 1 47.9367 10.216 38.5065
5494 1 49.5084 11.7877 40.0782
5495 1 47.9367 10.216 41.6499
5496 1 49.5084 11.7877 43.2216
5497 1 47.9367 10.216 44.7933
5498 1 49.5084 11.7877 46.365
5499 1 47.9367 10.216 47.9367
5500 1 49.5084 11.7877 49.5084
5501 1 47.9367 13.3594 0.7858
5502 1 49.5084 14.9311 2.3575
5503 1 47.9367 13.3594 3.9292
5504 1 49.5084 14.9311 5.5009
5505 1 47.9367 13.3594 7.0726
5506 1 49.5084 14.9311 8.6443
5507 1 47.9367 13.3594 10.216
5508 1 49.5084 14.9311 11.7877
5509 1 47.9367 13.3594 13.3594
5510 1 49.5084 14.9311 14.9311
5511 1 47.9367 13.3594 16.5028
5512 1 49.5084 14.9311 18.0745
5513 1 47.9367 13.3594 19.6462
5514 1 49.5084 14.9311 21.2179
5515 1 47.9367 13.3594 22.7896
5516 1 49.5084 14.9311 24.3613
5517 1 47.9367 13.3594 25.933
5518 1 49.5084 14.9311 27.5047
5519 1 47.9367 13.3594 29.0764
5520 1 49.5084 14.9311 30.6481
5521 1 47.9367 13.3594 32.2197
5522 1 49.5084 14.9311 33.7914
5523 1 47.9367 13.3594 35.3631
5524 1 49.5084 14.9311 36.9348
5525 1 47.9367 13.3594 38.5065
5526 1 49.5084 14.9311 40.0782
5527 1 47.9367 13.3594 41.6499
5528 1 49.5084 14.9311 43.2216
5529 1 47.9367 13.3594 44.7933
5530 1 49.5084 14.9311 46.365
5531 1 47.9367 13.3594 47.9367
5532 1 49.5084 14.9311 49.5084
5533 1 47.9367 16.5028 0.7858
5534 1 49.5084 18.0745 2.3575
5535 1 47.9367 16.5028 3.9292
5536 1 49.5084 18.0745 5.5009
5537 1 47.9367 16.5028 7.0726
5538 1 49.5084 18.0745 8.6443
5539 1 47.9367 16.5028 10.216
5540 1 49.5084 18.0745 11.7877
5541 1 47.9367 16.5028 13.3594
5542 1 49.5084 18.0745 14.9311
5543 1 47.9367 16.5028 16.5028
5544 1 49.5084 18.0745 18.0745
5545 1 47.9367 16.5028 19.6462
5546 1 49.5084 18.0745 21.2179
5547 1 47.9367 16.5028 22.7896
5548 1 49.5084 18.0745 24.3613
5549 1 47.9367 16.5028 25.933
5550 1 49.5084 18.0745 27.5047
5551 1 47.9367 16.5028 29.0764
5552 1 49.5084 18.0745 30.6481
5553 1 47.9367 16.5028 32.2197
5554 1 49.5084 18.0745 33.7914
5555 1 47.9367 16.5028 35.3631
5556 1 49.5084 18.0745 36.9348
5557 1 47.9367 16.5028 38.5065
5558 1 49.5084 18.0745 40.0782
5559 1 47.9367 16.5028 41.6499
5560 1 49.5084 18.0745 43.2216
5561 1 47.9367 16.5028 44.7933
5562 1 49.5084 18.0745 46.365
5563 1 47.9367 16.5028 47.9367
5564 1 49.5084 18.0745 49.5084
5565 1 47.9367 19.6462 0.7858
5566 1 49.5084 21.2179 2.3575
5567 1 47.9367 19.6462 3.9292
5568 1 49.5084 21.2179 5.5009
5569 1 47.9367 19.6462 7.0726
5570 1 49.5084 21.2179 8.6443
5571 1 47.9367 19.6462 10.216
5572 1 49.5084 21.2179 11.7877
5573 1 47.9367 19.6462 13.3594
5574 1 49.5084 21.2179 14.9311
5575 1 47.9367 19.6462 16.5028
5576 1 49.5084 21.2179 18.0745
5577 1 47.9367 19.6462 19.6462
5578 1 49.5084 21.2179 21.2179
5579 1 47.9367 19.6462 22.7896
5580 1 49.5084 21.2179 24.3613
5581 1 47.9367 19.6462 25.933
5582 1 49.5084 21.2179 27.5047
5583 1 47.9367 19.6462 29.0764
5584 1 49.5084 21.2179 30.6481
5585 1 47.9367 19.6462 32.2197
5586 1 49.5084 21.2179 33.7914
5587 1 47.9367 19.6462 35.3631
5588 1 49.5084 21.2179 36.9348
5589 1 47.9367 19.6462 38.5065
5590 1 49.5084 21.2179 40.0782
5591 1 47.9367 19.6462 41.6499
5592 1 49.5084 21.2179 43.2216
5593 1 47.9367 19.6462 44.7933
5594 1 49.5084 21.2179 46.365
5595 1 47.9367 19.6462 47.9367
5596 1 49.5084 21.2179 49.5084
5597 1 47.9367 22.7896 0.7858
5598 1 49.5084 24.3613 2.3575
5599 1 47.9367 22.7896 3.9292
5600 1 49.5084 24.3613 5.5009
5601 1 47.9367 22.7896 7.0726
5602 1 49.5084 24.3613 8.6443
5603 1 47.9367 22.7896 10.216
5604 1 49.5084 24.3613 11.7877
5605 1 47.9367 22.7896 13.3594
5606 1 49.5084 24.3613 14.9311
5607 1 47.9367 22.7896 16.5028
5608 1 49.5084 24.3613 18.0745
5609 1 47.9367 22.7896 19.6462
5610 1 49.5084 24.3613 21.2179
5611 1 47.9367 22.7896 22.7896
5612 1 49.5084 24.3613 24.3613
5613 1 47.9367 22.7896 25.933
5614 1 49.5084 24.3613 27.5047
5615 1 47.9367 22.7896 29.0764
5616 1 49.5084 24.3613 30.6481
5617 1 47.9367 22.7896 32.2197
5618 1 49.5084 24.3613 33.7914
5619 1 47.9367 22.7896 35.3631
5620 1 49.5084 24.3613 36.9348
5621 1 47.9367 22.7896 38.5065
5622 1 49.5084 24.3613 40.0782
5623 1 47.9367 22.7896 41.6499
5624 1 49.5084 24.3613 43.2216
5625 1 47.9367 22.7896 44.7933
5626 1 49.5084 24.3613 46.365
5627 1 47.9367 22.7896 47.9367
5628 1 49.5084 24.3613 49.5084
5629 1 47.9367 25.933 0.7858
5630 1 49.5084 27.5047 2.3575
5631 1 47.9367 25.933 3.9292
5632 1 49.5084 27.5047 5.5009
5633 1 47.9367 25.933 7.0726
5634 1 49.5084 27.5047 8.6443
5635 1 47.9367 25.933 10.216
5636 1 49.5084 27.5047 11.7877
5637 1 47.9367 25.933 13.3594
5638 1 49.5084 27.5047 14.9311
5639 1 47.9367 25.933 16.5028
5640 1 49.5084 27.5047 18.0745
5641 1 47.9367 25.933 19.6462
5642 1 49.5084 27.5047 21.2179
5643 1 47.9367 25.933 22.7896
5644 1 49.5084 27.5047 24.3613
5645 1 47.9367 25.933 25.933
5646 1 49.5084 27.5047 27.5047
5647 1 47.9367 25.933 29.0764
5648 1 49.5084 27.5047 30.6481
5649 1 47.9367 25.933 32.2197
5650 1 49.5084 27.5047 33.7914
5651 1 47.9367 25.933 35.3631
5652 1 49.5084 27.5047 36.9348
5653 1 47.9367 25.933 38.5065
5654 1 49.5084 27.5047 40.0782
5655 1 47.9367 25.933 41.6499
5656 1 49.5084 27.5047 43.2216
5657 1 47.9367 25.933 44.7933
5658 1 49.5084 27.5047 46.365
5659 1 47.9367 25.933 47.9367
5660 1 49.5084 27.5047 49.5084
5661 1 47.9367 29.0764 0.7858
5662 1 49.5084 30.6481 2.3575
5663 1 47.9367 29.0764 3.9292
5664 1 49.5084 30.6481 5.5009
5665 1 47.9367 29.0764 7.0726
5666 1 49.5084 30.6481 8.6443
5667 1 47.9367 29.0764 10.216
5668 1 49.5084 30.6481 11.7877
5669 1 47.9367 29.0764 13.3594
5670 1 49.5084 30.6481 14.9311
5671 1 47.9367 29.0764 16.5028
5672 1 49.5084 30.6481 18.0745
5673 1 47.9367 29.0764 19.6462
5674 1 49.5084 30.6481 21.2179
5675 1 47.9367 29.0764 22.7896
5676 1 49.5084 30.6481 24.3613
5677 1 47.9367 29.0764 25.933
5678 1 49.5084 30.6481 27.5047
5679 1 47.9367 29.0764 29.0764
5680 1 49.5084 30.6481 30.6481
5681 1 47.9367 29.0764 32.2197
5682 1 49.5084 30.6481 33.7914
5683 1 47.9367 29.0764 35.3631
5684 1 49.5084 30.6481 36.9348
5685 1 47.9367 29.0764 38.5065
5686 1 49.5084 30.6481 40.0782
5687 1 47.9367 29.0764 41.6499
5688 1 49.5084 30.6481 43.2216
5689 1 47.9367 29.0764 44.7933
5690 1 49.5084 30.6481 46.365
5691 1 47.9367 29.0764 47.9367
5692 1 49.5084 30.6481 49.5084
5693 1 47.9367 32.2197 0.7858
5694 1 49.5084 33.7914 2.3575
5695 1 47.9367 32.2197 3.9292
5696 1 49.5084 33.7914 5.5009
5697 1 47.9367 32.2197 7.0726
5698 1 49.5084 33.7914 8.6443
5699 1 47.9367 32.2197 10.216
5700 1 49.5084 33.7914 11.7877
5701 1 47.9367 32.2197 13.3594
5702 1 49.5084 33.7914 14.9311
5703 1 47.9367 32.2197 16.5028
5704 1 49.5084 33.7914 18.0745
5705 1 47.9367 32.2197 19.6462
5706 1 49.5084 33.7914 21.2179
5707 1 47.9367 32.2197 22.7896
5708 1 49.5084 33.7914 24.3613
5709 1 47.9367 32.2197 25.933
5710 1 49.5084 33.7914 27.5047
5711 1 47.9367 32.2197 29.0764
5712 1 49.5084 33.7914 30.6481
5713 1 47.9367 32.2197 32.2197
5714 1 49.5084 33.7914 33.7914
5715 1 47.9367 32.2197 35.3631
5716 1 49.5084 33.7914 36.9348
5717 1 47.9367 32.2197 38.5065
5718 1 49.5084 33.7914 40.0782
5719 1 47.9367 32.2197 41.6499
5720 1 49.5084 33.7914 43.2216
5721 1 47.9367 32.2197 44.7933
5722 1 49.5084 33.7914 46.365
5723 1 47.9367 32.2197 47.9367
5724 1 49.5084 33.7914 49.5084
5725 1 47.9367 35.3631 0.7858
5726 1 49.5084 36.9348 2.3575
5727 1 47.9367 35.3631 3.9292
5728 1 49.5084 36.9348 5.5009
5729 1 47.9367 35.3631 7.0726
5730 1 49.5084 36.9348 8.6443
5731 1 47.9367 35.3631 10.216
5732 1 49.5084 36.9348 11.7877
5733 1 47.9367 35.3631 13.3594
5734 1 49.5084 36.9348 14.9311
5735 1 47.9367 35.3631 16.5028
5736 1 49.5084 36.9348 18.0745
5737 1 47.9367 35.3631 19.6462
5738 1 49.5084 36.9348 21.2179
5739 1 47.9367 35.3631 22.7896
5740 1 49.5084 36.9348 24.3613
5741 1 47.9367 35.3631 25.933
5742 1 49.5084 36.9348 27.5047
5743 1 47.9367 35.3631 29.0764
5744 1 49.5084 36.9348 30.6481
5745 1 47.9367 35.3631 32.2197
5746 1 49.5084 36.9348 33.7914
5747 1 47.9367 35.3631 35.3631
5748 1 49.5084 36.9348 36.9348
5749 1 47.9367 35.3631 38.5065
5750 1 49.5084 36.9348 40.0782
5751 1 47.9367 35.3631 41.6499
5752 1 49.5084 36.9348 43.2216
5753 1 47.9367 35.3631 44.7933
5754 1 49.5084 36.9348 46.365
5755 1 47.9367 35.3631 47.9367
5756 1 49.5084 36.9348 49.5084
5757 1 47.9367 38.5065 0.7858
5758 1 49.5084 40.0782 2.3575
5759 1 47.9367 38.5065 3.9292
5760 1 49.5084 40.0782 5.5009
5761 1 47.9367 38.5065 7.0726
5762 1 49.5084 40.0782 8.6443
5763 1 47.9367 38.5065 10.216
5764 1 49.5084 40.0782 11.7877
5765 1 47.9367 38.5065 13.3594
5766 1 49.5084 40.0782 14.9311
5767 1 47.9367 38.5065 16.5028
5768 1 49.5084 40.0782 18.0745
5769 1 47.9367 38.5065 19.6462
5770 1 49.5084 40.0782 21.2179
5771 1 47.9367 38.5065 22.7896
5772 1 49.5084 40.0782 24.3613
5773 1 47.9367 38.5065 25.933
5774 1 49.5084 40.0782 27.5047
5775 1 47.9367 38.5065 29.0764
5776 1 49.5084 40.0782 30.6481
5777 1 47.9367 38.5065 32.2197
5778 1 49.5084 40.0782 33.7914
5779 1 47.9367 38.5065 35.3631
5780 1 49.5084 40.0782 36.9348
5781 1 47.9367 38.5065 38.5065
5782 1 49.5084 40.0782 40.0782
5783 1 47.9367 38.5065 41.6499
5784 1 49.5084 40.0782 43.2216
5785 1 47.9367 38.5065 44.7933
5786 1 49.5084 40.0782 46.365
5787 1 47.9367 38.5065 47.9367
5788 1 49.5084 40.0782 49.5084
5789 1 47.9367 41.6499 0.7858
5790 1 49.5084 43.2216 2.3575
5791 1 47.9367 41.6499 3.9292
5792 1 49.5084 43.2216 5.5009
5793 1 47.9367 41.6499 7.0726
5794 1 49.5084 43.2216 8.6443
5795 1 47.9367 41.6499 10.216
5796 1 49.5084 43.2216 11.7877
5797 1 47.9367 41.6499 13.3594
5798 1 49.5084 43.2216 14.9311
5799 1 47.9367 41.6499 16.5028
5800 1 49.5084 43.2216 18.0745
5801 1 47.9367 41.6499 19.6462
5802 1 49.5084 43.2216 21.2179
5803 1 47.9367 41.6499 22.7896
5804 1 49.5084 43.2216 24.3613
5805 1 47.9367 41.6499 25.933
5806 1 49.5084 43.2216 27.5047
5807 1 47.9367 41.6499 29.0764
5808 1 49.5084 43.2216 30.6481
5809 1 47.9367 41.6499 32.2197
5810 1 49.5084 43.2216 33.7914
5811 1 47.9367 41.6499 35.3631
5812 1 49.5084 43.2216 36.9348
5813 1 47.9367 41.6499 38.5065
5814 1 49.5084 43.2216 40.0782
5815 1 47.9367 41.6499 41.6499
5816 1 49.5084 43.2216 43.2216
5817 1 47.9367 41.6499 44.7933
5818 1 49.5084 43.2216 46.365
5819 1 47.9367 41.6499 47.9367
5820 1 49.5084 43.2216 49.5084
5821 1 47.9367 44.7933 0.7858
5822 1 49.5084 46.365 2.3575
5823 1 47.9367 44.7933 3.9292
5824 1 49.5084 46.365 5.5009
5825 1 47.9367 44.7933 7.0726
5826 1 49.5084 46.365 8.6443
5827 1 47.9367 44.7933 10.216
5828 1 49.5084 46.365 11.7877
5829 1 47.9367 44.7933 13.3594
5830 1 49.5084 46.365 14.9311
5831 1 47.9367 44.7933 16.5028
5832 1 49.5084 46.365 18.0745
5833 1 47.9367 44.7933 19.6462
5834 1 49.5084 46.365 21.2179
5835 1 47.9367 44.7933 22.7896
5836 1 49.5084 46.365 24.3613
5837 1 47.9367 44.7933 25.933
5838 1 49.5084 46.365 27.5047
5839 1 47.9367 44.7933 29.0764
5840 1 49.5084 46.365 30.6481
5841 1 47.9367 44.7933 32.2197
5842 1 49.5084 46.365 33.7914
5843 1 47.9367 44.7933 35.3631
5844 1 49.5084 46.365 36.9348
5845 1 47.9367 44.7933 38.5065
5846 1 49.5084 46.365 40.0782
5847 1 47.9367 44.7933 41.6499
5848 1 49.5084 46.365 43.2216
5849 1 47.9367 44.7933 44.7933
5850 1 49.5084 46.365 46.365
5851 1 47.9367 44.7933 47.9367
5852 1 49.5084 46.365 49.5084
5853 1 47.9367 47.9367 0.7858
5854 1 49.5084 49.5084 2.3575
5855 1 47.9367 47.9367 3.9292
5856 1 49.5084 49.5084 5.5009
5857 1 47.9367 47.9367 7.0726
5858 1 49.5084 49.5084 8.6443
5859 1 47.9367 47.9367 10.216
5860 1 49.5084 49.5084 11.7877
5861 1 47.9367 47.9367 13.3594
5862 1 49.5084 49.5084 14.9311
5863 1 47.9367 47.9367 16.5028
5864 1 49.5084 49.5084 18.0745
5865 1 47.9367 47.9367 19.6462
5866 1 49.5084 49.5084 21.2179
5867 1 47.9367 47.9367 22.7896
5868 1 49.5084 49.5084 24.3613
5869 1 47.9367 47.9367 25.933
5870 1 49.5084 49.5084 27.5047
5871 1 47.9367 47.9367 29.0764
5872 1 49.5084 49.5084 30.6481
5873 1 47.9367 47.9367 32.2197
5874 1 49.5084 49.5084 33.7914
5875 1 47.9367 47.9367 35.3631
5876 1 49.5084 49.5084 36.9348
5877 1 47.9367 47.9367 38.5065
5878 1 49.5084 49.5084 40.0782
5879 1 47.9367 47.9367 41.6499
5880 1 49.5084 49.5084 43.2216
5881 1 47.9367 47.9367 44.7933
5882 1 49.5084 49.5084 46.365
5883 1 47.9367 47.9367 47.9367
5884 1 49.5084 49.5084 49.5084
5885 1 13.3594 0.7858 0.7858
5886 1 14.9311 2.3575 2.3575
5887 1 13.3594 0.7858 3.9292
5888 1 14.9311 2.3575 5.5009
5889 1 13.3594 0.7858 7.0726
5890 1 14.9311 2.3575 8.6443
5891 1 13.3594 3.9292 0.7858
5892 1 14.9311 5.5009 2.3575
5893 1 13.3594 3.9292 3.9292
5894 1 14.9311 5.5009 5.5009
5895 1 13.3594 3.9292 7.0726
5896 1 14.9311 5.5009 8.6443
5897 1 13.3594 7.0726 0.7858
5898 1 14.9311 8.6443 2.3575
5899 1 13.3594 7.0726 3.9292
5900 1 14.9311 8.6443 5.5009
5901 1 13.3594 7.0726 7.0726
5902 1 14.9311 8.6443 8.6443
5903 1 13.3594 10.216 0.7858
5904 1 14.9311 11.7877 2.3575
5905 1 13.3594 10.216 3.9292
5906 1 14.9311 11.7877 5.5009
5907 1 13.3594 10.216 7.0726
5908 1 14.9311 11.7877 8.6443
5909 1 13.3594 13.3594 0.7858
5910 1 14.9311 14.9311 2.3575
5911 1 13.3594 13.3594 3.9292
5912 1 14.9311 14.9311 5.5009
5913 1 13.3594 13.3594 7.0726
5914 1 14.9311 14.9311 8.6443
5915 1 13.3594 16.5028 0.7858
5916 1 14.9311 18.0745 2.3575
5917 1 13.3594 16.5028 3.9292
5918 1 14.9311 18.0745 5.5009
5919 1 13.3594 16.5028 7.0726
5920 1 14.9311 18.0745 8.6443
5921 1 13.3594 19.6462 0.7858
5922 1 14.9311 21.2179 2.3575
5923 1 13.3594 19.6462 3.9292
5924 1 14.9311 21.2179 5.5009
5925 1 13.3594 19.6462 7.0726
5926 1 14.9311 21.2179 8.6443
5927 1 13.3594 22.7896 0.7858
5928 1 14.9311 24.3613 2.3575
5929 1 13.3594 22.7896 3.9292
5930 1 14.9311 24.3613 5.5009
5931 1 13.3594 22.7896 7.0726
5932 1 14.9311 24.3613 8.6443
5933 1 13.3594 25.933 0.7858
5934 1 14.9311 27.5047 2.3575
5935 1 13.3594 25.933 3.9292
5936 1 14.9311 27.5047 5.5009
5937 1 13.3594 25.933 7.0726
5938 1 14.9311 27.5047 8.6443
5939 1 13.3594 29.0764 0.7858
5940 1 14.9311 30.6481 2.3575
5941 1 13.3594 29.0764 3.9292
5942 1 14.9311 30.6481 5.5009
5943 1 13.3594 29.0764 7.0726
5944 1 14.9311 30.6481 8.6443
5945 1 13.3594 32.2197 0.7858
5946 1 14.9311 33.7914 2.3575
5947 1 13.3594 32.2197 3.9292
5948 1 14.9311 33.7914 5.5009
5949 1 13.3594 32.2197 7.0726
5950 1 14.9311 33.7914 8.6443
5951 1 13.3594 35.3631 0.7858
5952 1 14.9311 36.9348 2.3575
5953 1 13.3594 35.3631 3.9292
5954 1 14.9311 36.9348 5.5009
5955 1 13.3594 35.3631 7.0726
5956 1 14.9311 36.9348 8.6443
5957 1 13.3594 38.5065 0.7858
5958 1 14.9311 40.0782 2.3575
5959 1 13.3594 38.5065 3.9292
5960 1 14.9311 40.0782 5.5009
5961 1 13.3594 38.5065 7.0726
5962 1 14.9311 40.0782 8.6443
5963 1 13.3594 41.6499 0.7858
5964 1 14.9311 43.2216 2.3575
5965 1 13.3594 41.6499 3.9292
5966 1 14.9311 43.2216 5.5009
5967 1 13.3594 41.6499 7.0726
5968 1 14.9311 43.2216 8.6443
5969 1 13.3594 44.7933 0.7858
5970 1 14.9311 46.365 2.3575
5971 1 13.3594 44.7933 3.9292
5972 1 14.9311 46.365 5.5009
5973 1 13.3594 44.7933 7.0726
5974 1 14.9311 46.365 8.6443
5975 1 13.3594 47.9367 0.7858
5976 1 14.9311 49.5084 2.3575
5977 1 13.3594 47.9367 3.9292
5978 1 14.9311 49.5084 5.5009
5979 1 13.3594 47.9367 7.0726
5980 1 14.9311 49.5084 8.6443
5981 1 16.5028 0.7858 0.7858
5982 1 18.0745 2.3575 2.3575
5983 1 16.5028 0.7858 3.9292
5984 1 18.0745 2.3575 5.5009
5985 1 16.5028 0.7858 7.0726
5986 1 18.0745 2.3575 8.6443
5987 1 16.5028 3.9292 0.7858
5988 1 18.0745 5.5009 2.3575
5989 1 16.5028 3.9292 3.9292
5990 1 18.0745 5.5009 5.5009
5991 1 16.5028 3.9292 7.0726
5992 1 18.0745 5.5009 8.6443
5993 1 16.5028 7.0726 0.7858
5994 1 18.0745 8.6443 2.3575
5995 1 16.5028 7.0726 3.9292
5996 1 18.0745 8.6443 5.5009
5997 1 16.5028 7.0726 7.0726
5998 1 18.0745 8.6443 8.6443
5999 1 16.5028 10.216 0.7858
6000 1 18.0745 11.7877 2.3575
6001 1 16.5028 10.216 3.9292
6002 1 18.0745 11.7877 5.5009
6003 1 16.5028 10.216 7.0726
6004 1 18.0745 11.7877 8.6443
6005 1 16.5028 13.3594 0.7858
6006 1 18.0745 14.9311 2.3575
6007 1 16.5028 13.3594 3.9292
6008 1 18.0745 14.9311 5.5009
6009 1 16.5028 13.3594 7.0726
6010 1 18.0745 14.9311 8.6443
6011 1 16.5028 16.5028 0.7858
6012 1 18.0745 18.0745 2.3575
6013 1 16.5028 16.5028 3.9292
6014 1 18.0745 18.0745 5.5009
6015 1 16.5028 16.5028 7.0726
6016 1 18.0745 18.0745 8.6443
6017 1 16.5028 19.6462 0.7858
6018 1 18.0745 21.2179 2.3575
6019 1 16.5028 19.6462 3.9292
6020 1 18.0745 21.2179 5.5009
6021 1 16.5028 19.6462 7.0726
6022 1 18.0745 21.2179 8.6443
6023 1 16.5028 22.7896 0.7858
6024 1 18.0745 24.3613 2.3575
6025 1 16.5028 22.7896 3.9292
6026 1 18.0745 24.3613 5.5009
6027 1 16.5028 22.7896 7.0726
6028 1 18.0745 24.3613 8.6443
6029 1 16.5028 25.933 0.7858
6030 1 18.0745 27.5047 2.3575
6031 1 16.5028 25.933 3.9292
6032 1 18.0745 27.5047 5.5009
6033 1 16.5028 25.933 7.0726
6034 1 18.0745 27.5047 8.6443
6035 1 16.5028 29.0764 0.7858
6036 1 18.0745 30.6481 2.3575
6037 1 16.5028 29.0764 3.9292
6038 1 18.0745 30.6481 5.5009
6039 1 16.5028 29.0764 7.0726
6040 1 18.0745 30.6481 8.6443
6041 1 16.5028 32.2197 0.7858
6042 1 18.0745 33.7914 2.3575
6043 1 16.5028 32.2197 3.9292
6044 1 18.0745 33.7914 5.5009
6045 1 16.5028 32.2197 7.0726
6046 1 18.0745 33.7914 8.6443
6047 1 16.5028 35.3631 0.7858
6048 1 18.0745 36.9348 2.3575
6049 1 16.5028 35.3631 3.9292
6050 1 18.0745 36.9348 5.5009
6051 1 16.5028 35.3631 7.0726
6052 1 18.0745 36.9348 8.6443
6053 1 16.5028 38.5065 0.7858
6054 1 18.0745 40.0782 2.3575
6055 1 16.5028 38.5065 3.9292
6056 1 18.0745 40.0782 5.5009
6057 1 16.5028 38.5065 7.0726
6058 1 18.0745 40.0782 8.6443
6059 1 16.5028 41.6499 0.7858
6060 1 18.0745 43.2216 2.3575
6061 1 16.5028 41.6499 3.9292
6062 1 18.0745 43.2216 5.5009
6063 1 16.5028 41.6499 7.0726
6064 1 18.0745 43.2216 8.6443
6065 1 16.5028 44.7933 0.7858
6066 1 18.0745 46.365 2.3575
6067 1 16.5028 44.7933 3.9292
6068 1 18.0745 46.365 5.5009
6069 1 16.5028 44.7933 7.0726
6070 1 18.0745 46.365 8.6443
6071 1 16.5028 47.9367 0.7858
6072 1 18.0745 49.5084 2.3575
6073 1 16.5028 47.9367 3.9292
6074 1 18.0745 49.5084 5.5009
6075 1 16.5028 47.9367 7.0726
6076 1 18.0745 49.5084 8.6443
6077 1 19.6462 0.7858 0.7858
6078 1 21.2179 2.3575 2.3575
6079 1 19.6462 0.7858 3.9292
6080 1 21.2179 2.3575 5.5009
6081 1 19.6462 0.7858 7.0726
6082 1 21.2179 2.3575 8.6443
6083 1 19.6462 3.9292 0.7858
6084 1 21.2179 5.5009 2.3575
6085 1 19.6462 3.9292 3.9292
6086 1 21.2179 5.5009 5.5009
6087 1 19.6462 3.9292 7.0726
6088 1 21.2179 5.5009 8.6443
6089 1 19.6462 7.0726 0.7858
6090 1 21.2179 8.6443 2.3575
6091 1 19.6462 7.0726 3.9292
6092 1 21.2179 8.6443 5.5009
6093 1 19.6462 7.0726 7.0726
6094 1 21.2179 8.6443 8.6443
6095 1 19.6462 10.216 0.7858
6096 1 21.2179 11.7877 2.3575
6097 1 19.6462 10.216 3.9292
6098 1 21.2179 11.7877 5.5009
6099 1 19.6462 10.216 7.0726
6100 1 21.2179 11.7877 8.6443
6101 1 19.6462 13.3594 0.7858
6102 1 21.2179 14.9311 2.3575
6103 1 19.6462 13.3594 3.9292
6104 1 21.2179 14.9311 5.5009
6105 1 19.6462 13.3594 7.0726
6106 1 21.2179 14.9311 8.6443
6107 1 19.6462 16.5028 0.7858
6108 1 21.2179 18.0745 2.3575
6109 1 19.6462 16.5028 3.9292
6110 1 21.2179 18.0745 5.5009
6111 1 19.6462 16.5028 7.0726
6112 1 21.2179 18.0745 8.6443
6113 1 19.6462 19.6462 0.7858
6114 1 21.2179 21.2179 2.3575
6115 1 19.6462 19.6462 3.9292
6116 1 21.2179 21.2179 5.5009
6117 1 19.6462 19.6462 7.0726
6118 1 21.2179 21.2179 8.6443
6119 1 19.6462 22.7896 0.7858
6120 1 21.2179 24.3613 2.3575
6121 1 19.6462 22.7896 3.9292
6122 1 21.2179 24.3613 5.5009
6123 1 19.6462 22.7896 7.0726
6124 1 21.2179 24.3613 8.6443
6125 1 19.6462 25.933 0.7858
6126 1 21.2179 27.5047 2.3575
6127 1 19.6462 25.933 3.9292
6128 1 21.2179 27.5047 5.5009
6129 1 19.6462 25.933 7.0726
6130 1 21.2179 27.5047 8.6443
6131 1 19.6462 29.0764 0.7858
6132 1 21.2179 30.6481 2.3575
6133 1 19.6462 29.0764 3.9292
6134 1 21.2179 30.6481 5.5009
6135 1 19.6462 29.0764 7.0726
6136 1 21.2179 30.6481 8.6443
6137 1 19.6462 32.2197 0.7858
6138 1 21.2179 33.7914 2.3575
6139 1 19.6462 32.2197 3.9292
6140 1 21.2179 33.7914 5.5009
6141 1 19.6462 32.2197 7.0726
6142 1 21.2179 33.7914 8.6443
6143 1 19.6462 35.3631 0.7858
6144 1 21.2179 36.9348 2.3575
6145 1 19.6462 35.3631 3.9292
6146 1 21.2179 36.9348 5.5009
6147 1 19.6462 35.3631 7.0726
6148 1 21.2179 36.9348 8.6443
6149 1 19.6462 38.5065 0.7858
6150 1 21.2179 40.0782 2.3575
6151 1 19.6462 38.5065 3.9292
6152 1 21.2179 40.0782 5.5009
6153 1 19.6462 38.5065 7.0726
6154 1 21.2179 40.0782 8.6443
6155 1 19.6462 41.6499 0.7858
6156 1 21.2179 43.2216 2.3575
6157 1 19.6462 41.6499 3.9292
6158 1 21.2179 43.2216 5.5009
6159 1 19.6462 41.6499 7.0726
6160 1 21.2179 43.2216 8.6443
6161 1 19.6462 44.7933 0.7858
6162 1 21.2179 46.365 2.3575
6163 1 19.6462 44.7933 3.9292
6164 1 21.2179 46.365 5.5009
6165 1 19.6462 44.7933 7.0726
6166 1 21.2179 46.365 8.6443
6167 1 19.6462 47.9367 0.7858
6168 1 21.2179 49.5084 2.3575
6169 1 19.6462 47.9367 3.9292
6170 1 21.2179 49.5084 5.5009
6171 1 19.6462 47.9367 7.0726
6172 1 21.2179 49.5084 8.6443
6173 1 22.7896 0.7858 0.7858
6174 1 24.3613 2.3575 2.3575
6175 1 22.7896 0.7858 3.9292
6176 1 24.3613 2.3575 5.5009
6177 1 22.7896 0.7858 7.0726
6178 1 24.3613 2.3575 8.6443
6179 1 22.7896 3.9292 0.7858
6180 1 24.3613 5.5009 2.3575
6181 1 22.7896 3.9292 3.9292
6182 1 24.3613 5.5009 5.5009
6183 1 22.7896 3.9292 7.0726
6184 1 24.3613 5.5009 8.6443
6185 1 22.7896 7.0726 0.7858
6186 1 24.3613 8.6443 2.3575
6187 1 22.7896 7.0726 3.9292
6188 1 24.3613 8.6443 5.5009
6189 1 22.7896 7.0726 7.0726
6190 1 24.3613 8.6443 8.6443
6191 1 22.7896 10.216 0.7858
6192 1 24.3613 11.7877 2.3575
6193 1 22.7896 10.216 3.9292
6194 1 24.3613 11.7877 5.5009
6195 1 22.7896 10.216 7.0726
6196 1 24.3613 11.7877 8.6443
6197 1 22.7896 13.3594 0.7858
6198 1 24.3613 14.9311 2.3575
6199 1 22.7896 13.3594 3.9292
6200 1 24.3613 14.9311 5.5009
6201 1 22.7896 13.3594 7.0726
6202 1 24.3613 14.9311 8.6443
6203 1 22.7896 16.5028 0.7858
6204 1 24.3613 18.0745 2.3575
6205 1 22.7896 16.5028 3.9292
6206 1 24.3613 18.0745 5.5009
6207 1 22.7896 16.5028 7.0726
6208 1 24.3613 18.0745 8.6443
6209 1 22.7896 19.6462 0.7858
6210 1 24.3613 21.2179 2.3575
6211 1 22.7896 19.6462 3.9292
6212 1 24.3613 21.2179 5.5009
6213 1 22.7896 19.6462 7.0726
6214 1 24.3613 21.2179 8.6443
6215 1 22.7896 22.7896 0.7858
6216 1 24.3613 24.3613 2.3575
6217 1 22.7896 22.7896 3.9292
6218 1 24.3613 24.3613 5.5009
6219 1 22.7896 22.7896 7.0726
6220 1 24.3613 24.3613 8.6443
6221 1 22.7896 25.933 0.7858
6222 1 24.3613 27.5047 2.3575
6223 1 22.7896 25.933 3.9292
6224 1 24.3613 27.5047 5.5009
6225 1 22.7896 25.933 7.0726
6226 1 24.3613 27.5047 8.6443
6227 1 22.7896 29.0764 0.7858
6228 1 24.3613 30.6481 2.3575
6229 1 22.7896 29.0764 3.9292
6230 1 24.3613 30.6481 5.5009
6231 1 22.7896 29.0764 7.0726
6232 1 24.3613 30.6481 8.6443
6233 1 22.7896 32.2197 0.7858
6234 1 24.3613 33.7914 2.3575
6235 1 22.7896 32.2197 3.9292
6236 1 24.3613 33.7914 5.5009
6237 1 22.7896 32.2197 7.0726
6238 1 24.3613 33.7914 8.6443
6239 1 22.7896 35.3631 0.7858
6240 1 24.3613 36.9348 2.3575
6241 1 22.7896 35.3631 3.9292
6242 1 24.3613 36.9348 5.5009
6243 1 22.7896 35.3631 7.0726
6244 1 24.3613 36.9348 8.6443
6245 1 22.7896 38.5065 0.7858
6246 1 24.3613 40.0782 2.3575
6247 1 22.7896 38.5065 3.9292
6248 1 24.3613 40.0782 5.5009
6249 1 22.7896 38.5065 7.0726
6250 1 24.3613 40.0782 8.6443
6251 1 22.7896 41.6499 0.7858
6252 1 24.3613 43.2216 2.3575
6253 1 22.7896 41.6499 3.9292
6254 1 24.3613 43.2216 5.5009
6255 1 22.7896 41.6499 7.0726
6256 1 24.3613 43.2216 8.6443
6257 1 22.7896 44.7933 0.7858
6258 1 24.3613 46.365 2.3575
6259 1 22.7896 44.7933 3.9292
6260 1 24.3613 46.365 5.5009
6261 1 22.7896 44.7933 7.0726
6262 1 24.3613 46.365 8.6443
6263 1 22.7896 47.9367 0.7858
6264 1 24.3613 49.5084 2.3575
6265 1 22.7896 47.9367 3.9292
6266 1 24.3613 49.5084 5.5009
6267 1 22.7896 47.9367 7.0726
6268 1 24.3613 49.5084 8.6443
6269 1 25.933 0.7858 0.7858
6270 1 27.5047 2.3575 2.3575
6271 1 25.933 0.7858 3.9292
6272 1 27.5047 2.3575 5.5009
6273 1 25.933 0.7858 7.0726
6274 1 27.5047 2.3575 8.6443
6275 1 25.933 3.9292 0.7858
6276 1 27.5047 5.5009 2.3575
6277 1 25.933 3.9292 3.9292
6278 1 27.5047 5.5009 5.5009
6279 1 25.933 3.9292 7.0726
6280 1 27.5047 5.5009 8.6443
6281 1 25.933 7.0726 0.7858
6282 1 27.5047 8.6443 2.3575
6283 1 25.933 7.0726 3.9292
6284 1 27.5047 8.6443 5.5009
6285 1 25.933 7.0726 7.0726
6286 1 27.5047 8.6443 8.6443
6287 1 25.933 10.216 0.7858
6288 1 27.5047 11.7877 2.3575
6289 1 25.933 10.216 3.9292
6290 1 27.5047 11.7877 5.5009
6291 1 25.933 10.216 7.0726
6292 1 27.5047 11.7877 8.6443
6293 1 25.933 13.3594 0.7858
6294 1 27.5047 14.9311 2.3575
6295 1 25.933 13.3594 3.9292
6296 1 27.5047 14.9311 5.5009
6297 1 25.933 13.3594 7.0726
6298 1 27.5047 14.9311 8.6443
6299 1 25.933 16.5028 0.7858
6300 1 27.5047 18.0745 2.3575
6301 1 25.933 16.5028 3.9292
6302 1 27.5047 18.0745 5.5009
6303 1 25.933 16.5028 7.0726
6304 1 27.5047 18.0745 8.6443
6305 1 25.933 19.6462 0.7858
6306 1 27.5047 21.2179 2.3575
6307 1 25.933 19.6462 3.9292
6308 1 27.5047 21.2179 5.5009
6309 1 25.933 19.6462 7.0726
6310 1 27.5047 21.2179 8.6443
6311 1 25.933 22.7896 0.7858
6312 1 27.5047 24.3613 2.3575
6313 1 25.933 22.7896 3.9292
6314 1 27.5047 24.3613 5.5009
6315 1 25.933 22.7896 7.0726
6316 1 27.5047 24.3613 8.6443
6317 1 25.933 25.933 0.7858
6318 1 27.5047 27.5047 2.3575
6319 1 25.933 25.933 3.9292
6320 1 27.5047 27.5047 5.5009
6321 1 25.933 25.933 7.0726
6322 1 27.5047 27.5047 8.6443
6323 1 25.933 29.0764 0.7858
6324 1 27.5047 30.6481 2.3575
6325 1 25.933 29.0764 3.9292
6326 1 27.5047 30.6481 5.5009
6327 1 25.933 29.0764 7.0726
6328 1 27.5047 30.6481 8.6443
6329 1 25.933 32.2197 0.7858
6330 1 27.5047 33.7914 2.3575
6331 1 25.933 32.2197 3.9292
6332 1 27.5047 33.7914 5.5009
6333 1 25.933 32.2197 7.0726
6334 1 27.5047 33.7914 8.6443
6335 1 25.933 35.3631 0.7858
6336 1 27.5047 36.9348 2.3575
6337 1 25.933 35.3631 3.9292
6338 1 27.5047 36.9348 5.5009
6339 1 25.933 35.3631 7.0726
6340 1 27.5047 36.9348 8.6443
6341 1 25.933 38.5065 0.7858
6342 1 27.5047 40.0782 2.3575
6343 1 25.933 38.5065 3.9292
6344 1 27.5047 40.0782 5.5009
6345 1 25.933 38.5065 7.0726
6346 1 27.5047 40.0782 8.6443
6347 1 25.933 41.6499 0.7858
6348 1 27.5047 43.2216 2.3575
6349 1 25.933 41.6499 3.9292
6350 1 27.5047 43.2216 5.5009
6351 1 25.933 41.6499 7.0726
6352 1 27.5047 43.2216 8.6443
6353 1 25.933 44.7933 0.7858
6354 1 27.5047 46.365 2.3575
6355 1 25.933 44.7933 3.9292
6356 1 27.5047 46.365 5.5009
6357 1 25.933 44.7933 7.0726
6358 1 27.5047 46.365 8.6443
6359 1 25.933 47.9367 0.7858
6360 1 27.5047 49.5084 2.3575
6361 1 25.933 47.9367 3.9292
6362 1 27.5047 49.5084 5.5009
6363 1 25.933 47.9367 7.0726
6364 1 27.5047 49.5084 8.6443
6365 1 29.0764 0.7858 0.7858
6366 1 30.6481 2.3575 2.3575
6367 1 29.0764 0.7858 3.9292
6368 1 30.6481 2.3575 5.5009
6369 1 29.0764 0.7858 7.0726
6370 1 30.6481 2.3575 8.6443
6371 1 29.0764 3.9292 0.7858
6372 1 30.6481 5.5009 2.3575
6373 1 29.0764 3.9292 3.9292
6374 1 30.6481 5.5009 5.5009
6375 1 29.0764 3.9292 7.0726
6376 1 30.6481 5.5009 8.6443
6377 1 29.0764 7.0726 0.7858
6378 1 30.6481 8.6443 2.3575
6379 1 29.0764 7.0726 3.9292
6380 1 30.6481 8.6443 5.5009
6381 1 29.0764 7.0726 7.0726
6382 1 30.6481 8.6443 8.6443
6383 1 29.0764 10.216 0.7858
6384 1 30.6481 11.7877 2.3575
6385 1 29.0764 10.216 3.9292
6386 1 30.6481 11.7877 5.5009
6387 1 29.0764 10.216 7.0726
6388 1 30.6481 11.7877 8.6443
6389 1 29.0764 13.3594 0.7858
6390 1 30.6481 14.9311 2.3575
6391 1 29.0764 13.3594 3.9292
6392 1 30.6481 14.9311 5.5009
6393 1 29.0764 13.3594 7.0726
6394 1 30.6481 14.9311 8.6443
6395 1 29.0764 16.5028 0.7858
6396 1 30.6481 18.0745 2.3575
6397 1 29.0764 16.5028 3.9292
6398 1 30.6481 18.0745 5.5009
6399 1 29.0764 16.5028 7.0726
6400 1 30.6481 18.0745 8.6443
6401 1 29.0764 19.6462 0.7858
6402 1 30.6481 21.2179 2.3575
6403 1 29.0764 19.6462 3.9292
6404 1 30.6481 21.2179 5.5009
6405 1 29.0764 19.6462 7.0726
6406 1 30.6481 21.2179 8.6443
6407 1 29.0764 22.7896 0.7858
6408 1 30.6481 24.3613 2.3575
6409 1 29.0764 22.7896 3.9292
6410 1 30.6481 24.3613 5.5009
6411 1 29.0764 22.7896 7.0726
6412 1 30.6481 24.3613 8.6443
6413 1 29.0764 25.933 0.7858
6414 1 30.6481 27.5047 2.3575
6415 1 29.0764 25.933 3.9292
6416 1 30.6481 27.5047 5.5009
6417 1 29.0764 25.933 7.0726
6418 1 30.6481 27.5047 8.6443
6419 1 29.0764 29.0764 0.7858
6420 1 30.6481 30.6481 2.3575
6421 1 29.0764 29.0764 3.9292
6422 1 30.6481 30.6481 5.5009
6423 1 29.0764 29.0764 7.0726
6424 1 30.6481 30.6481 8.6443
6425 1 29.0764 32.2197 0.7858
6426 1 30.6481 33.7914 2.3575
6427 1 29.0764 32.2197 3.9292
6428 1 30.6481 33.7914 5.5009
6429 1 29.0764 32.2197 7.0726
6430 1 30.6481 33.7914 8.6443
6431 1 29.0764 35.3631 0.7858
6432 1 30.6481 36.9348 2.3575
6433 1 29.0764 35.3631 3.9292
6434 1 30.6481 36.9348 5.5009
6435 1 29.0764 35.3631 7.0726
6436 1 30.6481 36.9348 8.6443
6437 1 29.0764 38.5065 0.7858
6438 1 30.6481 40.0782 2.3575
6439 1 29.0764 38.5065 3.9292
6440 1 30.6481 40.0782 5.5009
6441 1 29.0764 38.5065 7.0726
6442 1 30.6481 40.0782 8.6443
6443 1 29.0764 41.6499 0.7858
6444 1 30.6481 43.2216 2.3575
6445 1 29.0764 41.6499 3.9292
6446 1 30.6481 43.2216 5.5009
6447 1 29.0764 41.6499 7.0726
6448 1 30.6481 43.2216 8.6443
6449 1 29.0764 44.7933 0.7858
6450 1 30.6481 46.365 2.3575
6451 1 29.0764 44.7933 3.9292
6452 1 30.6481 46.365 5.5009
6453 1 29.0764 44.7933 7.0726
6454 1 30.6481 46.365 8.6443
6455 1 29.0764 47.9367 0.7858
6456 1 30.6481 49.5084 2.3575
6457 1 29.0764 47.9367 3.9292
6458 1 30.6481 49.5084 5.5009
6459 1 29.0764 47.9367 7.0726
6460 1 30.6481 49.5084 8.6443
6461 1 32.2197 0.7858 0.7858
6462 1 33.7914 2.3575 2.3575
6463 1 32.2197 0.7858 3.9292
6464 1 33.7914 2.3575 5.5009
6465 1 32.2197 0.7858 7.0726
6466 1 33.7914 2.3575 8.6443
6467 1 32.2197 3.9292 0.7858
6468 1 33.7914 5.5009 2.3575
6469 1 32.2197 3.9292 3.9292
6470 1 33.7914 5.5009 5.5009
6471 1 32.2197 3.9292 7.0726
6472 1 33.7914 5.5009 8.6443
6473 1 32.2197 7.0726 0.7858
6474 1 33.7914 8.6443 2.3575
6475 1 32.2197 7.0726 3.9292
6476 1 33.7914 8.6443 5.5009
6477 1 32.2197 7.0726 7.0726
6478 1 33.7914 8.6443 8.6443
6479 1 32.2197 10.216 0.7858
6480 1 33.7914 11.7877 2.3575
6481 1 32.2197 10.216 3.9292
6482 1 33.7914 11.7877 5.5009
6483 1 32.2197 10.216 7.0726
6484 1 33.7914 11.7877 8.6443
6485 1 32.2197 13.3594 0.7858
6486 1 33.7914 14.9311 2.3575
6487 1 32.2197 13.3594 3.9292
6488 1 33.7914 14.9311 5.5009
6489 1 32.2197 13.3594 7.0726
6490 1 33.7914 14.9311 8.6443
6491 1 32.2197 16.5028 0.7858
6492 1 33.7914 18.0745 2.3575
6493 1 32.2197 16.5028 3.9292
6494 1 33.7914 18.0745 5.5009
6495 1 32.2197 16.5028 7.0726
6496 1 33.7914 18.0745 8.6443
6497 1 32.2197 19.6462 0.7858
6498 1 33.7914 21.2179 2.3575
6499 1 32.2197 19.6462 3.9292
6500 1 33.7914 21.2179 5.5009
6501 1 32.2197 19.6462 7.0726
6502 1 33.7914 21.2179 8.6443
6503 1 32.2197 22.7896 0.7858
6504 1 33.7914 24.3613 2.3575
6505 1 32.2197 22.7896 3.9292
6506 1 33.7914 24.3613 5.5009
6507 1 32.2197 22.7896 7.0726
6508 1 33.7914 24.3613 8.6443
6509 1 32.2197 25.933 0.7858
6510 1 33.7914 27.5047 2.3575
6511 1 32.2197 25.933 3.9292
6512 1 33.7914 27.5047 5.5009
6513 1 32.2197 25.933 7.0726
6514 1 33.7914 27.5047 8.6443
6515 1 32.2197 29.0764 0.7858
6516 1 33.7914 30.6481 2.3575
6517 1 32.2197 29.0764 3.9292
6518 1 33.7914 30.6481 5.5009
6519 1 32.2197 29.0764 7.0726
6520 1 33.7914 30.6481 8.6443
6521 1 32.2197 32.2197 0.7858
6522 1 33.7914 33.7914 2.3575
6523 1 32.2197 32.2197 3.9292
6524 1 33.7914 33.7914 5.5009
6525 1 32.2197 32.2197 7.0726
6526 1 33.7914 33.7914 8.6443
6527 1 32.2197 35.3631 0.7858
6528 1 33.7914 36.9348 2.3575
6529 1 32.2197 35.3631 3.9292
6530 1 33.7914 36.9348 5.5009
6531 1 32.2197 35.3631 7.0726
6532 1 33.7914 36.9348 8.6443
6533 1 32.2197 38.5065 0.7858
6534 1 33.7914 40.0782 2.3575
6535 1 32.2197 38.5065 3.9292
6536 1 33.7914 40.0782 5.5009
6537 1 32.2197 38.5065 7.0726
6538 1 33.7914 40.0782 8.6443
6539 1 32.2197 41.6499 0.7858
6540 1 33.7914 43.2216 2.3575
6541 1 32.2197 41.6499 3.9292
6542 1 33.7914 43.2216 5.5009
6543 1 32.2197 41.6499 7.0726
6544 1 33.7914 43.2216 8.6443
6545 1 32.2197 44.7933 0.7858
6546 1 33.7914 46.365 2.3575
6547 1 32.2197 44.7933 3.9292
6548 1 33.7914 46.365 5.5009
6549 1 32.2197 44.7933 7.0726
6550 1 33.7914 46.365 8.6443
6551 1 32.2197 47.9367 0.7858
6552 1 33.7914 49.5084 2.3575
6553 1 32.2197 47.9367 3.9292
6554 1 33.7914 49.5084 5.5009
6555 1 32.2197 47.9367 7.0726
6556 1 33.7914 49.5084 8.6443
6557 1 13.3594 0.7858 41.6499
6558 1 14.9311 2.3575 43.2216
6559 1 13.3594 0.7858 44.7933
6560 1 14.9311 2.3575 46.365
6561 1 13.3594 0.7858 47.9367
6562 1 14.9311 2.3575 49.5084
6563 1 13.3594 3.9292 41.6499
6564 1 14.9311 5.5009 43.2216
6565 1 13.3594 3.9292 44.7933
6566 1 14.9311 5.5009 46.365
6567 1 13.3594 3.9292 47.9367
6568 1 14.9311 5.5009 49.5084
6569 1 13.3594 7.0726 41.6499
6570 1 14.9311 8.6443 43.2216
6571 1 13.3594 7.0726 44.7933
6572 1 14.9311 8.6443 46.365
6573 1 13.3594 7.0726 47.9367
6574 1 14.9311 8.6443 49.5084
6575 1 13.3594 10.216 41.6499
6576 1 14.9311 11.7877 43.2216
6577 1 13.3594 10.216 44.7933
6578 1 14.9311 11.7877 46.365
6579 1 13.3594 10.216 47.9367
6580 1 14.9311 11.7877 49.5084
6581 1 13.3594 13.3594 41.6499
6582 1 14.9311 14.9311 43.2216
6583 1 13.3594 13.3594 44.7933
6584 1 14.9311 14.9311 46.365
6585 1 13.3594 13.3594 47.9367
6586 1 14.9311 14.9311 49.5084
6587 1 13.3594 16.5028 41.6499
6588 1 14.9311 18.0745 43.2216
6589 1 13.3594 16.5028 44.7933
6590 1 14.9311 18.0745 46.365
6591 1 13.3594 16.5028 47.9367
6592 1 14.9311 18.0745 49.5084
6593 1 13.3594 19.6462 41.6499
6594 1 14.9311 21.2179 43.2216
6595 1 13.3594 19.6462 44.7933
6596 1 14.9311 21.2179 46.365
6597 1 13.3594 19.6462 47.9367
6598 1 14.9311 21.2179 49.5084
6599 1 13.3594 22.7896 41.6499
6600 1 14.9311 24.3613 43.2216
6601 1 13.3594 22.7896 44.7933
6602 1 14.9311 24.3613 46.365
6603 1 13.3594 22.7896 47.9367
6604 1 14.9311 24.3613 49.5084
6605 1 13.3594 25.933 41.6499
6606 1 14.9311 27.5047 43.2216
6607 1 13.3594 25.933 44.7933
6608 1 14.9311 27.5047 46.365
6609 1 13.3594 25.933 47.9367
6610 1 14.9311 27.5047 49.5084
6611 1 13.3594 29.0764 41.6499
6612 1 14.9311 30.6481 43.2216
6613 1 13.3594 29.0764 44.7933
6614 1 14.9311 30.6481 46.365
6615 1 13.3594 29.0764 47.9367
6616 1 14.9311 30.6481 49.5084
6617 1 13.3594 32.2197 41.6499
6618 1 14.9311 33.7914 43.2216
6619 1 13.3594 32.2197 44.7933
6620 1 14.9311 33.7914 46.365
6621 1 13.3594 32.2197 47.9367
6622 1 14.9311 33.7914 49.5084
6623 1 13.3594 35.3631 41.6499
6624 1 14.9311 36.9348 43.2216
6625 1 13.3594 35.3631 44.7933
6626 1 14.9311 36.9348 46.365
6627 1 13.3594 35.3631 47.9367
6628 1 14.9311 36.9348 49.5084
6629 1 13.3594 38.5065 41.6499
6630 1 14.9311 40.0782 43.2216
6631 1 13.3594 38.5065 44.7933
6632 1 14.9311 40.0782 46.365
6633 1 13.3594 38.5065 47.9367
6634 1 14.9311 40.0782 49.5084
6635 1 13.3594 41.6499 41.6499
6636 1 14.9311 43.2216 43.2216
6637 1 13.3594 41.6499 44.7933
6638 1 14.9311 43.2216 46.365
6639 1 13.3594 41.6499 47.9367
6640 1 14.9311 43.2216 49.5084
6641 1 13.3594 44.7933 41.6499
6642 1 14.9311 46.365 43.2216
6643 1 13.3594 44.7933 44.7933
6644 1 14.9311 46.365 46.365
6645 1 13.3594 44.7933 47.9367
6646 1 14.9311 46.365 49.5084
6647 1 13.3594 47.9367 41.6499
6648 1 14.9311 49.5084 43.2216
6649 1 13.3594 47.9367 44.7933
6650 1 14.9311 49.5084 46.365
6651 1 13.3594 47.9367 47.9367
6652 1 14.9311 49.5084 49.5084
6653 1 16.5028 0.7858 41.6499
6654 1 18.0745 2.3575 43.2216
6655 1 16.5028 0.7858 44.7933
6656 1 18.0745 2.3575 46.365
6657 1 16.5028 0.7858 47.9367
6658 1 18.0745 2.3575 49.5084
6659 1 16.5028 3.9292 41.6499
6660 1 18.0745 5.5009 43.2216
6661 1 16.5028 3.9292 44.7933
6662 1 18.0745 5.5009 46.365
6663 1 16.5028 3.9292 47.9367
6664 1 18.0745 5.5009 49.5084
6665 1 16.5028 7.0726 41.6499
6666 1 18.0745 8.6443 43.2216
6667 1 16.5028 7.0726 44.7933
6668 1 18.0745 8.6443 46.365
6669 1 16.5028 7.0726 47.9367
6670 1 18.0745 8.6443 49.5084
6671 1 16.5028 10.216 41.6499
6672 1 18.0745 11.7877 43.2216
6673 1 16.5028 10.216 44.7933
6674 1 18.0745 11.7877 46.365
6675 1 16.5028 10.216 47.9367
6676 1 18.0745 11.7877 49.5084
6677 1 16.5028 13.3594 41.6499
6678 1 18.0745 14.9311 43.2216
6679 1 16.5028 13.3594 44.7933
6680 1 18.0745 14.9311 46.365
6681 1 16.5028 13.3594 47.9367
6682 1 18.0745 14.9311 49.5084
6683 1 16.5028 16.5028 41.6499
6684 1 18.0745 18.0745 43.2216
6685 1 16.5028 16.5028 44.7933
6686 1 18.0745 18.0745 46.365
6687 1 16.5028 16.5028 47.9367
6688 1 18.0745 18.0745 49.5084
6689 1 16.5028 19.6462 41.6499
6690 1 18.0745 21.2179 43.2216
6691 1 16.5028 19.6462 44.7933
6692 1 18.0745 21.2179 46.365
6693 1 16.5028 19.6462 47.9367
6694 1 18.0745 21.2179 49.5084
6695 1 16.5028 22.7896 41.6499
6696 1 18.0745 24.3613 43.2216
6697 1 16.5028 22.7896 44.7933
6698 1 18.0745 24.3613 46.365
6699 1 16.5028 22.7896 47.9367
6700 1 18.0745 24.3613 49.5084
6701 1 16.5028 25.933 41.6499
6702 1 18.0745 27.5047 43.2216
6703 1 16.5028 25.933 44.7933
6704 1 18.0745 27.5047 46.365
6705 1 16.5028 25.933 47.9367
6706 1 18.0745 27.5047 49.5084
6707 1 16.5028 29.0764 41.6499
6708 1 18.0745 30.6481 43.2216
6709 1 16.5028 29.0764 44.7933
6710 1 18.0745 30.6481 46.365
6711 1 16.5028 29.0764 47.9367
6712 1 18.0745 30.6481 49.5084
6713 1 16.5028 32.2197 41.6499
6714 1 18.0745 33.7914 43.2216
6715 1 16.5028 32.2197 44.7933
6716 1 18.0745 33.7914 46.365
6717 1 16.5028 32.2197 47.9367
6718 1 18.0745 33.7914 49.5084
6719 1 16.5028 35.3631 41.6499
6720 1 18.0745 36.9348 43.2216
6721 1 16.5028 35.3631 44.7933
6722 1 18.0745 36.9348 46.365
6723 1 16.5028 35.3631 47.9367
6724 1 18.0745 36.9348 49.5084
6725 1 16.5028 38.5065 41.6499
6726 1 18.0745 40.0782 43.2216
6727 1 16.5028 38.5065 44.7933
6728 1 18.0745 40.0782 46.365
6729 1 16.5028 38.5065 47.9367
6730 1 18.0745 40.0782 49.5084
6731 1 16.5028 41.6499 41.6499
6732 1 18.0745 43.2216 43.2216
6733 1 16.5028 41.6499 44.7933
6734 1 18.0745 43.2216 46.365
6735 1 16.5028 41.6499 47.9367
6736 1 18.0745 43.2216 49.5084
6737 1 16.5028 44.7933 41.6499
6738 1 18.0745 46.365 43.2216
6739 1 16.5028 44.7933 44.7933
6740 1 18.0745 46.365 46.365
6741 1 16.5028 44.7933 47.9367
6742 1 18.0745 46.365 49.5084
6743 1 16.5028 47.9367 41.6499
6744 1 18.0745 49.5084 43.2216
6745 1 16.5028 47.9367 44.7933
6746 1 18.0745 49.5084 46.365
6747 1 16.5028 47.9367 47.9367
6748 1 18.0745 49.5084 49.5084
6749 1 19.6462 0.7858 41.6499
6750 1 21.2179 2.3575 43.2216
6751 1 19.6462 0.7858 44.7933
6752 1 21.2179 2.3575 46.365
6753 1 19.6462 0.7858 47.9367
6754 1 21.2179 2.3575 49.5084
6755 1 19.6462 3.9292 41.6499
6756 1 21.2179 5.5009 43.2216
6757 1 19.6462 3.9292 44.7933
6758 1 21.2179 5.5009 46.365
6759 1 19.6462 3.9292 47.9367
6760 1 21.2179 5.5009 49.5084
6761 1 19.6462 7.0726 41.6499
6762 1 21.2179 8.6443 43.2216
6763 1 19.6462 7.0726 44.7933
6764 1 21.2179 8.6443 46.365
6765 1 19.6462 7.0726 47.9367
6766 1 21.2179 8.6443 49.5084
6767 1 19.6462 10.216 41.6499
6768 1 21.2179 11.7877 43.2216
6769 1 19.6462 10.216 44.7933
6770 1 21.2179 11.7877 46.365
6771 1 19.6462 10.216 47.9367
6772 1 21.2179 11.7877 49.5084
6773 1 19.6462 13.3594 41.6499
6774 1 21.2179 14.9311 43.2216
6775 1 19.6462 13.3594 44.7933
6776 1 21.2179 14.9311 46.365
6777 1 19.6462 13.3594 47.9367
6778 1 21.2179 14.9311 49.5084
6779 1 19.6462 16.5028 41.6499
6780 1 21.2179 18.0745 43.2216
6781 1 19.6462 16.5028 44.7933
6782 1 21.2179 18.0745 46.365
6783 1 19.6462 16.5028 47.9367
6784 1 21.2179 18.0745 49.5084
6785 1 19.6462 19.6462 41.6499
6786 1 21.2179 21.2179 43.2216
6787 1 19.6462 19.6462 44.7933
6788 1 21.2179 21.2179 46.365
6789 1 19.6462 19.6462 47.9367
6790 1 21.2179 21.2179 49.5084
6791 1 19.6462 22.7896 41.6499
6792 1 21.2179 24.3613 43.2216
6793 1 19.6462 22.7896 44.7933
6794 1 21.2179 24.3613 46.365
6795 1 19.6462 22.7896 47.9367
6796 1 21.2179 24.3613 49.5084
6797 1 19.6462 25.933 41.6499
6798 1 21.2179 27.5047 43.2216
6799 1 19.6462 25.933 44.7933
6800 1 21.2179 27.5047 46.365
6801 1 19.6462 25.933 47.9367
6802 1 21.2179 27.5047 49.5084
6803 1 19.6462 29.0764 41.6499
6804 1 21.2179 30.6481 43.2216
6805 1 19.6462 29.0764 44.7933
6806 1 21.2179 30.6481 46.365
6807 1 19.6462 29.0764 47.9367
6808 1 21.2179 30.6481 49.5084
6809 1 19.6462 32.2197 41.6499
6810 1 21.2179 33.7914 43.2216
6811 1 19.6462 32.2197 44.7933
6812 1 21.2179 33.7914 46.365
6813 1 19.6462 32.2197 47.9367
6814 1 21.2179 33.7914 49.5084
6815 1 19.6462 35.3631 41.6499
6816 1 21.2179 36.9348 43.2216
6817 1 19.6462 35.3631 44.7933
6818 1 21.2179 36.9348 46.365
6819 1 19.6462 35.3631 47.9367
6820 1 21.2179 36.9348 49.5084
6821 1 19.6462 38.5065 41.6499
6822 1 21.2179 40.0782 43.2216
6823 1 19.6462 38.5065 44.7933
6824 1 21.2179 40.0782 46.365
6825 1 19.6462 38.5065 47.9367
6826 1 21.2179 40.0782 49.5084
6827 1 19.6462 41.6499 41.6499
6828 1 21.2179 43.2216 43.2216
6829 1 19.6462 41.6499 44.7933
6830 1 21.2179 43.2216 46.365
6831 1 19.6462 41.6499 47.9367
6832 1 21.2179 43.2216 49.5084
6833 1 19.6462 44.7933 41.6499
6834 1 21.2179 46.365 43.2216
6835 1 19.6462 44.7933 44.7933
6836 1 21.2179 46.365 46.365
6837 1 19.6462 44.7933 47.9367
6838 1 21.2179 46.365 49.5084
6839 1 19.6462 47.9367 41.6499
6840 1 21.2179 49.5084 43.2216
6841 1 19.6462 47.9367 44.7933
6842 1 21.2179 49.5084 46.365
6843 1 19.6462 47.9367 47.9367
6844 1 21.2179 49.5084 49.5084
6845 1 22.7896 0.7858 41.6499
6846 1 24.3613 2.3575 43.2216
6847 1 22.7896 0.7858 44.7933
6848 1 24.3613 2.3575 46.365
6849 1 22.7896 0.7858 47.9367
6850 1 24.3613 2.3575 49.5084
6851 1 22.7896 3.9292 41.6499
6852 1 24.3613 5.5009 43.2216
6853 1 22.7896 3.9292 44.7933
6854 1 24.3613 5.5009 46.365
6855 1 22.7896 3.9292 47.9367
6856 1 24.3613 5.5009 49.5084
6857 1 22.7896 7.0726 41.6499
6858 1 24.3613 8.6443 43.2216
6859 1 22.7896 7.0726 44.7933
6860 1 24.3613 8.6443 46.365
6861 1 22.7896 7.0726 47.9367
6862 1 24.3613 8.6443 49.5084
6863 1 22.7896 10.216 41.6499
6864 1 24.3613 11.7877 43.2216
6865 1 22.7896 10.216 44.7933
6866 1 24.3613 11.7877 46.365
6867 1 22.7896 10.216 47.9367
6868 1 24.3613 11.7877 49.5084
6869 1 22.7896 13.3594 41.6499
6870 1 24.3613 14.9311 43.2216
6871 1 22.7896 13.3594 44.7933
6872 1 24.3613 14.9311 46.365
6873 1 22.7896 13.3594 47.9367
6874 1 24.3613 14.9311 49.5084
6875 1 22.7896 16.5028 41.6499
6876 1 24.3613 18.0745 43.2216
6877 1 22.7896 16.5028 44.7933
6878 1 24.3613 18.0745 46.365
6879 1 22.7896 16.5028 47.9367
6880 1 24.3613 18.0745 49.5084
6881 1 22.7896 19.6462 41.6499
6882 1 24.3613 21.2179 43.2216
6883 1 22.7896 19.6462 44.7933
6884 1 24.3613 21.2179 46.365
6885 1 22.7896 19.6462 47.9367
6886 1 24.3613 21.2179 49.5084
6887 1 22.7896 22.7896 41.6499
6888 1 24.3613 24.3613 43.2216
6889 1 22.7896 22.7896 44.7933
6890 1 24.3613 24.3613 46.365
6891 1 22.7896 22.7896 47.9367
6892 1 24.3613 24.3613 49.5084
6893 1 22.7896 25.933 41.6499
6894 1 24.3613 27.5047 43.2216
6895 1 22.7896 25.933 44.7933
6896 1 24.3613 27.5047 46.365
6897 1 22.7896 25.933 47.9367
6898 1 24.3613 27.5047 49.5084
6899 1 22.7896 29.0764 41.6499
6900 1 24.3613 30.6481 43.2216
6901 1 22.7896 29.0764 44.7933
6902 1 24.3613 30.6481 46.365
6903 1 22.7896 29.0764 47.9367
6904 1 24.3613 30.6481 49.5084
6905 1 22.7896 32.2197 41.6499
6906 1 24.3613 33.7914 43.2216
6907 1 22.7896 32.2197 44.7933
6908 1 24.3613 33.7914 46.365
6909 1 22.7896 32.2197 47.9367
6910 1 24.3613 33.7914 49.5084
6911 1 22.7896 35.3631 41.6499
6912 1 24.3613 36.9348 43.2216
6913 1 22.7896 35.3631 44.7933
6914 1 24.3613 36.9348 46.365
6915 1 22.7896 35.3631 47.9367
6916 1 24.3613 36.9348 49.5084
6917 1 22.7896 38.5065 41.6499
6918 1 24.3613 40.0782 43.2216
6919 1 22.7896 38.5065 44.7933
6920 1 24.3613 40.0782 46.365
6921 1 22.7896 38.5065 47.9367
6922 1 24.3613 40.0782 49.5084
6923 1 22.7896 41.6499 41.6499
6924 1 24.3613 43.2216 43.2216
6925 1 22.7896 41.6499 44.7933
6926 1 24.3613 43.2216 46.365
6927 1 22.7896 41.6499 47.9367
6928 1 24.3613 43.2216 49.5084
6929 1 22.7896 44.7933 41.6499
6930 1 24.3613 46.365 43.2216
6931 1 22.7896 44.7933 44.7933
6932 1 24.3613 46.365 46.365
6933 1 22.7896 44.7933 47.9367
6934 1 24.3613 46.365 49.5084
6935 1 22.7896 47.9367 41.6499
6936 1 24.3613 49.5084 43.2216
6937 1 22.7896 47.9367 44.7933
6938 1 24.3613 49.5084 46.365
6939 1 22.7896 47.9367 47.9367
6940 1 24.3613 49.5084 49.5084
6941 1 25.933 0.7858 41.6499
6942 1 27.5047 2.3575 43.2216
6943 1 25.933 0.7858 44.7933
6944 1 27.5047 2.3575 46.365
6945 1 25.933 0.7858 47.9367
6946 1 27.5047 2.3575 49.5084
6947 1 25.933 3.9292 41.6499
6948 1 27.5047 5.5009 43.2216
6949 1 25.933 3.9292 44.7933
6950 1 27.5047 5.5009 46.365
6951 1 25.933 3.9292 47.9367
6952 1 27.5047 5.5009 49.5084
6953 1 25.933 7.0726 41.6499
6954 1 27.5047 8.6443 43.2216
6955 1 25.933 7.0726 44.7933
6956 1 27.5047 8.6443 46.365
6957 1 25.933 7.0726 47.9367
6958 1 27.5047 8.6443 49.5084
6959 1 25.933 10.216 41.6499
6960 1 27.5047 11.7877 43.2216
6961 1 25.933 10.216 44.7933
6962 1 27.5047 11.7877 46.365
6963 1 25.933 10.216 47.9367
6964 1 27.5047 11.7877 49.5084
6965 1 25.933 13.3594 41.6499
6966 1 27.5047 14.9311 43.2216
6967 1 25.933 13.3594 44.7933
6968 1 27.5047 14.9311 46.365
6969 1 25.933 13.3594 47.9367
6970 1 27.5047 14.9311 49.5084
6971 1 25.933 16.5028 41.6499
6972 1 27.5047 18.0745 43.2216
6973 1 25.933 16.5028 44.7933
6974 1 27.5047 18.0745 46.365
6975 1 25.933 16.5028 47.9367
6976 1 27.5047 18.0745 49.5084
6977 1 25.933 19.6462 41.6499
6978 1 27.5047 21.2179 43.2216
6979 1 25.933 19.6462 44.7933
6980 1 27.5047 21.2179 46.365
6981 1 25.933 19.6462 47.9367
6982 1 27.5047 21.2179 49.5084
6983 1 25.933 22.7896 41.6499
6984 1 27.5047 24.3613 43.2216
6985 1 25.933 22.7896 44.7933
6986 1 27.5047 24.3613 46.365
6987 1 25.933 22.7896 47.9367
6988 1 27.5047 24.3613 49.5084
6989 1 25.933 25.933 41.6499
6990 1 27.5047 27.5047 43.2216
6991 1 25.933 25.933 44.7933
6992 1 27.5047 27.5047 46.365
6993 1 25.933 25.933 47.9367
6994 1 27.5047 27.5047 49.5084
6995 1 25.933 29.0764 41.6499
6996 1 27.5047 30.6481 43.2216
6997 1 25.933 29.0764 44.7933
6998 1 27.5047 30.6481 46.365
6999 1 25.933 29.0764 47.9367
7000 1 27.5047 30.6481 49.5084
7001 1 25.933 32.2197 41.6499
7002 1 27.5047 33.7914 43.2216
7003 1 25.933 32.2197 44.7933
7004 1 27.5047 33.7914 46.365
7005 1 25.933 32.2197 47.9367
7006 1 27.5047 33.7914 49.5084
7007 1 25.933 35.3631 41.6499
7008 1 27.5047 36.9348 43.2216
7009 1 25.933 35.3631 44.7933
7010 1 27.5047 36.9348 46.365
7011 1 25.933 35.3631 47.9367
7012 1 27.5047 36.9348 49.5084
7013 1 25.933 38.5065 41.6499
7014 1 27.5047 40.0782 43.2216
7015 1 25.933 38.5065 44.7933
7016 1 27.5047 40.0782 46.365
7017 1 25.933 38.5065 47.9367
7018 1 27.5047 40.0782 49.5084
7019 1 25.933 41.6499 41.6499
7020 1 27.5047 43.2216 43.2216
7021 1 25.933 41.6499 44.7933
7022 1 27.5047 43.2216 46.365
7023 1 25.933 41.6499 47.9367
7024 1 27.5047 43.2216 49.5084
7025 1 25.933 44.7933 41.6499
7026 1 27.5047 46.365 43.2216
7027 1 25.933 44.7933 44.7933
7028 1 27.5047 46.365 46.365
7029 1 25.933 44.7933 47.9367
7030 1 27.5047 46.365 49.5084
7031 1 25.933 47.9367 41.6499
7032 1 27.5047 49.5084 43.2216
7033 1 25.933 47.9367 44.7933
7034 1 27.5047 49.5084 46.365
7035 1 25.933 47.9367 47.9367
7036 1 27.5047 49.5084 49.5084
7037 1 29.0764 0.7858 41.6499
7038 1 30.6481 2.3575 43.2216
7039 1 29.0764 0.7858 44.7933
7040 1 30.6481 2.3575 46.365
7041 1 29.0764 0.7858 47.9367
7042 1 30.6481 2.3575 49.5084
7043 1 29.0764 3.9292 41.6499
7044 1 30.6481 5.5009 43.2216
7045 1 29.0764 3.9292 44.7933
7046 1 30.6481 5.5009 46.365
7047 1 29.0764 3.9292 47.9367
7048 1 30.6481 5.5009 49.5084
7049 1 29.0764 7.0726 41.6499
7050 1 30.6481 8.6443 43.2216
7051 1 29.0764 7.0726 44.7933
7052 1 30.6481 8.6443 46.365
7053 1 29.0764 7.0726 47.9367
7054 1 30.6481 8.6443 49.5084
7055 1 29.0764 10.216 41.6499
7056 1 30.6481 11.7877 43.2216
7057 1 29.0764 10.216 44.7933
7058 1 30.6481 11.7877 46.365
7059 1 29.0764 10.216 47.9367
7060 1 30.6481 11.7877 49.5084
7061 1 29.0764 13.3594 41.6499
7062 1 30.6481 14.9311 43.2216
7063 1 29.0764 13.3594 44.7933
7064 1 30.6481 14.9311 46.365
7065 1 29.0764 13.3594 47.9367
7066 1 30.6481 14.9311 49.5084
7067 1 29.0764 16.5028 41.6499
7068 1 30.6481 18.0745 43.2216
7069 1 29.0764 16.5028 44.7933
7070 1 30.6481 18.0745 46.365
7071 1 29.0764 16.5028 47.9367
7072 1 30.6481 18.0745 49.5084
7073 1 29.0764 19.6462 41.6499
7074 1 30.6481 21.2179 43.2216
7075 1 29.0764 19.6462 44.7933
7076 1 30.6481 21.2179 46.365
7077 1 29.0764 19.6462 47.9367
7078 1 30.6481 21.2179 49.5084
7079 1 29.0764 22.7896 41.6499
7080 1 30.6481 24.3613 43.2216
7081 1 29.0764 22.7896 44.7933
7082 1 30.6481 24.3613 46.365
7083 1 29.0764 22.7896 47.9367
7084 1 30.6481 24.3613 49.5084
7085 1 29.0764 25.933 41.6499
7086 1 30.6481 27.5047 43.2216
7087 1 29.0764 25.933 44.7933
7088 1 30.6481 27.5047 46.365
7089 1 29.0764 25.933 47.9367
7090 1 30.6481 27.5047 49.5084
7091 1 29.0764 29.0764 41.6499
7092 1 30.6481 30.6481 43.2216
7093 1 29.0764 29.0764 44.7933
7094 1 30.6481 30.6481 46.365
7095 1 29.0764 29.0764 47.9367
7096 1 30.6481 30.6481 49.5084
7097 1 29.0764 32.2197 41.6499
7098 1 30.6481 33.7914 43.2216
7099 1 29.0764 32.2197 44.7933
7100 1 30.6481 33.7914 46.365
7101 1 29.0764 32.2197 47.9367
7102 1 30.6481 33.7914 49.5084
7103 1 29.0764 35.3631 41.6499
7104 1 30.6481 36.9348 43.2216
7105 1 29.0764 35.3631 44.7933
7106 1 30.6481 36.9348 46.365
7107 1 29.0764 35.3631 47.9367
7108 1 30.6481 36.9348 49.5084
7109 1 29.0764 38.5065 41.6499
7110 1 30.6481 40.0782 43.2216
7111 1 29.0764 38.5065 44.7933
7112 1 30.6481 40.0782 46.365
7113 1 29.0764 38.5065 47.9367
7114 1 30.6481 40.0782 49.5084
7115 1 29.0764 41.6499 41.6499
7116 1 30.6481 43.2216 43.2216
7117 1 29.0764 41.6499 44.7933
7118 1 30.6481 43.2216 46.365
7119 1 29.0764 41.6499 47.9367
7120 1 30.6481 43.2216 49.5084
7121 1 29.0764 44.7933 41.6499
7122 1 30.6481 46.365 43.2216
7123 1 29.0764 44.7933 44.7933
7124 1 30.6481 46.365 46.365
7125 1 29.0764 44.7933 47.9367
7126 1 30.6481 46.365 49.5084
7127 1 29.0764 47.9367 41.6499
7128 1 30.6481 49.5084 43.2216
7129 1 29.0764 47.9367 44.7933
7130 1 30.6481 49.5084 46.365
7131 1 29.0764 47.9367 47.9367
7132 1 30.6481 49.5084 49.5084
7133 1 32.2197 0.7858 41.6499
7134 1 33.7914 2.3575 43.2216
7135 1 32.2197 0.7858 44.7933
7136 1 33.7914 2.3575 46.365
7137 1 32.2197 0.7858 47.9367
7138 1 33.7914 2.3575 49.5084
7139 1 32.2197 3.9292 41.6499
7140 1 33.7914 5.5009 43.2216
7141 1 32.2197 3.9292 44.7933
7142 1 33.7914 5.5009 46.365
7143 1 32.2197 3.9292 47.9367
7144 1 33.7914 5.5009 49.5084
7145 1 32.2197 7.0726 41.6499
7146 1 33.7914 8.6443 43.2216
7147 1 32.2197 7.0726 44.7933
7148 1 33.7914 8.6443 46.365
7149 1 32.2197 7.0726 47.9367
7150 1 33.7914 8.6443 49.5084
7151 1 32.2197 10.216 41.6499
7152 1 33.7914 11.7877 43.2216
7153 1 32.2197 10.216 44.7933
7154 1 33.7914 11.7877 46.365
7155 1 32.2197 10.216 47.9367
7156 1 33.7914 11.7877 49.5084
7157 1 32.2197 13.3594 41.6499
7158 1 33.7914 14.9311 43.2216
7159 1 32.2197 13.3594 44.7933
7160 1 33.7914 14.9311 46.365
7161 1 32.2197 13.3594 47.9367
7162 1 33.7914 14.9311 49.5084
7163 1 32.2197 16.5028 41.6499
7164 1 33.7914 18.0745 43.2216
7165 1 32.2197 16.5028 44.7933
7166 1 33.7914 18.0745 46.365
7167 1 32.2197 16.5028 47.9367
7168 1 33.7914 18.0745 49.5084
7169 1 32.2197 19.6462 41.6499
7170 1 33.7914 21.2179 43.2216
7171 1 32.2197 19.6462 44.7933
7172 1 33.7914 21.2179 46.365
7173 1 32.2197 19.6462 47.9367
7174 1 33.7914 21.2179 49.5084
7175 1 32.2197 22.7896 41.6499
7176 1 33.7914 24.3613 43.2216
7177 1 32.2197 22.7896 44.7933
7178 1 33.7914 24.3613 46.365
7179 1 32.2197 22.7896 47.9367
7180 1 33.7914 24.3613 49.5084
7181 1 32.2197 25.933 41.6499
7182 1 33.7914 27.5047 43.2216
7183 1 32.2197 25.933 44.7933
7184 1 33.7914 27.5047 46.365
7185 1 32.2197 25.933 47.9367
7186 1 33.7914 27.5047 49.5084
7187 1 32.2197 29.0764 41.6499
7188 1 33.7914 30.6481 43.2216
7189 1 32.2197 29.0764 44.7933
7190 1 33.7914 30.6481 46.365
7191 1 32.2197 29.0764 47.9367
7192 1 33.7914 30.6481 49.5084
7193 1 32.2197 32.2197 41.6499
7194 1 33.7914 33.7914 43.2216
7195 1 32.2197 32.2197 44.7933
7196 1 33.7914 33.7914 46.365
7197 1 32.2197 32.2197 47.9367
7198 1 33.7914 33.7914 49.5084
7199 1 32.2197 35.3631 41.6499
7200 1 33.7914 36.9348 43.2216
7201 1 32.2197 35.3631 44.7933
7202 1 33.7914 36.9348 46.365
7203 1 32.2197 35.3631 47.9367
7204 1 33.7914 36.9348 49.5084
7205 1 32.2197 38.5065 41.6499
7206 1 33.7914 40.0782 43.2216
7207 1 32.2197 38.5065 44.7933
7208 1 33.7914 40.0782 46.365
7209 1 32.2197 38.5065 47.9367
7210 1 33.7914 40.0782 49.5084
7211 1 32.2197 41.6499 41.6499
7212 1 33.7914 43.2216 43.2216
7213 1 32.2197 41.6499 44.7933
7214 1 33.7914 43.2216 46.365
7215 1 32.2197 41.6499 47.9367
7216 1 33.7914 43.2216 49.5084
7217 1 32.2197 44.7933 41.6499
7218 1 33.7914 46.365 43.2216
7219 1 32.2197 44.7933 44.7933
7220 1 33.7914 46.365 46.365
7221 1 32.2197 44.7933 47.9367
7222 1 33.7914 46.365 49.5084
7223 1 32.2197 47.9367 41.6499
7224 1 33.7914 49.5084 43.2216
7225 1 32.2197 47.9367 44.7933
7226 1 33.7914 49.5084 46.365
7227 1 32.2197 47.9367 47.9367
7228 1 33.7914 49.5084 49.5084
7229 1 13.3594 0.7858 10.216
7230 1 14.9311 2.3575 11.7877
7231 1 13.3594 0.7858 13.3594
7232 1 14.9311 2.3575 14.9311
7233 1 13.3594 0.7858 16.5028
7234 1 14.9311 2.3575 18.0745
7235 1 13.3594 0.7858 19.6462
7236 1 14.9311 2.3575 21.2179
7237 1 13.3594 0.7858 22.7896
7238 1 14.9311 2.3575 24.3613
7239 1 13.3594 0.7858 25.933
7240 1 14.9311 2.3575 27.5047
7241 1 13.3594 0.7858 29.0764
7242 1 14.9311 2.3575 30.6481
7243 1 13.3594 0.7858 32.2197
7244 1 14.9311 2.3575 33.7914
7245 1 13.3594 0.7858 35.3631
7246 1 14.9311 2.3575 36.9348
7247 1 13.3594 0.7858 38.5065
7248 1 14.9311 2.3575 40.0782
7249 1 13.3594 3.9292 10.216
7250 1 14.9311 5.5009 11.7877
7251 1 13.3594 3.9292 13.3594
7252 1 14.9311 5.5009 14.9311
7253 1 13.3594 3.9292 16.5028
7254 1 14.9311 5.5009 18.0745
7255 1 13.3594 3.9292 19.6462
7256 1 14.9311 5.5009 21.2179
7257 1 13.3594 3.9292 22.7896
7258 1 14.9311 5.5009 24.3613
7259 1 13.3594 3.9292 25.933
7260 1 14.9311 5.5009 27.5047
7261 1 13.3594 3.9292 29.0764
7262 1 14.9311 5.5009 30.6481
7263 1 13.3594 3.9292 32.2197
7264 1 14.9311 5.5009 33.7914
7265 1 13.3594 3.9292 35.3631
7266 1 14.9311 5.5009 36.9348
7267 1 13.3594 3.9292 38.5065
7268 1 14.9311 5.5009 40.0782
7269 1 13.3594 7.0726 10.216
7270 1 14.9311 8.6443 11.7877
7271 1 13.3594 7.0726 13.3594
7272 1 14.9311 8.6443 14.9311
7273 1 13.3594 7.0726 16.5028
7274 1 14.9311 8.6443 18.0745
7275 1 13.3594 7.0726 19.6462
7276 1 14.9311 8.6443 21.2179
7277 1 13.3594 7.0726 22.7896
7278 1 14.9311 8.6443 24.3613
7279 1 13.3594 7.0726 25.933
7280 1 14.9311 8.6443 27.5047
7281 1 13.3594 7.0726 29.0764
7282 1 14.9311 8.6443 30.6481
7283 1 13.3594 7.0726 32.2197
7284 1 14.9311 8.6443 33.7914
7285 1 13.3594 7.0726 35.3631
7286 1 14.9311 8.6443 36.9348
7287 1 13.3594 7.0726 38.5065
7288 1 14.9311 8.6443 40.0782
7289 1 16.5028 0.7858 10.216
7290 1 18.0745 2.3575 11.7877
7291 1 16.5028 0.7858 13.3594
7292 1 18.0745 2.3575 14.9311
7293 1 16.5028 0.7858 16.5028
7294 1 18.0745 2.3575 18.0745
7295 1 16.5028 0.7858 19.6462
7296 1 18.0745 2.3575 21.2179
7297 1 16.5028 0.7858 22.7896
7298 1 18.0745 2.3575 24.3613
7299 1 16.5028 0.7858 25.933
7300 1 18.0745 2.3575 27.5047
7301 1 16.5028 0.7858 29.0764
7302 1 18.0745 2.3575 30.6481
7303 1 16.5028 0.7858 32.2197
7304 1 18.0745 2.3575 33.7914
7305 1 16.5028 0.7858 35.3631
7306 1 18.0745 2.3575 36.9348
7307 1 16.5028 0.7858 38.5065
7308 1 18.0745 2.3575 40.0782
7309 1 16.5028 3.9292 10.216
7310 1 18.0745 5.5009 11.7877
7311 1 16.5028 3.9292 13.3594
7312 1 18.0745 5.5009 14.9311
7313 1 16.5028 3.9292 16.5028
7314 1 18.0745 5.5009 18.0745
7315 1 16.5028 3.9292 19.6462
7316 1 18.0745 5.5009 21.2179
7317 1 16.5028 3.9292 22.7896
7318 1 18.0745 5.5009 24.3613
7319 1 16.5028 3.9292 25.933
7320 1 18.0745 5.5009 27.5047
7321 1 16.5028 3.9292 29.0764
7322 1 18.0745 5.5009 30.6481
7323 1 16.5028 3.9292 32.2197
7324 1 18.0745 5.5009 33.7914
7325 1 16.5028 3.9292 35.3631
7326 1 18.0745 5.5009 36.9348
7327 1 16.5028 3.9292 38.5065
7328 1 18.0745 5.5009 40.0782
7329 1 16.5028 7.0726 10.216
7330 1 18.0745 8.6443 11.7877
7331 1 16.5028 7.0726 13.3594
7332 1 18.0745 8.6443 14.9311
7333 1 16.5028 7.0726 16.5028
7334 1 18.0745 8.6443 18.0745
7335 1 16.5028 7.0726 19.6462
7336 1 18.0745 8.6443 21.2179
7337 1 16.5028 7.0726 22.7896
7338 1 18.0745 8.6443 24.3613
7339 1 16.5028 7.0726 25.933
7340 1 18.0745 8.6443 27.5047
7341 1 16.5028 7.0726 29.0764
7342 1 18.0745 8.6443 30.6481
7343 1 16.5028 7.0726 32.2197
7344 1 18.0745 8.6443 33.7914
7345 1 16.5028 7.0726 35.3631
7346 1 18.0745 8.6443 36.9348
7347 1 16.5028 7.0726 38.5065
7348 1 18.0745 8.6443 40.0782
7349 1 19.6462 0.7858 10.216
7350 1 21.2179 2.3575 11.7877
7351 1 19.6462 0.7858 13.3594
7352 1 21.2179 2.3575 14.9311
7353 1 19.6462 0.7858 16.5028
7354 1 21.2179 2.3575 18.0745
7355 1 19.6462 0.7858 19.6462
7356 1 21.2179 2.3575 21.2179
7357 1 19.6462 0.7858 22.7896
7358 1 21.2179 2.3575 24.3613
7359 1 19.6462 0.7858 25.933
7360 1 21.2179 2.3575 27.5047
7361 1 19.6462 0.7858 29.0764
7362 1 21.2179 2.3575 30.6481
7363 1 19.6462 0.7858 32.2197
7364 1 21.2179 2.3575 33.7914
7365 1 19.6462 0.7858 35.3631
7366 1 21.2179 2.3575 36.9348
7367 1 19.6462 0.7858 38.5065
7368 1 21.2179 2.3575 40.0782
7369 1 19.6462 3.9292 10.216
7370 1 21.2179 5.5009 11.7877
7371 1 19.6462 3.9292 13.3594
7372 1 21.2179 5.5009 14.9311
7373 1 19.6462 3.9292 16.5028
7374 1 21.2179 5.5009 18.0745
7375 1 19.6462 3.9292 19.6462
7376 1 21.2179 5.5009 21.2179
7377 1 19.6462 3.9292 22.7896
7378 1 21.2179 5.5009 24.3613
7379 1 19.6462 3.9292 25.933
7380 1 21.2179 5.5009 27.5047
7381 1 19.6462 3.9292 29.0764
7382 1 21.2179 5.5009 30.6481
7383 1 19.6462 3.9292 32.2197
7384 1 21.2179 5.5009 33.7914
7385 1 19.6462 3.9292 35.3631
7386 1 21.2179 5.5009 36.9348
7387 1 19.6462 3.9292 38.5065
7388 1 21.2179 5.5009 40.0782
7389 1 19.6462 7.0726 10.216
7390 1 21.2179 8.6443 11.7877
7391 1 19.6462 7.0726 13.3594
7392 1 21.2179 8.6443 14.9311
7393 1 19.6462 7.0726 16.5028
7394 1 21.2179 8.6443 18.0745
7395 1 19.6462 7.0726 19.6462
7396 1 21.2179 8.6443 21.2179
7397 1 19.6462 7.0726 22.7896
7398 1 21.2179 8.6443 24.3613
7399 1 19.6462 7.0726 25.933
7400 1 21.2179 8.6443 27.5047
7401 1 19.6462 7.0726 29.0764
7402 1 21.2179 8.6443 30.6481
7403 1 19.6462 7.0726 32.2197
7404 1 21.2179 8.6443 33.7914
7405 1 19.6462 7.0726 35.3631
7406 1 21.2179 8.6443 36.9348
7407 1 19.6462 7.0726 38.5065
7408 1 21.2179 8.6443 40.0782
7409 1 22.7896 0.7858 10.216
7410 1 24.3613 2.3575 11.7877
7411 1 22.7896 0.7858 13.3594
7412 1 24.3613 2.3575 14.9311
7413 1 22.7896 0.7858 16.5028
7414 1 24.3613 2.3575 18.0745
7415 1 22.7896 0.7858 19.6462
7416 1 24.3613 2.3575 21.2179
7417 1 22.7896 0.7858 22.7896
7418 1 24.3613 2.3575 24.3613
7419 1 22.7896 0.7858 25.933
7420 1 24.3613 2.3575 27.5047
7421 1 22.7896 0.7858 29.0764
7422 1 24.3613 2.3575 30.6481
7423 1 22.7896 0.7858 32.2197
7424 1 24.3613 2.3575 33.7914
7425 1 22.7896 0.7858 35.3631
7426 1 24.3613 2.3575 36.9348
7427 1 22.7896 0.7858 38.5065
7428 1 24.3613 2.3575 40.0782
7429 1 22.7896 3.9292 10.216
7430 1 24.3613 5.5009 11.7877
7431 1 22.7896 3.9292 13.3594
7432 1 24.3613 5.5009 14.9311
7433 1 22.7896 3.9292 16.5028
7434 1 24.3613 5.5009 18.0745
7435 1 22.7896 3.9292 19.6462
7436 1 24.3613 5.5009 21.2179
7437 1 22.7896 3.9292 22.7896
7438 1 24.3613 5.5009 24.3613
7439 1 22.7896 3.9292 25.933
7440 1 24.3613 5.5009 27.5047
7441 1 22.7896 3.9292 29.0764
7442 1 24.3613 5.5009 30.6481
7443 1 22.7896 3.9292 32.2197
7444 1 24.3613 5.5009 33.7914
7445 1 22.7896 3.9292 35.3631
7446 1 24.3613 5.5009 36.9348
7447 1 22.7896 3.9292 38.5065
7448 1 24.3613 5.5009 40.0782
7449 1 22.7896 7.0726 10.216
7450 1 24.3613 8.6443 11.7877
7451 1 22.7896 7.0726 13.3594
7452 1 24.3613 8.6443 14.9311
7453 1 22.7896 7.0726 16.5028
7454 1 24.3613 8.6443 18.0745
7455 1 22.7896 7.0726 19.6462
7456 1 24.3613 8.6443 21.2179
7457 1 22.7896 7.0726 22.7896
7458 1 24.3613 8.6443 24.3613
7459 1 22.7896 7.0726 25.933
7460 1 24.3613 8.6443 27.5047
7461 1 22.7896 7.0726 29.0764
7462 1 24.3613 8.6443 30.6481
7463 1 22.7896 7.0726 32.2197
7464 1 24.3613 8.6443 33.7914
7465 1 22.7896 7.0726 35.3631
7466 1 24.3613 8.6443 36.9348
7467 1 22.7896 7.0726 38.5065
7468 1 24.3613 8.6443 40.0782
7469 1 25.933 0.7858 10.216
7470 1 27.5047 2.3575 11.7877
7471 1 25.933 0.7858 13.3594
7472 1 27.5047 2.3575 14.9311
7473 1 25.933 0.7858 16.5028
7474 1 27.5047 2.3575 18.0745
7475 1 25.933 0.7858 19.6462
7476 1 27.5047 2.3575 21.2179
7477 1 25.933 0.7858 22.7896
7478 1 27.5047 2.3575 24.3613
7479 1 25.933 0.7858 25.933
7480 1 27.5047 2.3575 27.5047
7481 1 25.933 0.7858 29.0764
7482 1 27.5047 2.3575 30.6481
7483 1 25.933 0.7858 32.2197
7484 1 27.5047 2.3575 33.7914
7485 1 25.933 0.7858 35.3631
7486 1 27.5047 2.3575 36.9348
7487 1 25.933 0.7858 38.5065
7488 1 27.5047 2.3575 40.0782
7489 1 25.933 3.9292 10.216
7490 1 27.5047 5.5009 11.7877
7491 1 25.933 3.9292 13.3594
7492 1 27.5047 5.5009 14.9311
7493 1 25.933 3.9292 16.5028
7494 1 27.5047 5.5009 18.0745
7495 1 25.933 3.9292 19.6462
7496 1 27.5047 5.5009 21.2179
7497 1 25.933 3.9292 22.7896
7498 1 27.5047 5.5009 24.3613
7499 1 25.933 3.9292 25.933
7500 1 27.5047 5.5009 27.5047
7501 1 25.933 3.9292 29.0764
7502 1 27.5047 5.5009 30.6481
7503 1 25.933 3.9292 32.2197
7504 1 27.5047 5.5009 33.7914
7505 1 25.933 3.9292 35.3631
7506 1 27.5047 5.5009 36.9348
7507 1 25.933 3.9292 38.5065
7508 1 27.5047 5.5009 40.0782
7509 1 25.933 7.0726 10.216
7510 1 27.5047 8.6443 11.7877
7511 1 25.933 7.0726 13.3594
7512 1 27.5047 8.6443 14.9311
7513 1 25.933 7.0726 16.5028
7514 1 27.5047 8.6443 18.0745
7515 1 25.933 7.0726 19.6462
7516 1 27.5047 8.6443 21.2179
7517 1 25.933 7.0726 22.7896
7518 1 27.5047 8.6443 24.3613
7519 1 25.933 7.0726 25.933
7520 1 27.5047 8.6443 27.5047
7521 1 25.933 7.0726 29.0764
7522 1 27.5047 8.6443 30.6481
7523 1 25.933 7.0726 32.2197
7524 1 27.5047 8.6443 33.7914
7525 1 25.933 7.0726 35.3631
7526 1 27.5047 8.6443 36.9348
7527 1 25.933 7.0726 38.5065
7528 1 27.5047 8.6443 40.0782
7529 1 29.0764 0.7858 10.216
7530 1 30.6481 2.3575 11.7877
7531 1 29.0764 0.7858 13.3594
7532 1 30.6481 2.3575 14.9311
7533 1 29.0764 0.7858 16.5028
7534 1 30.6481 2.3575 18.0745
7535 1 29.0764 0.7858 19.6462
7536 1 30.6481 2.3575 21.2179
7537 1 29.0764 0.7858 22.7896
7538 1 30.6481 2.3575 24.3613
7539 1 29.0764 0.7858 25.933
7540 1 30.6481 2.3575 27.5047
7541 1 29.0764 0.7858 29.0764
7542 1 30.6481 2.3575 30.6481
7543 1 29.0764 0.7858 32.2197
7544 1 30.6481 2.3575 33.7914
7545 1 29.0764 0.7858 35.3631
7546 1 30.6481 2.3575 36.9348
7547 1 29.0764 0.7858 38.5065
7548 1 30.6481 2.3575 40.0782
7549 1 29.0764 3.9292 10.216
7550 1 30.6481 5.5009 11.7877
7551 1 29.0764 3.9292 13.3594
7552 1 30.6481 5.5009 14.9311
7553 1 29.0764 3.9292 16.5028
7554 1 30.6481 5.5009 18.0745
7555 1 29.0764 3.9292 19.6462
7556 1 30.6481 5.5009 21.2179
7557 1 29.0764 3.9292 22.7896
7558 1 30.6481 5.5009 24.3613
7559 1 29.0764 3.9292 25.933
7560 1 30.6481 5.5009 27.5047
7561 1 29.0764 3.9292 29.0764
7562 1 30.6481 5.5009 30.6481
7563 1 29.0764 3.9292 32.2197
7564 1 30.6481 5.5009 33.7914
7565 1 29.0764 3.9292 35.3631
7566 1 30.6481 5.5009 36.9348
7567 1 29.0764 3.9292 38.5065
7568 1 30.6481 5.5009 40.0782
7569 1 29.0764 7.0726 10.216
7570 1 30.6481 8.6443 11.7877
7571 1 29.0764 7.0726 13.3594
7572 1 30.6481 8.6443 14.9311
7573 1 29.0764 7.0726 16.5028
7574 1 30.6481 8.6443 18.0745
7575 1 29.0764 7.0726 19.6462
7576 1 30.6481 8.6443 21.2179
7577 1 29.0764 7.0726 22.7896
7578 1 30.6481 8.6443 24.3613
7579 1 29.0764 7.0726 25.933
7580 1 30.6481 8.6443 27.5047
7581 1 29.0764 7.0726 29.0764
7582 1 30.6481 8.6443 30.6481
7583 1 29.0764 7.0726 32.2197
7584 1 30.6481 8.6443 33.7914
7585 1 29.0764 7.0726 35.3631
7586 1 30.6481 8.6443 36.9348
7587 1 29.0764 7.0726 38.5065
7588 1 30.6481 8.6443 40.0782
7589 1 32.2197 0.7858 10.216
7590 1 33.7914 2.3575 11.7877
7591 1 32.2197 0.7858 13.3594
7592 1 33.7914 2.3575 14.9311
7593 1 32.2197 0.7858 16.5028
7594 1 33.7914 2.3575 18.0745
7595 1 32.2197 0.7858 19.6462
7596 1 33.7914 2.3575 21.2179
7597 1 32.2197 0.7858 22.7896
7598 1 33.7914 2.3575 24.3613
7599 1 32.2197 0.7858 25.933
7600 1 33.7914 2.3575 27.5047
7601 1 32.2197 0.7858 29.0764
7602 1 33.7914 2.3575 30.6481
7603 1 32.2197 0.7858 32.2197
7604 1 33.7914 2.3575 33.7914
7605 1 32.2197 0.7858 35.3631
7606 1 33.7914 2.3575 36.9348
7607 1 32.2197 0.7858 38.5065
7608 1 33.7914 2.3575 40.0782
7609 1 32.2197 3.9292 10.216
7610 1 33.7914 5.5009 11.7877
7611 1 32.2197 3.9292 13.3594
7612 1 33.7914 5.5009 14.9311
7613 1 32.2197 3.9292 16.5028
7614 1 33.7914 5.5009 18.0745
7615 1 32.2197 3.9292 19.6462
7616 1 33.7914 5.5009 21.2179
7617 1 32.2197 3.9292 22.7896
7618 1 33.7914 5.5009 24.3613
7619 1 32.2197 3.9292 25.933
7620 1 33.7914 5.5009 27.5047
7621 1 32.2197 3.9292 29.0764
7622 1 33.7914 5.5009 30.6481
7623 1 32.2197 3.9292 32.2197
7624 1 33.7914 5.5009 33.7914
7625 1 32.2197 3.9292 35.3631
7626 1 33.7914 5.5009 36.9348
7627 1 32.2197 3.9292 38.5065
7628 1 33.7914 5.5009 40.0782
7629 1 32.2197 7.0726 10.216
7630 1 33.7914 8.6443 11.7877
7631 1 32.2197 7.0726 13.3594
7632 1 33.7914 8.6443 14.9311
7633 1 32.2197 7.0726 16.5028
7634 1 33.7914 8.6443 18.0745
7635 1 32.2197 7.0726 19.6462
7636 1 33.7914 8.6443 21.2179
7637 1 32.2197 7.0726 22.7896
7638 1 33.7914 8.6443 24.3613
7639 1 32.2197 7.0726 25.933
7640 1 33.7914 8.6443 27.5047
7641 1 32.2197 7.0726 29.0764
7642 1 33.7914 8.6443 30.6481
7643 1 32.2197 7.0726 32.2197
7644 1 33.7914 8.6443 33.7914
7645 1 32.2197 7.0726 35.3631
7646 1 33.7914 8.6443 36.9348
7647 1 32.2197 7.0726 38.5065
7648 1 33.7914 8.6443 40.0782
7649 1 13.3594 38.5065 10.216
7650 1 14.9311 40.0782 11.7877
7651 1 13.3594 38.5065 13.3594
7652 1 14.9311 40.0782 14.9311
7653 1 13.3594 38.5065 16.5028
7654 1 14.9311 40.0782 18.0745
7655 1 13.3594 38.5065 19.6462
7656 1 14.9311 40.0782 21.2179
7657 1 13.3594 38.5065 22.7896
7658 1 14.9311 40.0782 24.3613
7659 1 13.3594 38.5065 25.933
7660 1 14.9311 40.0782 27.5047
7661 1 13.3594 38.5065 29.0764
7662 1 14.9311 40.0782 30.6481
7663 1 13.3594 38.5065 32.2197
7664 1 14.9311 40.0782 33.7914
7665 1 13.3594 38.5065 35.3631
7666 1 14.9311 40.0782 36.9348
7667 1 13.3594 38.5065 38.5065
7668 1 14.9311 40.0782 40.0782
7669 1 13.3594 41.6499 10.216
7670 1 14.9311 43.2216 11.7877
7671 1 13.3594 41.6499 13.3594
7672 1 14.9311 43.2216 14.9311
7673 1 13.3594 41.6499 16.5028
7674 1 14.9311 43.2216 18.0745
7675 1 13.3594 41.6499 19.6462
7676 1 14.9311 43.2216 21.2179
7677 1 13.3594 41.6499 22.7896
7678 1 14.9311 43.2216 24.3613
7679 1 13.3594 41.6499 25.933
7680 1 14.9311 43.2216 27.5047
7681 1 13.3594 41.6499 29.0764
7682 1 14.9311 43.2216 30.6481
7683 1 13.3594 41.6499 32.2197
7684 1 14.9311 43.2216 33.7914
7685 1 13.3594 41.6499 35.3631
7686 1 14.9311 43.2216 36.9348
7687 1 13.3594 41.6499 38.5065
7688 1 14.9311 43.2216 40.0782
7689 1 13.3594 44.7933 10.216
7690 1 14.9311 46.365 11.7877
7691 1 13.3594 44.7933 13.3594
7692 1 14.9311 46.365 14.9311
7693 1 13.3594 44.7933 16.5028
7694 1 14.9311 46.365 18.0745
7695 1 13.3594 44.7933 19.6462
7696 1 14.9311 46.365 21.2179
7697 1 13.3594 44.7933 22.7896
7698 1 14.9311 46.365 24.3613
7699 1 13.3594 44.7933 25.933
7700 1 14.9311 46.365 27.5047
7701 1 13.3594 44.7933 29.0764
7702 1 14.9311 46.365 30.6481
7703 1 13.3594 44.7933 32.2197
7704 1 14.9311 46.365 33.7914
7705 1 13.3594 44.7933 35.3631
7706 1 14.9311 46.365 36.9348
7707 1 13.3594 44.7933 38.5065
7708 1 14.9311 46.365 40.0782
7709 1 13.3594 47.9367 10.216
7710 1 14.9311 49.5084 11.7877
7711 1 13.3594 47.9367 13.3594
7712 1 14.9311 49.5084 14.9311
7713 1 13.3594 47.9367 16.5028
7714 1 14.9311 49.5084 18.0745
7715 1 13.3594 47.9367 19.6462
7716 1 14.9311 49.5084 21.2179
7717 1 13.3594 47.9367 22.7896
7718 1 14.9311 49.5084 24.3613
7719 1 13.3594 47.9367 25.933
7720 1 14.9311 49.5084 27.5047
7721 1 13.3594 47.9367 29.0764
7722 1 14.9311 49.5084 30.6481
7723 1 13.3594 47.9367 32.2197
7724 1 14.9311 49.5084 33.7914
7725 1 13.3594 47.9367 35.3631
7726 1 14.9311 49.5084 36.9348
7727 1 13.3594 47.9367 38.5065
7728 1 14.9311 49.5084 40.0782
7729 1 16.5028 38.5065 10.216
7730 1 18.0745 40.0782 11.7877
7731 1 16.5028 38.5065 13.3594
7732 1 18.0745 40.0782 14.9311
7733 1 16.5028 38.5065 16.5028
7734 1 18.0745 40.0782 18.0745
7735 1 16.5028 38.5065 19.6462
7736 1 18.0745 40.0782 21.2179
7737 1 16.5028 38.5065 22.7896
7738 1 18.0745 40.0782 24.3613
7739 1 16.5028 38.5065 25.933
7740 1 18.0745 40.0782 27.5047
7741 1 16.5028 38.5065 29.0764
7742 1 18.0745 40.0782 30.6481
7743 1 16.5028 38.5065 32.2197
7744 1 18.0745 40.0782 33.7914
7745 1 16.5028 38.5065 35.3631
7746 1 18.0745 40.0782 36.9348
7747 1 16.5028 38.5065 38.5065
7748 1 18.0745 40.0782 40.0782
7749 1 16.5028 41.6499 10.216
7750 1 18.0745 43.2216 11.7877
7751 1 16.5028 41.6499 13.3594
7752 1 18.0745 43.2216 14.9311
7753 1 16.5028 41.6499 16.5028
7754 1 18.0745 43.2216 18.0745
7755 1 16.5028 41.6499 19.6462
7756 1 18.0745 43.2216 21.2179
7757 1 16.5028 41.6499 22.7896
7758 1 18.0745 43.2216 24.3613
7759 1 16.5028 41.6499 25.933
7760 1 18.0745 43.2216 27.5047
7761 1 16.5028 41.6499 29.0764
7762 1 18.0745 43.2216 30.6481
7763 1 16.5028 41.6499 32.2197
7764 1 18.0745 43.2216 33.7914
7765 1 16.5028 41.6499 35.3631
7766 1 18.0745 43.2216 36.9348
7767 1 16.5028 41.6499 38.5065
7768 1 18.0745 43.2216 40.0782
7769 1 16.5028 44.7933 10.216
7770 1 18.0745 46.365 11.7877
7771 1 16.5028 44.7933 13.3594
7772 1 18.0745 46.365 14.9311
7773 1 16.5028 44.7933 16.5028
7774 1 18.0745 46.365 18.0745
7775 1 16.5028 44.7933 19.6462
7776 1 18.0745 46.365 21.2179
7777 1 16.5028 44.7933 22.7896
7778 1 18.0745 46.365 24.3613
7779 1 16.5028 44.7933 25.933
7780 1 18.0745 46.365 27.5047
7781 1 16.5028 44.7933 29.0764
7782 1 18.0745 46.365 30.6481
7783 1 16.5028 44.7933 32.2197
7784 1 18.0745 46.365 33.7914
7785 1 16.5028 44.7933 35.3631
7786 1 18.0745 46.365 36.9348
7787 1 16.5028 44.7933 38.5065
7788 1 18.0745 46.365 40.0782
7789 1 16.5028 47.9367 10.216
7790 1 18.0745 49.5084 11.7877
7791 1 16.5028 47.9367 13.3594
7792 1 18.0745 49.5084 14.9311
7793 1 16.5028 47.9367 16.5028
7794 1 18.0745 49.5084 18.0745
7795 1 16.5028 47.9367 19.6462
7796 1 18.0745 49.5084 21.2179
7797 1 16.5028 47.9367 22.7896
7798 1 18.0745 49.5084 24.3613
7799 1 16.5028 47.9367 25.933
7800 1 18.0745 49.5084 27.5047
7801 1 16.5028 47.9367 29.0764
7802 1 18.0745 49.5084 30.6481
7803 1 16.5028 47.9367 32.2197
7804 1 18.0745 49.5084 33.7914
7805 1 16.5028 47.9367 35.3631
7806 1 18.0745 49.5084 36.9348
7807 1 16.5028 47.9367 38.5065
7808 1 18.0745 49.5084 40.0782
7809 1 19.6462 38.5065 10.216
7810 1 21.2179 40.0782 11.7877
7811 1 19.6462 38.5065 13.3594
7812 1 21.2179 40.0782 14.9311
7813 1 19.6462 38.5065 16.5028
7814 1 21.2179 40.0782 18.0745
7815 1 19.6462 38.5065 19.6462
7816 1 21.2179 40.0782 21.2179
7817 1 19.6462 38.5065 22.7896
7818 1 21.2179 40.0782 24.3613
7819 1 19.6462 38.5065 25.933
7820 1 21.2179 40.0782 27.5047
7821 1 19.6462 38.5065 29.0764
7822 1 21.2179 40.0782 30.6481
7823 1 19.6462 38.5065 32.2197
7824 1 21.2179 40.0782 33.7914
7825 1 19.6462 38.5065 35.3631
7826 1 21.2179 40.0782 36.9348
7827 1 19.6462 38.5065 38.5065
7828 1 21.2179 40.0782 40.0782
7829 1 19.6462 41.6499 10.216
7830 1 21.2179 43.2216 11.7877
7831 1 19.6462 41.6499 13.3594
7832 1 21.2179 43.2216 14.9311
7833 1 19.6462 41.6499 16.5028
7834 1 21.2179 43.2216 18.0745
7835 1 19.6462 41.6499 19.6462
7836 1 21.2179 43.2216 21.2179
7837 1 19.6462 41.6499 22.7896
7838 1 21.2179 43.2216 24.3613
7839 1 19.6462 41.6499 25.933
7840 1 21.2179 43.2216 27.5047
7841 1 19.6462 41.6499 29.0764
7842 1 21.2179 43.2216 30.6481
7843 1 19.6462 41.6499 32.2197
7844 1 21.2179 43.2216 33.7914
7845 1 19.6462 41.6499 35.3631
7846 1 21.2179 43.2216 36.9348
7847 1 19.6462 41.6499 38.5065
7848 1 21.2179 43.2216 40.0782
7849 1 19.6462 44.7933 10.216
7850 1 21.2179 46.365 11.7877
7851 1 19.6462 44.7933 13.3594
7852 1 21.2179 46.365 14.9311
7853 1 19.6462 44.7933 16.5028
7854 1 21.2179 46.365 18.0745
7855 1 19.6462 44.7933 19.6462
7856 1 21.2179 46.365 21.2179
7857 1 19.6462 44.7933 22.7896
7858 1 21.2179 46.365 24.3613
7859 1 19.6462 44.7933 25.933
7860 1 21.2179 46.365 27.5047
7861 1 19.6462 44.7933 29.0764
7862 1 21.2179 46.365 30.6481
7863 1 19.6462 44.7933 32.2197
7864 1 21.2179 46.365 33.7914
7865 1 19.6462 44.7933 35.3631
7866 1 21.2179 46.365 36.9348
7867 1 19.6462 44.7933 38.5065
7868 1 21.2179 46.365 40.0782
7869 1 19.6462 47.9367 10.216
7870 1 21.2179 49.5084 11.7877
7871 1 19.6462 47.9367 13.3594
7872 1 21.2179 49.5084 14.9311
7873 1 19.6462 47.9367 16.5028
7874 1 21.2179 49.5084 18.0745
7875 1 19.6462 47.9367 19.6462
7876 1 21.2179 49.5084 21.2179
7877 1 19.6462 47.9367 22.7896
7878 1 21.2179 49.5084 24.3613
7879 1 19.6462 47.9367 25.933
7880 1 21.2179 49.5084 27.5047
7881 1 19.6462 47.9367 29.0764
7882 1 21.2179 49.5084 30.6481
7883 1 19.6462 47.9367 32.2197
7884 1 21.2179 49.5084 33.7914
7885 1 19.6462 47.9367 35.3631
7886 1 21.2179 49.5084 36.9348
7887 1 19.6462 47.9367 38.5065
7888 1 21.2179 49.5084 40.0782
7889 1 22.7896 38.5065 10.216
7890 1 24.3613 40.0782 11.7877
7891 1 22.7896 38.5065 13.3594
7892 1 24.3613 40.0782 14.9311
7893 1 22.7896 38.5065 16.5028
7894 1 24.3613 40.0782 18.0745
7895 1 22.7896 38.5065 19.6462
7896 1 24.3613 40.0782 21.2179
7897 1 22.7896 38.5065 22.7896
7898 1 24.3613 40.0782 24.3613
7899 1 22.7896 38.5065 25.933
7900 1 24.3613 40.0782 27.5047
7901 1 22.7896 38.5065 29.0764
7902 1 24.3613 40.0782 30.6481
7903 1 22.7896 38.5065 32.2197
7904 1 24.3613 40.0782 33.7914
7905 1 22.7896 38.5065 35.3631
7906 1 24.3613 40.0782 36.9348
7907 1 22.7896 38.5065 38.5065
7908 1 24.3613 40.0782 40.0782
7909 1 22.7896 41.6499 10.216
7910 1 24.3613 43.2216 11.7877
7911 1 22.7896 41.6499 13.3594
7912 1 24.3613 43.2216 14.9311
7913 1 22.7896 41.6499 16.5028
7914 1 24.3613 43.2216 18.0745
7915 1 22.7896 41.6499 19.6462
7916 1 24.3613 43.2216 21.2179
7917 1 22.7896 41.6499 22.7896
7918 1 24.3613 43.2216 24.3613
7919 1 22.7896 41.6499 25.933
7920 1 24.3613 43.2216 27.5047
7921 1 22.7896 41.6499 29.0764
7922 1 24.3613 43.2216 30.6481
7923 1 22.7896 41.6499 32.2197
7924 1 24.3613 43.2216 33.7914
7925 1 22.7896 41.6499 35.3631
7926 1 24.3613 43.2216 36.9348
7927 1 22.7896 41.6499 38.5065
7928 1 24.3613 43.2216 40.0782
7929 1 22.7896 44.7933 10.216
7930 1 24.3613 46.365 11.7877
7931 1 22.7896 44.7933 13.3594
7932 1 24.3613 46.365 14.9311
7933 1 22.7896 44.7933 16.5028
7934 1 24.3613 46.365 18.0745
7935 1 22.7896 44.7933 19.6462
7936 1 24.3613 46.365 21.2179
7937 1 22.7896 44.7933 22.7896
7938 1 24.3613 46.365 24.3613
7939 1 22.7896 44.7933 25.933
7940 1 24.3613 46.365 27.5047
7941 1 22.7896 44.7933 29.0764
7942 1 24.3613 46.365 30.6481
7943 1 22.7896 44.7933 32.2197
7944 1 24.3613 46.365 33.7914
7945 1 22.7896 44.7933 35.3631
7946 1 24.3613 46.365 36.9348
7947 1 22.7896 44.7933 38.5065
7948 1 24.3613 46.365 40.0782
7949 1 22.7896 47.9367 10.216
7950 1 24.3613 49.5084 11.7877
7951 1 22.7896 47.9367 13.3594
7952 1 24.3613 49.5084 14.9311
7953 1 22.7896 47.9367 16.5028
7954 1 24.3613 49.5084 18.0745
7955 1 22.7896 47.9367 19.6462
7956 1 24.3613 49.5084 21.2179
7957 1 22.7896 47.9367 22.7896
7958 1 24.3613 49.5084 24.3613
7959 1 22.7896 47.9367 25.933
7960 1 24.3613 49.5084 27.5047
7961 1 22.7896 47.9367 29.0764
7962 1 24.3613 49.5084 30.6481
7963 1 22.7896 47.9367 32.2197
7964 1 24.3613 49.5084 33.7914
7965 1 22.7896 47.9367 35.3631
7966 1 24.3613 49.5084 36.9348
7967 1 22.7896 47.9367 38.5065
7968 1 24.3613 49.5084 40.0782
7969 1 25.933 38.5065 10.216
7970 1 27.5047 40.0782 11.7877
7971 1 25.933 38.5065 13.3594
7972 1 27.5047 40.0782 14.9311
7973 1 25.933 38.5065 16.5028
7974 1 27.5047 40.0782 18.0745
7975 1 25.933 38.5065 19.6462
7976 1 27.5047 40.0782 21.2179
7977 1 25.933 38.5065 22.7896
7978 1 27.5047 40.0782 24.3613
7979 1 25.933 38.5065 25.933
7980 1 27.5047 40.0782 27.5047
7981 1 25.933 38.5065 29.0764
7982 1 27.5047 40.0782 30.6481
7983 1 25.933 38.5065 32.2197
7984 1 27.5047 40.0782 33.7914
7985 1 25.933 38.5065 35.3631
7986 1 27.5047 40.0782 36.9348
7987 1 25.933 38.5065 38.5065
7988 1 27.5047 40.0782 40.0782
7989 1 25.933 41.6499 10.216
7990 1 27.5047 43.2216 11.7877
7991 1 25.933 41.6499 13.3594
7992 1 27.5047 43.2216 14.9311
7993 1 25.933 41.6499 16.5028
7994 1 27.5047 43.2216 18.0745
7995 1 25.933 41.6499 19.6462
7996 1 27.5047 43.2216 21.2179
7997 1 25.933 41.6499 22.7896
7998 1 27.5047 43.2216 24.3613
7999 1 25.933 41.6499 25.933
8000 1 27.5047 43.2216 27.5047
8001 1 25.933 41.6499 29.0764
8002 1 27.5047 43.2216 30.6481
8003 1 25.933 41.6499 32.2197
8004 1 27.5047 43.2216 33.7914
8005 1 25.933 41.6499 35.3631
8006 1 27.5047 43.2216 36.9348
8007 1 25.933 41.6499 38.5065
8008 1 27.5047 43.2216 40.0782
8009 1 25.933 44.7933 10.216
8010 1 27.5047 46.365 11.7877
8011 1 25.933 44.7933 13.3594
8012 1 27.5047 46.365 14.9311
8013 1 25.933 44.7933 16.5028
8014 1 27.5047 46.365 18.0745
8015 1 25.933 44.7933 19.6462
8016 1 27.5047 46.365 21.2179
8017 1 25.933 44.7933 22.7896
8018 1 27.5047 46.365 24.3613
8019 1 25.933 44.7933 25.933
8020 1 27.5047 46.365 27.5047
8021 1 25.933 44.7933 29.0764
8022 1 27.5047 46.365 30.6481
8023 1 25.933 44.7933 32.2197
8024 1 27.5047 46.365 33.7914
8025 1 25.933 44.7933 35.3631
8026 1 27.5047 46.365 36.9348
8027 1 25.933 44.7933 38.5065
8028 1 27.5047 46.365 40.0782
8029 1 25.933 47.9367 10.216
8030 1 27.5047 49.5084 11.7877
8031 1 25.933 47.9367 13.3594
8032 1 27.5047 49.5084 14.9311
8033 1 25.933 47.9367 16.5028
8034 1 27.5047 49.5084 18.0745
8035 1 25.933 47.9367 19.6462
8036 1 27.5047 49.5084 21.2179
8037 1 25.933 47.9367 22.7896
8038 1 27.5047 49.5084 24.3613
8039 1 25.933 47.9367 25.933
8040 1 27.5047 49.5084 27.5047
8041 1 25.933 47.9367 29.0764
8042 1 27.5047 49.5084 30.6481
8043 1 25.933 47.9367 32.2197
8044 1 27.5047 49.5084 33.7914
8045 1 25.933 47.9367 35.3631
8046 1 27.5047 49.5084 36.9348
8047 1 25.933 47.9367 38.5065
8048 1 27.5047 49.5084 40.0782
8049 1 29.0764 38.5065 10.216
8050 1 30.6481 40.0782 11.7877
8051 1 29.0764 38.5065 13.3594
8052 1 30.6481 40.0782 14.9311
8053 1 29.0764 38.5065 16.5028
8054 1 30.6481 40.0782 18.0745
8055 1 29.0764 38.5065 19.6462
8056 1 30.6481 40.0782 21.2179
8057 1 29.0764 38.5065 22.7896
8058 1 30.6481 40.0782 24.3613
8059 1 29.0764 38.5065 25.933
8060 1 30.6481 40.0782 27.5047
8061 1 29.0764 38.5065 29.0764
8062 1 30.6481 40.0782 30.6481
8063 1 29.0764 38.5065 32.2197
8064 1 30.6481 40.0782 33.7914
8065 1 29.0764 38.5065 35.3631
8066 1 30.6481 40.0782 36.9348
8067 1 29.0764 38.5065 38.5065
8068 1 30.6481 40.0782 40.0782
8069 1 29.0764 41.6499 10.216
8070 1 30.6481 43.2216 11.7877
8071 1 29.0764 41.6499 13.3594
8072 1 30.6481 43.2216 14.9311
8073 1 29.0764 41.6499 16.5028
8074 1 30.6481 43.2216 18.0745
8075 1 29.0764 41.6499 19.6462
8076 1 30.6481 43.2216 21.2179
8077 1 29.0764 41.6499 22.7896
8078 1 30.6481 43.2216 24.3613
8079 1 29.0764 41.6499 25.933
8080 1 30.6481 43.2216 27.5047
8081 1 29.0764 41.6499 29.0764
8082 1 30.6481 43.2216 30.6481
8083 1 29.0764 41.6499 32.2197
8084 1 30.6481 43.2216 33.7914
8085 1 29.0764 41.6499 35.3631
8086 1 30.6481 43.2216 36.9348
8087 1 29.0764 41.6499 38.5065
8088 1 30.6481 43.2216 40.0782
8089 1 29.0764 44.7933 10.216
8090 1 30.6481 46.365 11.7877
8091 1 29.0764 44.7933 13.3594
8092 1 30.6481 46.365 14.9311
8093 1 29.0764 44.7933 16.5028
8094 1 30.6481 46.365 18.0745
8095 1 29.0764 44.7933 19.6462
8096 1 30.6481 46.365 21.2179
8097 1 29.0764 44.7933 22.7896
8098 1 30.6481 46.365 24.3613
8099 1 29.0764 44.7933 25.933
8100 1 30.6481 46.365 27.5047
8101 1 29.0764 44.7933 29.0764
8102 1 30.6481 46.365 30.6481
8103 1 29.0764 44.7933 32.2197
8104 1 30.6481 46.365 33.7914
8105 1 29.0764 44.7933 35.3631
8106 1 30.6481 46.365 36.9348
8107 1 29.0764 44.7933 38.5065
8108 1 30.6481 46.365 40.0782
8109 1 29.0764 47.9367 10.216
8110 1 30.6481 49.5084 11.7877
8111 1 29.0764 47.9367 13.3594
8112 1 30.6481 49.5084 14.9311
8113 1 29.0764 47.9367 16.5028
8114 1 30.6481 49.5084 18.0745
8115 1 29.0764 47.9367 19.6462
8116 1 30.6481 49.5084 21.2179
8117 1 29.0764 47.9367 22.7896
8118 1 30.6481 49.5084 24.3613
8119 1 29.0764 47.9367 25.933
8120 1 30.6481 49.5084 27.5047
8121 1 29.0764 47.9367 29.0764
8122 1 30.6481 49.5084 30.6481
8123 1 29.0764 47.9367 32.2197
8124 1 30.6481 49.5084 33.7914
8125 1 29.0764 47.9367 35.3631
8126 1 30.6481 49.5084 36.9348
8127 1 29.0764 47.9367 38.5065
8128 1 30.6481 49.5084 40.0782
8129 1 32.2197 38.5065 10.216
8130 1 33.7914 40.0782 11.7877
8131 1 32.2197 38.5065 13.3594
8132 1 33.7914 40.0782 14.9311
8133 1 32.2197 38.5065 16.5028
8134 1 33.7914 40.0782 18.0745
8135 1 32.2197 38.5065 19.6462
8136 1 33.7914 40.0782 21.2179
8137 1 32.2197 38.5065 22.7896
8138 1 33.7914 40.0782 24.3613
8139 1 32.2197 38.5065 25.933
8140 1 33.7914 40.0782 27.5047
8141 1 32.2197 38.5065 29.0764
8142 1 33.7914 40.0782 30.6481
8143 1 32.2197 38.5065 32.2197
8144 1 33.7914 40.0782 33.7914
8145 1 32.2197 38.5065 35.3631
8146 1 33.7914 40.0782 36.9348
8147 1 32.2197 38.5065 38.5065
8148 1 33.7914 40.0782 40.0782
8149 1 32.2197 41.6499 10.216
8150 1 33.7914 43.2216 11.7877
8151 1 32.2197 41.6499 13.3594
8152 1 33.7914 43.2216 14.9311
8153 1 32.2197 41.6499 16.5028
8154 1 33.7914 43.2216 18.0745
8155 1 32.2197 41.6499 19.6462
8156 1 33.7914 43.2216 21.2179
8157 1 32.2197 41.6499 22.7896
8158 1 33.7914 43.2216 24.3613
8159 1 32.2197 41.6499 25.933
8160 1 33.7914 43.2216 27.5047
8161 1 32.2197 41.6499 29.0764
8162 1 33.7914 43.2216 30.6481
8163 1 32.2197 41.6499 32.2197
8164 1 33.7914 43.2216 33.7914
8165 1 32.2197 41.6499 35.3631
8166 1 33.7914 43.2216 36.9348
8167 1 32.2197 41.6499 38.5065
8168 1 33.7914 43.2216 40.0782
8169 1 32.2197 44.7933 10.216
8170 1 33.7914 46.365 11.7877
8171 1 32.2197 44.7933 13.3594
8172 1 33.7914 46.365 14.9311
8173 1 32.2197 44.7933 16.5028
8174 1 33.7914 46.365 18.0745
8175 1 32.2197 44.7933 19.6462
8176 1 33.7914 46.365 21.2179
8177 1 32.2197 44.7933 22.7896
8178 1 33.7914 46.365 24.3613
8179 1 32.2197 44.7933 25.933
8180 1 33.7914 46.365 27.5047
8181 1 32.2197 44.7933 29.0764
8182 1 33.7914 46.365 30.6481
8183 1 32.2197 44.7933 32.2197
8184 1 33.7914 46.365 33.7914
8185 1 32.2197 44.7933 35.3631
8186 1 33.7914 46.365 36.9348
8187 1 32.2197 44.7933 38.5065
8188 1 33.7914 46.365 40.0782
8189 1 32.2197 47.9367 10.216
8190 1 33.7914 49.5084 11.7877
8191 1 32.2197 47.9367 13.3594
8192 1 33.7914 49.5084 14.9311
8193 1 32.2197 47.9367 16.5028
8194 1 33.7914 49.5084 18.0745
8195 1 32.2197 47.9367 19.6462
8196 1 33.7914 49.5084 21.2179
8197 1 32.2197 47.9367 22.7896
8198 1 33.7914 49.5084 24.3613
8199 1 32.2197 47.9367 25.933
8200 1 33.7914 49.5084 27.5047
8201 1 32.2197 47.9367 29.0764
8202 1 33.7914 49.5084 30.6481
8203 1 32.2197 47.9367 32.2197
8204 1 33.7914 49.5084 33.7914
8205 1 32.2197 47.9367 35.3631
8206 1 33.7914 49.5084 36.9348
8207 1 32.2197 47.9367 38.5065
8208 1 33.7914 49.5084 40.0782
