./desired/Juslin/11_8/47_134/cluster.dat


8203 atoms
0 bonds
0 angles
0 dihedrals
0 impropers

2 atom types
0 bond types
0 angle types
0 dihedral types
0 improper types


0.000      50.6432 xlo xhi
0.000      50.6432 ylo yhi
0.000      50.6432 zlo zhi


Atoms

1 1 7.1201 32.4329 7.1011
2 1 8.7326 33.9881 8.6855
3 1 7.148 32.4105 10.2754
4 1 8.6955 33.99 11.8271
5 1 7.1109 32.4082 13.4183
6 1 8.6943 33.9823 15.0296
7 1 7.1403 32.4039 16.5682
8 1 8.7065 33.9956 18.2029
9 1 7.1327 32.4263 19.7616
10 1 8.7282 33.9639 21.3266
11 1 7.1427 32.4059 22.9331
12 1 8.7184 33.9891 24.4895
13 1 7.1571 32.4029 26.1095
14 1 8.7217 33.9839 27.6415
15 1 7.1497 32.3897 29.2539
16 1 8.7329 33.9767 30.8408
17 1 7.1737 32.3949 32.4244
18 1 8.7123 33.9992 34.0169
19 1 7.1413 32.3929 35.5705
20 1 8.7463 33.978 37.1698
21 1 7.16 32.4003 38.753
22 1 8.7017 34.0072 40.3392
23 1 7.1431 32.4007 41.8893
24 1 8.7257 33.9835 43.4944
25 1 7.1194 35.5988 7.0827
26 1 8.6978 37.1737 8.6564
27 1 7.1218 35.5785 10.2595
28 1 8.7217 37.1727 11.8382
29 1 7.1669 35.5781 13.4225
30 1 8.6998 37.1759 15.006
31 1 7.1338 35.5674 16.5889
32 1 8.716 37.1829 18.1696
33 1 7.1301 35.5833 19.7445
34 1 8.7319 37.1642 21.3422
35 1 7.151 35.5864 22.9009
36 1 8.7266 37.1352 24.4614
37 1 7.1632 35.5701 26.0648
38 1 8.7205 37.1569 27.6564
39 1 7.1414 35.5933 29.2227
40 1 8.7328 37.1686 30.8268
41 1 7.1423 35.5687 32.4006
42 1 8.7197 37.1787 34.0014
43 1 7.1676 35.5659 35.5537
44 1 8.7224 37.1404 37.1571
45 1 7.1343 35.5654 38.7413
46 1 8.7346 37.1251 40.3167
47 1 7.164 35.5794 41.9015
48 1 8.7361 37.1447 43.4855
49 1 7.1389 38.7392 7.0826
50 1 8.7102 40.3237 8.6537
51 1 7.1394 38.7725 10.2622
52 1 8.7086 40.3508 11.811
53 1 7.162 38.7425 13.4062
54 1 8.7156 40.3288 15.0087
55 1 7.133 38.7409 16.5967
56 1 8.7212 40.3287 18.1593
57 1 7.149 38.7313 19.7423
58 1 8.7464 40.3373 21.3324
59 1 7.144 38.7544 22.9265
60 1 8.7295 40.3494 24.4815
61 1 7.1353 38.7372 26.0915
62 1 8.7211 40.3367 27.6489
63 1 7.1568 38.7321 29.2257
64 1 8.7115 40.3402 30.82
65 1 7.1558 38.753 32.4037
66 1 8.7244 40.3268 33.9976
67 1 7.1344 38.7495 35.5726
68 1 8.7052 40.3044 37.1636
69 1 7.1556 38.7437 38.7323
70 1 8.7275 40.332 40.3374
71 1 7.1408 38.7458 41.894
72 1 8.7388 40.3139 43.4946
73 1 10.3091 32.4391 7.0946
74 1 11.8518 34.0304 8.6307
75 1 11.8622 33.9869 11.8222
76 1 10.2986 32.4208 13.4013
77 1 11.8418 34.0099 15.0042
78 1 11.8667 34.0055 18.1921
79 1 11.8852 34.0053 21.3383
80 1 11.8967 33.9797 24.5078
81 1 11.873 33.9986 27.6697
82 1 11.8642 34.0073 30.8373
83 1 11.89 34.0185 34.0214
84 1 11.8974 34.0104 37.1798
85 1 11.896 34.003 40.3083
86 1 11.8937 33.9956 43.4947
87 1 10.2912 35.5971 7.0864
88 1 11.8762 37.1726 8.6749
89 1 10.3156 35.5878 10.2752
90 1 11.8715 37.1755 11.8188
91 1 11.863 37.1887 15.0011
92 1 11.8661 37.166 18.1655
93 1 11.893 37.1702 21.3233
94 1 11.8847 37.1582 24.4949
95 1 11.8565 37.155 27.6663
96 1 11.8765 37.1716 30.8431
97 1 11.8605 37.1735 33.9715
98 1 11.8891 37.1709 37.1795
99 1 11.8799 37.1491 40.3169
100 1 11.9164 37.131 43.4777
101 1 11.8559 40.3383 8.6616
102 1 10.3066 38.7464 10.2539
103 1 11.8532 40.336 11.8307
104 1 11.8628 40.3381 14.9913
105 1 11.8667 40.3188 18.1597
106 1 11.8999 40.3351 21.3203
107 1 11.8912 40.3013 24.4922
108 1 11.86 40.3384 27.6563
109 1 11.8848 40.3345 30.8153
110 1 11.8682 40.3396 34.0132
111 1 11.892 40.3344 37.1546
112 1 11.8813 40.341 40.3327
113 1 11.8867 40.3343 43.4542
114 1 13.4622 32.4451 7.0883
115 1 15.0291 33.9994 8.6505
116 1 13.4524 32.4013 10.2582
117 1 15.0298 33.9951 11.8076
118 1 13.445 32.4135 13.4077
119 1 15.0045 34.0174 14.9745
120 1 13.4019 32.4492 16.5663
121 1 14.9954 34.0433 18.1308
122 1 13.4187 32.405 19.7524
123 1 15.0135 34.0301 21.3426
124 1 13.4606 32.425 22.929
125 1 15.0491 34.0194 24.4971
126 1 13.455 32.4071 26.1202
127 1 15.0182 34.0121 27.6842
128 1 13.4581 32.4295 29.2715
129 1 15.0475 34.038 30.8651
130 1 13.464 32.445 32.451
131 1 15.0245 34.02 34.0311
132 1 13.4628 32.4223 35.5888
133 1 15.0568 34.0209 37.2024
134 1 13.49 32.4108 38.7719
135 1 15.0546 33.9919 40.3608
136 1 13.4644 32.392 41.8994
137 1 15.0602 33.9908 43.5235
138 1 13.4718 35.5917 7.1044
139 1 15.044 37.1968 8.6655
140 1 13.4538 35.6009 10.2453
141 1 15.0104 37.1941 11.8104
142 1 13.4501 35.5868 13.4048
143 1 15.0151 37.1722 14.9921
144 1 13.4462 35.6068 16.5635
145 1 15.0292 37.1648 18.1398
146 1 13.4426 35.5985 19.7351
147 1 15.0476 37.1754 21.3155
148 1 13.4737 35.5748 22.9254
149 1 15.0293 37.1706 24.4896
150 1 13.458 35.5696 26.0934
151 1 15.0035 37.167 27.6795
152 1 13.4606 35.589 29.2457
153 1 15.0321 37.1832 30.8209
154 1 13.4488 35.6014 32.4162
155 1 15.0256 37.1841 33.9788
156 1 13.4555 35.6193 35.5908
157 1 15.0461 37.1708 37.1846
158 1 13.4686 35.5876 38.7692
159 1 15.0512 37.1648 40.3349
160 1 13.4911 35.5669 41.9057
161 1 15.0447 37.1669 43.4986
162 1 13.4682 38.7615 7.0805
163 1 15.0158 40.3477 8.6478
164 1 13.4663 38.7631 10.232
165 1 15.0432 40.3363 11.8446
166 1 13.4476 38.7861 13.3952
167 1 15.0242 40.366 14.9778
168 1 13.4291 38.7797 16.5747
169 1 15.0319 40.3529 18.1578
170 1 13.4586 38.7709 19.7262
171 1 15.0348 40.3618 21.3441
172 1 13.4627 38.7625 22.9254
173 1 15.0243 40.327 24.4989
174 1 13.4593 38.736 26.0885
175 1 15.0204 40.3413 27.6796
176 1 13.4562 38.7574 29.2705
177 1 15.0434 40.3484 30.827
178 1 13.4589 38.7577 32.4117
179 1 15.0449 40.372 34.0088
180 1 13.4608 38.746 35.581
181 1 15.0399 40.3347 37.1533
182 1 13.4657 38.7443 38.7405
183 1 15.0639 40.3704 40.3451
184 1 13.4974 38.7515 41.901
185 1 15.0537 40.3214 43.4622
186 1 16.6654 32.4441 7.0889
187 1 18.2132 34.0222 8.6633
188 1 16.6149 32.4115 10.2391
189 1 18.2007 33.9993 11.8294
190 1 16.6098 32.4196 13.401
191 1 18.1801 34.0471 14.9832
192 1 16.587 32.4586 16.5614
193 1 18.1267 34.0807 18.1074
194 1 16.5646 32.4889 19.7094
195 1 18.1688 34.0829 21.2992
196 1 16.6113 32.4511 22.9181
197 1 18.1949 34.0643 24.5034
198 1 16.635 32.4487 26.1093
199 1 18.1886 34.0589 27.6747
200 1 16.6047 32.4601 29.299
201 1 18.1792 34.0789 30.881
202 1 16.5911 32.4643 32.4867
203 1 18.191 34.0567 34.0527
204 1 16.6058 32.4331 35.5873
205 1 18.1965 34.0067 37.2163
206 1 16.633 32.4157 38.7521
207 1 18.2325 34.0185 40.3446
208 1 16.6522 32.4445 41.9117
209 1 18.1992 33.9924 43.4998
210 1 16.6315 35.602 7.0936
211 1 18.2042 37.2075 8.6664
212 1 16.618 35.595 10.2588
213 1 18.1886 37.1803 11.8083
214 1 16.6183 35.5972 13.3907
215 1 18.1733 37.2091 14.9592
216 1 16.5656 35.6094 16.5328
217 1 18.1519 37.1973 18.1385
218 1 16.5909 35.6375 19.7155
219 1 18.1942 37.2366 21.3154
220 1 16.6175 35.6256 22.9117
221 1 18.1948 37.2202 24.4836
222 1 16.603 35.5948 26.0987
223 1 18.2005 37.1949 27.6762
224 1 16.6186 35.6253 29.2611
225 1 18.1957 37.2291 30.8659
226 1 16.5978 35.6304 32.4266
227 1 18.1911 37.2245 34.028
228 1 16.6254 35.6221 35.6006
229 1 18.1878 37.2044 37.195
230 1 16.6083 35.5951 38.7801
231 1 18.2127 37.1902 40.3353
232 1 16.6417 35.6033 41.9529
233 1 18.233 37.1903 43.5101
234 1 16.6317 38.7767 7.0941
235 1 18.2047 40.3378 8.6411
236 1 16.6106 38.7693 10.2449
237 1 18.2149 40.3632 11.8465
238 1 16.6145 38.767 13.4118
239 1 18.1767 40.374 14.9864
240 1 16.5851 38.7922 16.5449
241 1 18.1801 40.3651 18.1757
242 1 16.6099 38.7837 19.7596
243 1 18.2026 40.3849 21.3251
244 1 16.5895 38.7672 22.9015
245 1 18.1781 40.3485 24.5085
246 1 16.5919 38.7663 26.0841
247 1 18.1873 40.3583 27.6568
248 1 16.6167 38.7682 29.2427
249 1 18.2145 40.3777 30.8439
250 1 16.6327 38.7791 32.4143
251 1 18.2115 40.3712 34.0043
252 1 16.6219 38.7842 35.581
253 1 18.2243 40.3462 37.1631
254 1 16.6403 38.7589 38.737
255 1 18.1937 40.3571 40.3204
256 1 16.6244 38.7411 41.8974
257 1 18.2104 40.3401 43.4898
258 1 19.7951 32.4497 7.0712
259 1 21.3919 34.0333 8.6462
260 1 19.7985 32.419 10.2318
261 1 21.3695 34.0241 11.8113
262 1 19.771 32.4517 13.4025
263 1 21.3536 34.035 14.9592
264 1 19.7455 32.4566 16.5534
265 1 21.256 34.13 18.0466
266 1 19.6992 32.5298 19.6557
267 1 21.329 34.1273 21.2505
268 1 19.7469 32.573 22.8817
269 1 21.3534 34.1101 24.4498
270 1 19.7945 32.5118 26.0919
271 1 21.3039 34.1537 27.7059
272 1 19.71 32.5326 29.3355
273 1 21.3312 34.1163 30.9143
274 1 19.7235 32.5131 32.5158
275 1 21.332 34.0855 34.0743
276 1 19.7667 32.4766 35.6391
277 1 21.3606 34.0231 37.2364
278 1 19.8147 32.4414 38.7843
279 1 21.3712 34.0297 40.3563
280 1 19.8191 32.445 41.9416
281 1 21.4009 34.028 43.5059
282 1 19.8128 35.6145 7.0957
283 1 21.3385 37.1939 8.6525
284 1 19.794 35.6052 10.2613
285 1 21.3544 37.1978 11.8265
286 1 19.754 35.6394 13.3899
287 1 21.3379 37.2007 14.9874
288 1 19.725 35.6373 16.5283
289 1 21.3373 37.2411 18.1374
290 1 19.7469 35.6809 19.7049
291 1 21.3524 37.2563 21.2893
292 1 19.7557 35.6602 22.9009
293 1 21.3371 37.2423 24.5052
294 1 19.7784 35.6445 26.0786
295 1 21.3634 37.2505 27.6745
296 1 19.7706 35.667 29.2758
297 1 21.3529 37.2458 30.8394
298 1 19.7446 35.676 32.464
299 1 21.3611 37.2337 34.0458
300 1 19.7823 35.6274 35.6355
301 1 21.389 37.2174 37.2016
302 1 19.8025 35.6136 38.7699
303 1 21.3913 37.2022 40.3626
304 1 19.7711 35.6018 41.9313
305 1 21.372 37.2015 43.5
306 1 19.7892 38.782 7.0966
307 1 21.371 40.3507 8.6525
308 1 19.7672 38.7831 10.2474
309 1 21.368 40.3892 11.8066
310 1 19.7672 38.7887 13.405
311 1 21.3572 40.3683 15.0047
312 1 19.75 38.8108 16.5689
313 1 21.359 40.3763 18.1762
314 1 19.7743 38.824 19.722
315 1 21.3523 40.3726 21.3233
316 1 19.7554 38.7973 22.9093
317 1 21.3412 40.3512 24.4846
318 1 19.7567 38.8133 26.0696
319 1 21.3678 40.3533 27.6693
320 1 19.7702 38.7759 29.2332
321 1 21.3733 40.3771 30.8305
322 1 19.7851 38.8067 32.4522
323 1 21.3912 40.3773 34.0128
324 1 19.7861 38.7901 35.5933
325 1 21.3839 40.3716 37.1911
326 1 19.7761 38.7827 38.7764
327 1 21.3666 40.3775 40.324
328 1 19.7943 38.7429 41.9261
329 1 21.3768 40.3461 43.4934
330 1 22.9559 32.4301 7.0839
331 1 24.5459 34.0484 8.6579
332 1 22.953 32.4427 10.2397
333 1 24.5416 34.0299 11.8306
334 1 22.9551 32.4435 13.3778
335 1 24.511 34.0446 14.9829
336 1 22.9233 32.485 16.5357
337 1 24.5404 34.0529 18.1252
338 1 22.7613 32.6957 19.5553
339 1 24.5217 34.142 21.2618
340 1 22.95 32.6086 22.7362
341 1 22.8948 32.669 26.1715
342 1 24.5321 34.1808 27.72
343 1 22.91 32.6289 29.3616
344 1 24.5252 34.1521 30.9134
345 1 22.8861 32.5511 32.5453
346 1 24.5188 34.0983 34.0911
347 1 22.9389 32.4865 35.6628
348 1 24.5668 34.0466 37.2228
349 1 22.9475 32.4531 38.8052
350 1 24.5568 34.0479 40.3671
351 1 22.9672 32.4333 41.9392
352 1 24.5228 33.9975 43.501
353 1 22.9671 35.5971 7.1043
354 1 24.5408 37.1984 8.6689
355 1 22.9355 35.6095 10.2486
356 1 24.5191 37.1902 11.8275
357 1 22.9428 35.6106 13.3967
358 1 24.5223 37.1899 15.0052
359 1 22.9494 35.6481 16.5547
360 1 24.5224 37.2195 18.1333
361 1 22.9171 35.6766 19.7018
362 1 24.5492 37.234 21.3065
363 1 22.9561 35.6911 22.8671
364 1 24.5455 37.2325 24.492
365 1 22.9515 35.704 26.0871
366 1 24.5448 37.2373 27.6682
367 1 22.9477 35.6837 29.2987
368 1 24.554 37.2544 30.8598
369 1 22.9536 35.6845 32.4714
370 1 24.5487 37.2244 34.0336
371 1 22.9585 35.6383 35.6189
372 1 24.5683 37.2221 37.208
373 1 22.9671 35.6353 38.8018
374 1 24.5571 37.2216 40.3347
375 1 22.9751 35.5977 41.9321
376 1 24.5162 37.1852 43.516
377 1 22.9532 38.7751 7.082
378 1 24.53 40.3673 8.6773
379 1 22.9638 38.7724 10.2567
380 1 24.5347 40.3432 11.8398
381 1 22.9465 38.782 13.408
382 1 24.5603 40.3623 15.0026
383 1 22.9383 38.7715 16.5612
384 1 24.5437 40.378 18.1422
385 1 22.9497 38.795 19.7068
386 1 24.5203 40.3624 21.3288
387 1 22.94 38.8105 22.8801
388 1 24.5384 40.3714 24.4873
389 1 22.9485 38.7994 26.0603
390 1 24.5175 40.3808 27.6913
391 1 22.9403 38.8146 29.2501
392 1 24.5347 40.4059 30.8479
393 1 22.9672 38.8115 32.4712
394 1 24.5443 40.3845 34.0276
395 1 22.9509 38.7885 35.5804
396 1 24.5468 40.3714 37.201
397 1 22.9611 38.7658 38.7612
398 1 24.5435 40.3452 40.3326
399 1 22.9392 38.7926 41.9199
400 1 24.5427 40.3595 43.5235
401 1 26.1441 32.4483 7.0749
402 1 26.1544 32.4301 10.2667
403 1 26.1114 32.4511 13.3963
404 1 26.1132 32.4705 16.5349
405 1 26.1893 32.5357 19.7101
406 1 26.1455 32.7065 22.8581
407 1 26.162 32.6218 32.579
408 1 26.1094 32.4862 35.6547
409 1 26.1387 32.4543 38.7977
410 1 26.1206 32.4461 41.9462
411 1 26.1477 35.6198 7.0932
412 1 26.1032 35.6154 10.2405
413 1 26.1158 35.6101 13.4067
414 1 26.1137 35.6228 16.5507
415 1 26.1307 35.6541 19.6956
416 1 24.5228 34.2032 24.4726
417 1 26.1339 35.6865 26.0837
418 1 26.1261 35.7082 29.3001
419 1 26.1067 35.6811 32.4687
420 1 26.1433 35.6334 35.6408
421 1 26.1445 35.643 38.7772
422 1 26.1317 35.6088 41.9299
423 1 26.1021 38.7619 7.0738
424 1 26.1098 38.7694 10.2815
425 1 26.1161 38.7893 13.4121
426 1 26.1059 38.7839 16.5784
427 1 26.1192 38.8217 19.7555
428 1 26.1349 38.8285 22.8961
429 1 26.1319 38.797 26.0906
430 1 26.134 38.832 29.2727
431 1 26.121 38.8146 32.4503
432 1 26.1169 38.7983 35.6077
433 1 26.1428 38.7898 38.7818
434 1 26.1197 38.7838 41.9425
435 1 10.2687 32.4128 10.254
436 1 10.3056 35.5827 13.41
437 1 10.3088 32.4143 26.0981
438 1 10.3092 38.7338 26.0687
439 1 10.3021 38.753 29.2639
440 1 10.3152 38.731 22.9227
441 1 10.2754 38.7751 13.3854
442 1 10.3189 38.7714 32.4029
443 1 10.2753 32.4329 16.5905
444 1 10.2944 35.586 16.5904
445 1 10.291 38.7594 19.752
446 1 10.305 32.412 19.781
447 1 10.2849 35.5644 19.7537
448 1 10.2814 38.776 16.5721
449 1 10.2898 38.7618 7.0632
450 1 10.3206 35.5898 22.9298
451 1 10.3135 32.4348 32.4157
452 1 10.3224 32.4015 22.9118
453 1 10.293 35.5957 29.2374
454 1 10.2974 35.5567 26.0936
455 1 10.2887 35.5597 32.4322
456 1 10.3095 32.42 29.2647
457 1 10.32 38.7286 35.5537
458 1 10.3164 38.7856 38.7323
459 1 10.2931 32.4375 35.592
460 1 10.3031 38.7253 41.8812
461 1 10.3034 35.5842 38.7537
462 1 10.3178 35.584 41.921
463 1 10.3095 32.3973 41.9069
464 1 10.3004 35.585 35.5867
465 1 10.3128 32.4149 38.7461
466 1 26.1737 32.7308 26.0979
467 1 26.1278 35.6834 22.8887
468 1 26.1419 32.7038 29.3499
469 1 29.2881 32.4439 7.1078
470 1 30.8764 34.0167 8.6806
471 1 29.3277 32.451 10.2223
472 1 29.305 32.4608 13.4044
473 1 30.8762 34.0219 14.9926
474 1 29.3114 32.4609 16.5515
475 1 30.9086 34.0411 18.1397
476 1 29.3005 32.4811 19.6903
477 1 29.3522 32.5217 22.8411
478 1 30.9074 34.0906 24.4757
479 1 29.348 32.5823 25.9988
480 1 30.9028 34.0662 27.6804
481 1 29.3325 32.5984 29.356
482 1 30.9173 34.1052 30.8681
483 1 29.3911 32.6069 32.5346
484 1 29.4063 32.5689 35.7239
485 1 30.9604 34.0832 37.2432
486 1 29.3297 32.4729 38.8027
487 1 30.878 34.0467 40.3603
488 1 29.3008 32.4493 41.9358
489 1 30.8666 34.0415 43.5452
490 1 29.2772 35.6348 7.0854
491 1 30.871 37.1906 8.6924
492 1 29.2705 35.5975 10.2386
493 1 30.8476 37.1861 11.8317
494 1 29.2673 35.6077 13.397
495 1 30.8407 37.1819 14.996
496 1 29.3024 35.6379 16.5562
497 1 30.8651 37.1935 18.16
498 1 29.3048 35.6628 19.7077
499 1 29.3332 35.6659 22.9051
500 1 27.7596 34.1714 24.4579
501 1 29.3134 35.6778 26.0982
502 1 27.7599 34.146 27.7155
503 1 30.9071 37.2378 27.6699
504 1 29.3193 35.7023 29.2845
505 1 30.8889 37.2545 30.8631
506 1 29.3512 35.6967 32.4698
507 1 30.8889 37.2409 34.0316
508 1 29.3432 35.6612 35.633
509 1 30.9112 37.2439 37.2017
510 1 29.2942 35.6401 38.7919
511 1 30.9006 37.204 40.3569
512 1 29.2809 35.6046 41.9428
513 1 30.8577 37.1709 43.5154
514 1 29.2912 38.7402 7.085
515 1 30.8611 40.3492 8.6761
516 1 29.2777 38.7796 10.256
517 1 30.8796 40.3586 11.8294
518 1 29.2732 38.7606 13.4306
519 1 30.8447 40.3696 14.9775
520 1 29.304 38.7783 16.5713
521 1 29.3132 38.7998 19.7305
522 1 27.7067 37.2576 21.3063
523 1 30.8819 40.3803 21.3234
524 1 29.2997 38.8015 22.9203
525 1 30.8903 40.3674 24.5008
526 1 29.2927 38.8159 26.0843
527 1 30.8689 40.3729 27.6702
528 1 29.2858 38.8298 29.2643
529 1 30.8801 40.4055 30.8117
530 1 29.2946 38.8065 32.4519
531 1 30.874 40.3785 34.0189
532 1 29.3381 38.7851 35.5984
533 1 30.8701 40.3619 37.1865
534 1 29.3312 38.7642 38.7562
535 1 30.8573 40.3561 40.3616
536 1 29.3016 38.7937 41.9348
537 1 30.8518 40.3517 43.524
538 1 32.4586 32.4309 7.0938
539 1 34.0416 33.9975 8.6576
540 1 32.4443 32.4252 10.2613
541 1 32.4424 32.446 13.4102
542 1 34.0467 34.0374 15.0006
543 1 32.4742 32.4256 16.5773
544 1 34.0306 34.0138 18.1506
545 1 32.5036 32.4739 19.7271
546 1 34.0409 34.0453 21.3245
547 1 32.5035 32.4876 22.8723
548 1 34.0695 34.0462 24.5131
549 1 32.5057 32.4674 26.0843
550 1 34.0259 34.0408 27.6938
551 1 32.4912 32.4997 29.2797
552 1 34.0587 34.0369 30.8643
553 1 32.5158 32.5157 32.4742
554 1 34.0524 34.075 34.0598
555 1 32.5165 32.5046 35.6701
556 1 34.0552 34.0681 37.2085
557 1 32.4758 32.4472 38.7899
558 1 34.039 34.0209 40.3644
559 1 32.4369 32.437 41.9234
560 1 34.0378 34.0232 43.5109
561 1 32.4647 35.6026 7.0807
562 1 32.4521 35.5921 10.2661
563 1 30.8762 34.0414 11.8364
564 1 34.0078 37.2028 11.8192
565 1 32.4713 35.5916 13.4106
566 1 34.0574 37.2192 15.0028
567 1 32.4723 35.6218 16.5885
568 1 32.4662 35.6294 19.7338
569 1 30.923 34.0523 21.295
570 1 34.0476 37.2251 21.3376
571 1 32.4668 35.6438 22.903
572 1 34.0385 37.1917 24.4991
573 1 32.4791 35.6356 26.0843
574 1 34.0455 37.2207 27.6707
575 1 32.4731 35.629 29.2815
576 1 32.4763 35.6632 32.4346
577 1 30.9334 34.0919 34.0917
578 1 34.0635 37.2177 34.0087
579 1 32.5043 35.6528 35.6289
580 1 34.0547 37.1998 37.1999
581 1 32.4849 35.6273 38.8047
582 1 34.0535 37.1979 40.3653
583 1 32.4484 35.6267 41.9741
584 1 34.0336 37.1955 43.52
585 1 32.4392 38.7617 7.105
586 1 34.0322 40.3289 8.6698
587 1 32.4383 38.7598 10.2409
588 1 34.0049 40.3489 11.8422
589 1 32.4322 38.7589 13.4348
590 1 34.0246 40.3487 15.0026
591 1 32.4304 38.7685 16.5781
592 1 32.4633 38.7633 19.7451
593 1 30.8878 37.246 21.3185
594 1 32.457 38.7965 22.9236
595 1 30.8737 37.2257 24.4996
596 1 34.0429 40.366 24.4968
597 1 32.4809 38.8213 26.078
598 1 34.0482 40.3695 27.6653
599 1 32.4635 38.7956 29.2476
600 1 34.0461 40.374 30.8494
601 1 32.4815 38.7933 32.4389
602 1 34.0432 40.3532 33.9777
603 1 32.4746 38.7996 35.5821
604 1 34.0705 40.3754 37.2028
605 1 32.4588 38.805 38.7605
606 1 34.0431 40.3508 40.3473
607 1 32.4534 38.7827 41.9355
608 1 34.0303 40.3597 43.5216
609 1 30.8742 40.3653 18.1521
610 1 35.6239 32.4237 7.0997
611 1 37.1843 33.9922 8.6695
612 1 35.5982 32.4358 10.2572
613 1 37.2008 34.0111 11.838
614 1 35.6132 32.4481 13.4487
615 1 37.1999 34.0185 14.9791
616 1 35.6087 32.4372 16.6186
617 1 37.1915 34.0209 18.1536
618 1 35.6078 32.4408 19.7562
619 1 38.7511 35.6103 19.7475
620 1 35.6419 32.4407 22.912
621 1 37.2029 34.029 24.503
622 1 35.6243 32.4365 26.1104
623 1 37.2149 34.0296 27.6871
624 1 35.6203 32.4441 29.2558
625 1 37.1974 34.0239 30.8534
626 1 35.6332 32.4334 32.418
627 1 37.2064 34.0296 34.0262
628 1 35.6645 32.44 35.639
629 1 37.2145 34.0221 37.2002
630 1 35.6345 32.4567 38.7831
631 1 37.1988 34.0212 40.3532
632 1 35.6353 32.4311 41.9462
633 1 37.1921 34.0147 43.5196
634 1 35.6156 35.5852 7.0887
635 1 35.6232 35.5979 10.2617
636 1 34.0367 34.0162 11.8583
637 1 37.2052 37.1891 11.8478
638 1 35.6112 35.6107 13.409
639 1 37.195 37.1957 15.0035
640 1 35.6221 35.5971 16.5633
641 1 37.1944 37.2067 18.1684
642 1 35.6017 35.6236 19.7507
643 1 37.1726 37.1876 21.3297
644 1 35.62 35.6233 22.9326
645 1 37.1747 37.1844 24.5142
646 1 35.6422 35.6112 26.0977
647 1 37.2036 37.1902 27.684
648 1 35.621 35.6056 29.268
649 1 37.2168 37.1931 30.8688
650 1 35.6313 35.6193 32.4325
651 1 37.2177 37.205 34.0305
652 1 35.6748 35.6264 35.6189
653 1 37.2152 37.1988 37.207
654 1 35.6466 35.6095 38.7901
655 1 37.2053 37.1996 40.3539
656 1 35.6165 35.6238 41.9493
657 1 37.1932 37.2137 43.5129
658 1 35.6071 38.7576 7.0786
659 1 37.1928 40.3349 8.6644
660 1 34.0089 37.1626 8.6709
661 1 37.1884 40.3489 11.8201
662 1 35.5938 38.7788 13.3996
663 1 35.5957 38.7794 16.572
664 1 34.0563 37.191 18.1392
665 1 37.1725 40.3475 18.1603
666 1 35.6462 38.7781 19.7674
667 1 37.1984 40.3509 21.3663
668 1 35.6244 38.8017 22.9194
669 1 37.2101 40.3655 24.5035
670 1 35.6239 38.7802 26.1016
671 1 35.632 38.7876 29.2728
672 1 34.0586 37.2013 30.8485
673 1 37.1829 40.3513 30.8532
674 1 35.6382 38.7915 32.4408
675 1 37.1859 40.3494 34.0049
676 1 35.6156 38.7805 35.6001
677 1 37.1768 40.3515 37.1682
678 1 35.617 38.783 38.7819
679 1 37.1813 40.3716 40.3558
680 1 35.5988 38.7888 41.9445
681 1 37.2021 40.3303 43.4833
682 1 34.037 40.3635 18.183
683 1 34.0238 40.3465 21.3392
684 1 38.7599 32.3949 7.1099
685 1 40.3766 34.0126 8.6876
686 1 38.7916 32.4082 10.2552
687 1 40.3539 34.009 11.8551
688 1 40.3596 34.0281 15.0548
689 1 38.7611 32.437 16.6072
690 1 40.3433 34.0273 18.1912
691 1 38.7589 32.4475 19.7703
692 1 38.7984 32.4402 22.9327
693 1 37.2199 34.0315 21.3417
694 1 38.7944 32.4423 26.1006
695 1 40.3505 34.0181 27.6765
696 1 38.7833 32.4196 29.2651
697 1 40.3506 34.0019 30.8574
698 1 38.8038 32.4326 32.428
699 1 40.356 34.0028 34.0304
700 1 38.7873 32.4446 35.5991
701 1 40.3683 34.0172 37.1812
702 1 38.8023 32.4283 38.8054
703 1 40.3643 34.0325 40.3509
704 1 38.7562 32.4304 41.9164
705 1 40.369 34.0247 43.5074
706 1 38.7801 35.5721 7.0967
707 1 40.3699 37.161 8.6702
708 1 38.7864 35.5884 10.2512
709 1 40.3404 37.1835 11.8439
710 1 38.7695 35.5779 13.4208
711 1 40.3543 37.1852 15.0097
712 1 38.7663 35.6179 16.5828
713 1 43.5169 37.1677 18.1893
714 1 40.346 37.1801 18.1799
715 1 41.933 35.5699 19.7656
716 1 38.7719 35.6034 22.9268
717 1 40.3335 37.1823 24.5312
718 1 38.779 35.6098 26.0837
719 1 40.3659 37.1736 27.661
720 1 38.7747 35.6222 29.2898
721 1 40.3808 37.1593 30.8572
722 1 38.7911 35.5991 32.428
723 1 40.3557 37.1894 33.996
724 1 38.7639 35.6 35.6093
725 1 40.3624 37.1817 37.1894
726 1 38.7895 35.6134 38.8006
727 1 40.3596 37.1853 40.3298
728 1 38.7932 35.6142 41.9516
729 1 40.359 37.1901 43.4803
730 1 38.7655 38.7366 7.0836
731 1 37.2039 37.183 8.6763
732 1 40.3486 40.3237 8.6915
733 1 38.7644 38.7573 10.2734
734 1 40.3561 40.3375 11.8543
735 1 35.5921 38.7531 10.2611
736 1 38.7774 38.7542 16.6123
737 1 37.1654 40.3518 15.0228
738 1 38.7728 38.7602 19.7445
739 1 41.9182 38.7589 19.7805
740 1 38.7736 38.7644 22.9244
741 1 40.383 40.3447 24.4967
742 1 38.7797 38.7532 26.0978
743 1 40.3624 40.3236 27.6702
744 1 38.7804 38.773 29.2664
745 1 41.9851 38.76 32.4247
746 1 38.7814 38.7599 32.4133
747 1 40.3365 40.3208 33.9859
748 1 38.7708 38.7616 35.6231
749 1 40.3544 40.347 37.1459
750 1 38.7871 38.7604 38.7386
751 1 40.3659 40.3542 40.3353
752 1 38.7669 38.8053 41.9141
753 1 40.3671 40.3707 43.4753
754 1 37.1822 40.3552 27.671
755 1 40.3672 40.3469 30.8404
756 1 41.9469 32.4043 7.1037
757 1 43.5268 34.0024 8.6832
758 1 41.9318 32.4188 10.2585
759 1 43.535 34.0155 11.855
760 1 43.4916 34.0077 15.0368
761 1 41.9222 32.4378 16.616
762 1 41.9399 35.6058 16.5798
763 1 41.9495 32.4308 19.7899
764 1 43.5472 34.0036 21.3507
765 1 41.9432 35.5858 22.9184
766 1 43.5275 33.9994 24.5214
767 1 41.9501 32.413 29.2674
768 1 43.5164 33.9995 27.6681
769 1 41.9467 32.4295 32.4353
770 1 43.5262 33.9972 34.0044
771 1 41.9526 32.4172 35.6129
772 1 43.5094 34.0172 37.1441
773 1 41.9543 32.4338 38.7491
774 1 43.5285 34.0082 40.3192
775 1 41.9369 32.4363 41.9066
776 1 43.5335 33.9964 43.4858
777 1 41.9494 35.5975 7.1107
778 1 43.4998 37.1559 8.6841
779 1 41.9333 35.5668 10.2851
780 1 43.5092 37.1559 11.837
781 1 41.9228 35.6002 13.4224
782 1 41.9405 38.7802 13.4226
783 1 43.5149 37.171 15.0235
784 1 40.3635 34.0225 24.5174
785 1 41.9377 38.7593 22.9057
786 1 41.9381 35.5826 26.1019
787 1 43.5377 37.1713 30.8384
788 1 41.949 35.5848 29.2451
789 1 43.5236 34.0105 30.8711
790 1 41.9409 35.5836 32.4166
791 1 41.9412 38.7596 35.5836
792 1 41.9537 35.5947 35.5601
793 1 43.5305 37.1725 37.1706
794 1 41.9586 35.5969 38.7551
795 1 43.5321 37.1836 40.3155
796 1 41.9361 35.5984 41.911
797 1 43.5368 37.1982 43.4928
798 1 41.9398 38.7414 7.1046
799 1 41.9306 38.7647 10.2927
800 1 43.5189 40.3512 11.8394
801 1 40.3571 40.3629 15.0113
802 1 43.54 40.3116 15.0211
803 1 38.7595 38.761 13.4103
804 1 40.3681 40.342 18.1864
805 1 40.3623 37.1912 21.3487
806 1 43.5195 40.3372 24.4966
807 1 41.9461 38.7655 26.0836
808 1 41.9291 38.7794 29.2719
809 1 43.515 37.1711 34.0082
810 1 43.5084 40.3393 30.8343
811 1 43.5261 40.3476 34.0109
812 1 43.5304 40.3375 37.1552
813 1 41.9476 38.7783 41.909
814 1 41.9365 38.7801 38.7356
815 1 43.5157 40.3544 18.1819
816 1 41.9142 38.7344 16.589
817 1 40.346 40.3429 21.345
818 1 40.3506 34.0098 21.3495
819 1 43.5032 37.163 24.5008
820 1 43.5398 40.3765 43.4802
821 1 43.488 34.0199 18.1767
822 1 43.515 40.3426 27.6636
823 1 43.5017 40.3276 21.3267
824 1 38.7797 32.4163 13.4184
825 1 43.546 40.3722 40.2819
826 1 43.4983 40.3314 8.6937
827 1 41.9603 32.4194 22.9188
828 1 43.5261 37.1782 27.681
829 1 43.5305 37.162 21.3307
830 1 41.9476 32.4445 26.1169
831 1 41.9215 32.4145 13.4441
832 1 27.7297 40.3973 37.1949
833 1 27.6897 40.3517 11.8392
834 1 27.6954 40.3703 8.6767
835 1 27.7107 40.3936 30.8544
836 1 27.7216 37.1843 8.6655
837 1 27.7037 37.1731 11.8194
838 1 27.7338 37.2231 37.1854
839 1 27.7124 40.3675 40.3794
840 1 27.7179 40.3528 34.028
841 1 27.7059 34.0256 14.9653
842 1 27.7195 34.0244 8.6648
843 1 27.6959 40.3681 24.5209
844 1 27.7107 40.3642 21.3409
845 1 27.7198 40.4047 27.6718
846 1 27.6869 40.3657 15.0231
847 1 27.7319 37.2603 27.6837
848 1 27.704 34.0482 18.1221
849 1 27.7253 37.1958 14.9947
850 1 27.7206 37.1978 18.1413
851 1 27.7469 34.1662 30.9114
852 1 27.7067 40.3696 18.1472
853 1 27.7573 34.1106 21.2845
854 1 27.7307 37.2625 30.8573
855 1 27.7519 37.2491 34.0259
856 1 27.7073 37.1717 43.5321
857 1 27.712 40.3429 43.4924
858 1 27.7162 37.203 40.3594
859 1 27.7138 34.0338 40.3551
860 1 27.7086 34.0251 43.5338
861 1 27.709 34.067 37.231
862 1 27.7071 34.0154 11.8125
863 1 27.7571 34.0849 34.1108
864 1 27.7023 37.2528 24.4823
865 1 7.1423 16.5744 19.7548
866 1 6.5804 22.408 7.5994
867 1 6.8399 22.5818 10.5141
868 1 7.1223 13.4191 7.1027
869 1 8.6793 14.9811 8.6914
870 1 7.1077 13.4216 10.2644
871 1 8.6991 14.9805 11.8467
872 1 7.1075 13.4184 13.4379
873 1 8.6949 14.9717 14.9925
874 1 7.103 13.4201 16.6058
875 1 7.1149 13.4295 19.7453
876 1 8.6926 15.015 21.3312
877 1 8.6811 14.9969 24.5071
878 1 7.1373 13.4196 26.0816
879 1 8.7123 15.0089 27.6804
880 1 7.1211 13.4139 29.2271
881 1 8.7227 14.9956 30.8311
882 1 7.1038 13.3812 32.3978
883 1 8.7203 14.9651 33.9955
884 1 7.1388 13.4155 35.5689
885 1 8.7265 14.9989 37.1757
886 1 7.128 13.395 38.7237
887 1 8.7158 15.0006 40.3203
888 1 7.1334 13.4087 41.9316
889 1 8.7155 14.9901 43.4903
890 1 7.0887 16.5855 7.1155
891 1 8.688 18.1479 8.6924
892 1 7.0869 16.5623 10.2996
893 1 8.6959 18.1382 11.8837
894 1 7.0849 16.5661 13.4519
895 1 8.6951 18.1561 15.0307
896 1 7.1094 16.5691 16.5993
897 1 7.1268 19.7501 19.7541
898 1 7.1254 16.5975 22.9296
899 1 8.7031 18.181 24.523
900 1 7.1269 16.5871 26.0836
901 1 8.7052 18.1611 27.6753
902 1 7.1134 16.5839 29.244
903 1 8.691 18.1432 30.8314
904 1 7.1077 16.5686 32.4172
905 1 8.7339 18.1602 34.0054
906 1 7.1312 16.5801 35.566
907 1 8.7292 18.1444 37.1862
908 1 7.1382 16.5886 38.748
909 1 8.7168 18.1525 40.3455
910 1 7.1396 16.5731 41.9084
911 1 8.7478 18.1458 43.4946
912 1 7.0731 19.7264 7.1591
913 1 8.6977 21.3136 8.7003
914 1 7.1393 19.709 10.3144
915 1 8.7305 21.3019 11.8721
916 1 7.0936 19.7268 13.4629
917 1 8.6861 21.3171 15.0089
918 1 7.1027 19.7542 16.6089
919 1 8.6913 21.3408 18.1854
920 1 7.1066 22.9115 19.7672
921 1 8.726 21.378 21.3478
922 1 7.1226 19.7469 22.915
923 1 8.7015 21.3239 24.4936
924 1 7.1394 19.7637 26.1094
925 1 8.7227 21.3374 27.6655
926 1 7.1169 19.7417 29.2565
927 1 8.7155 21.3195 30.8468
928 1 7.1211 19.738 32.425
929 1 8.7198 21.3127 33.9803
930 1 7.1575 19.7252 35.5778
931 1 8.6968 21.3294 37.1654
932 1 7.1328 19.7462 38.7321
933 1 8.7284 21.3185 40.355
934 1 7.1111 19.7683 41.9089
935 1 8.7258 21.312 43.5006
936 1 8.2876 24.1046 8.9514
937 1 8.6659 24.4587 11.8528
938 1 7.0958 22.8868 13.4555
939 1 8.6686 24.4852 15.0221
940 1 7.1233 22.9009 16.5724
941 1 8.6974 24.5043 18.2013
942 1 8.7491 24.4816 21.3287
943 1 7.143 22.9125 22.9189
944 1 8.7725 24.508 24.4933
945 1 7.1559 22.9134 26.1114
946 1 8.7541 24.4925 27.6553
947 1 7.155 22.9199 29.2372
948 1 8.7186 24.4634 30.8366
949 1 7.1357 22.9077 32.4115
950 1 8.7343 24.5029 33.9962
951 1 7.1642 22.8973 35.5813
952 1 8.7256 24.483 37.1712
953 1 7.1581 22.939 38.7645
954 1 8.7244 24.5144 40.3358
955 1 7.1423 22.9117 41.9073
956 1 8.7272 24.4985 43.4793
957 1 7.081 26.1274 7.1055
958 1 8.7077 27.7232 8.6695
959 1 7.0975 26.1311 10.2615
960 1 8.6986 27.6413 11.8415
961 1 7.118 26.0729 13.4166
962 1 8.698 27.6603 15.0091
963 1 7.0987 26.0843 16.5798
964 1 8.73 27.6461 18.193
965 1 7.1219 26.1164 19.7736
966 1 8.7431 27.6616 21.3381
967 1 7.1478 26.0795 22.9236
968 1 8.7251 27.6658 24.5099
969 1 7.1481 26.0744 26.1
970 1 8.7301 27.6588 27.6476
971 1 7.1543 26.0704 29.2349
972 1 8.7237 27.6457 30.8216
973 1 7.1594 26.0653 32.4123
974 1 8.7235 27.6483 34.0068
975 1 7.1478 26.0765 35.5873
976 1 8.7134 27.6414 37.1627
977 1 7.1333 26.0601 38.7456
978 1 8.741 27.6508 40.3442
979 1 7.149 26.0705 41.911
980 1 8.7287 27.6484 43.47
981 1 7.1078 29.2831 7.0827
982 1 7.1153 29.2416 10.271
983 1 7.0996 29.2435 13.4297
984 1 7.1417 29.2374 16.5825
985 1 7.1522 29.2359 19.7624
986 1 7.1594 29.2475 22.9217
987 1 7.1511 29.24 26.0698
988 1 7.1521 29.2595 29.2485
989 1 7.1492 29.2351 32.4118
990 1 7.1472 29.2363 35.6005
991 1 7.1721 29.2368 38.7444
992 1 7.1637 29.246 41.8941
993 1 8.6828 18.1371 18.155
994 1 8.6887 18.1858 21.3284
995 1 8.7137 14.992 18.1967
996 1 7.1237 13.4207 22.9321
997 1 8.7405 30.8319 27.6769
998 1 8.7149 30.819 15.0129
999 1 8.7003 30.8372 8.6779
1000 1 8.7567 30.8066 24.5013
1001 1 8.725 30.8144 11.8393
1002 1 8.7286 30.8267 21.3467
1003 1 8.744 30.8412 34.0075
1004 1 8.7494 30.8198 37.1664
1005 1 8.7388 30.8019 30.8354
1006 1 8.6973 30.8207 18.1867
1007 1 8.7295 30.8201 40.3189
1008 1 8.7158 30.816 43.4987
1009 1 10.261 13.4041 7.0816
1010 1 11.8599 14.9959 8.6856
1011 1 10.2748 13.4199 10.2628
1012 1 11.8472 14.9875 11.8224
1013 1 11.8563 14.9723 15.0095
1014 1 11.8351 14.9707 18.1507
1015 1 11.8502 14.9672 21.3277
1016 1 11.8224 14.9777 24.4944
1017 1 11.8562 14.994 27.665
1018 1 11.8637 14.9816 30.8433
1019 1 11.8481 14.9961 34.0366
1020 1 11.8943 15.0313 37.1875
1021 1 11.8942 14.9623 40.3284
1022 1 11.8878 14.9823 43.4964
1023 1 11.8714 18.1673 8.687
1024 1 10.258 16.5592 10.2549
1025 1 11.832 18.1463 11.8482
1026 1 11.8577 18.1573 14.9991
1027 1 11.8482 18.1317 18.1519
1028 1 11.835 18.1368 21.3213
1029 1 11.8541 18.1393 24.5045
1030 1 11.8344 18.1368 27.6805
1031 1 11.86 18.1289 30.8454
1032 1 11.8713 18.1433 34.033
1033 1 11.8575 18.1309 37.1764
1034 1 11.8856 18.1591 40.3405
1035 1 10.2796 16.5756 41.928
1036 1 11.8727 18.1311 43.5068
1037 1 10.2675 19.7324 7.1527
1038 1 11.8701 21.3307 8.6675
1039 1 10.3091 19.706 10.2991
1040 1 11.87 21.3414 11.8327
1041 1 10.2833 19.7377 13.4216
1042 1 11.8535 21.3426 15.0053
1043 1 10.2624 19.7473 16.5821
1044 1 11.9012 21.3436 18.1627
1045 1 11.8615 21.3045 21.3368
1046 1 13.4361 19.7183 26.0996
1047 1 11.8932 21.311 27.6932
1048 1 11.8741 21.3274 30.8476
1049 1 11.8549 21.3272 34.0173
1050 1 11.9126 21.3159 37.1672
1051 1 11.8988 21.3049 40.3605
1052 1 11.8868 21.3156 43.4948
1053 1 10.3295 22.8836 7.1228
1054 1 11.9284 24.5215 8.6527
1055 1 11.874 24.4806 11.8405
1056 1 11.8722 24.4969 15.0144
1057 1 11.8816 24.4907 18.1668
1058 1 11.8932 24.4892 21.3494
1059 1 11.8767 21.2829 24.5016
1060 1 11.9356 24.4792 24.5067
1061 1 11.9189 24.4806 27.6714
1062 1 11.8897 24.4949 30.8447
1063 1 11.872 24.4786 33.9974
1064 1 11.868 24.4879 37.1827
1065 1 11.8899 24.4807 40.359
1066 1 11.9029 24.4825 43.4792
1067 1 11.8253 27.6175 8.6876
1068 1 10.2344 26.0429 10.2632
1069 1 11.8334 27.6354 11.8099
1070 1 11.8603 27.6639 14.9934
1071 1 11.8811 27.6516 18.1725
1072 1 10.3177 26.0752 19.7431
1073 1 11.9078 27.6681 21.3444
1074 1 11.9132 27.6629 24.5001
1075 1 11.902 27.6493 27.6838
1076 1 11.8904 27.6527 30.8498
1077 1 11.8929 27.6671 33.9964
1078 1 11.8994 27.6716 37.1764
1079 1 11.8898 27.6523 40.355
1080 1 11.8893 27.6494 43.4804
1081 1 10.3065 29.3171 7.0447
1082 1 10.3012 29.239 10.2513
1083 1 10.2787 29.2173 13.4376
1084 1 13.4384 13.4279 7.1068
1085 1 15.0135 15.022 8.6774
1086 1 13.47 13.4197 10.2719
1087 1 15.0437 14.9948 11.8289
1088 1 13.4324 13.3957 13.4132
1089 1 15.0293 14.9611 14.9813
1090 1 13.4348 13.3812 16.5685
1091 1 14.9943 14.9692 18.1398
1092 1 13.4387 13.3892 19.7591
1093 1 14.9816 14.9416 21.3158
1094 1 14.9932 14.9672 24.5017
1095 1 13.4432 13.4053 26.0713
1096 1 14.9977 14.9485 27.6674
1097 1 13.4219 13.3977 29.2637
1098 1 15.0104 14.9715 30.8652
1099 1 13.4528 13.3898 32.4092
1100 1 15.0475 15.0096 33.9893
1101 1 13.4448 13.3865 35.592
1102 1 15.0303 15.0005 37.1908
1103 1 13.465 13.4139 38.7257
1104 1 15.0148 14.9831 40.3441
1105 1 13.4657 13.4014 41.919
1106 1 15.0275 14.9752 43.4654
1107 1 13.461 16.6255 7.115
1108 1 15.0488 18.1586 8.68
1109 1 13.4512 16.5785 10.2515
1110 1 15.0332 18.1222 11.8371
1111 1 13.4828 16.5663 13.4482
1112 1 15.0109 18.1678 14.9758
1113 1 13.4141 16.555 16.5315
1114 1 14.9579 18.1201 18.0976
1115 1 13.3985 16.5356 19.6779
1116 1 14.8992 18.0322 21.2518
1117 1 13.423 16.5113 22.8835
1118 1 15.0014 18.1422 24.4859
1119 1 13.4452 16.5385 26.0807
1120 1 16.5889 16.5287 29.2834
1121 1 13.4223 16.5613 29.283
1122 1 15.002 18.1267 30.8758
1123 1 13.4476 16.5732 32.4103
1124 1 15.0408 18.1447 34.0401
1125 1 13.4475 16.55 35.5965
1126 1 15.0383 18.1524 37.1734
1127 1 13.4543 16.5964 38.7479
1128 1 15.033 18.1634 40.3518
1129 1 13.4335 16.5818 41.9241
1130 1 15.0386 18.1425 43.4916
1131 1 13.4314 19.7378 7.0911
1132 1 15.0416 21.3529 8.6655
1133 1 13.432 19.7636 10.2787
1134 1 15.0189 21.3425 11.8328
1135 1 13.4445 19.7446 13.4114
1136 1 15.0276 21.3061 15.0026
1137 1 13.459 19.7538 16.5481
1138 1 15.0111 21.3087 18.1482
1139 1 13.4246 19.7306 19.7404
1140 1 15.0342 21.3191 21.3243
1141 1 13.4191 19.6949 22.8963
1142 1 15.042 21.269 24.4816
1143 1 14.9647 18.1195 27.7092
1144 1 15.0164 21.2837 27.6906
1145 1 13.454 19.7155 29.2616
1146 1 15.0406 21.3265 30.8684
1147 1 13.4543 19.7328 32.4275
1148 1 15.0226 21.322 34.0354
1149 1 13.4314 19.7487 35.5984
1150 1 15.0311 21.3292 37.1816
1151 1 13.4364 19.7557 38.7466
1152 1 15.039 21.3378 40.3341
1153 1 13.4689 19.7283 41.9008
1154 1 15.0752 21.3168 43.4898
1155 1 13.4667 22.9036 7.0995
1156 1 15.0519 24.4802 8.6622
1157 1 13.4412 22.9149 10.2643
1158 1 15.0436 24.4932 11.8313
1159 1 13.4511 22.8931 13.416
1160 1 15.0221 24.5151 14.9899
1161 1 13.4485 22.909 16.5778
1162 1 15.0323 24.5119 18.1648
1163 1 13.4589 22.9124 19.7415
1164 1 15.0658 24.4847 21.3704
1165 1 13.497 22.8973 22.9302
1166 1 15.1201 24.4726 24.5255
1167 1 13.4729 22.8881 26.089
1168 1 15.0579 24.4753 27.6722
1169 1 13.4862 22.9098 29.2786
1170 1 15.0412 24.4792 30.8673
1171 1 13.4666 22.8991 32.4343
1172 1 15.0448 24.4793 34.0202
1173 1 13.4504 22.9061 35.589
1174 1 15.0308 24.4968 37.1863
1175 1 13.468 22.9052 38.7524
1176 1 15.0562 24.512 40.3315
1177 1 13.4775 22.9071 41.9129
1178 1 15.0783 24.4781 43.4965
1179 1 13.5108 26.1219 7.0611
1180 1 15.057 27.6651 8.657
1181 1 13.4498 26.0706 10.2727
1182 1 15.0448 27.662 11.8418
1183 1 13.4387 26.088 13.4134
1184 1 15.0276 27.671 15.003
1185 1 13.4428 26.0912 16.5725
1186 1 15.0165 27.6668 18.1646
1187 1 13.4537 26.0746 19.7495
1188 1 15.0683 27.6764 21.3414
1189 1 13.5092 26.0647 22.9294
1190 1 15.0891 27.6529 24.537
1191 1 13.5303 26.069 26.1039
1192 1 15.07 27.6673 27.6969
1193 1 13.4814 26.0861 29.2623
1194 1 15.0441 27.6759 30.8576
1195 1 13.4516 26.0779 32.4252
1196 1 15.0393 27.6719 34.0374
1197 1 13.4769 26.0956 35.5966
1198 1 15.0577 27.6562 37.1831
1199 1 13.4626 26.0767 38.7352
1200 1 15.0681 27.6545 40.3538
1201 1 13.5003 26.046 41.9276
1202 1 15.0665 27.662 43.4888
1203 1 13.4494 29.2275 7.137
1204 1 13.4664 29.2465 10.2485
1205 1 13.4484 29.2519 13.4092
1206 1 13.443 29.2598 16.5746
1207 1 13.4476 29.2639 19.7479
1208 1 13.4897 29.2343 22.94
1209 1 13.4776 29.2214 26.1119
1210 1 13.4787 29.2373 29.2668
1211 1 13.4357 29.2378 32.4127
1212 1 13.4882 29.2474 35.6239
1213 1 13.4909 29.2641 38.7435
1214 1 13.4766 29.2435 41.9438
1215 1 16.6318 13.4259 7.1074
1216 1 18.2192 14.9943 8.6653
1217 1 16.6055 13.4091 10.2306
1218 1 18.2104 14.9812 11.8545
1219 1 16.5993 13.3815 13.4078
1220 1 18.2063 14.9876 14.9751
1221 1 16.6178 13.3807 16.5832
1222 1 18.1667 14.9746 18.1285
1223 1 16.6124 13.4115 19.7235
1224 1 18.1613 14.9299 21.2932
1225 1 16.5998 13.3919 22.9042
1226 1 18.1987 14.9429 24.5183
1227 1 16.6067 13.4056 26.0715
1228 1 18.166 14.9444 27.6897
1229 1 16.6009 13.398 29.2864
1230 1 18.1885 14.9777 30.8626
1231 1 16.6179 13.3795 32.4439
1232 1 18.1785 14.9711 34.0385
1233 1 16.6382 13.3835 35.5802
1234 1 18.1905 14.9827 37.2024
1235 1 16.6138 13.3872 38.7729
1236 1 18.2167 14.9921 40.3535
1237 1 16.6113 13.3979 41.9187
1238 1 18.2062 14.9768 43.4885
1239 1 16.6034 16.6219 7.1115
1240 1 18.1904 18.191 8.6744
1241 1 16.6155 16.6047 10.2484
1242 1 18.2082 18.1498 11.838
1243 1 16.5973 16.5861 13.3954
1244 1 18.1904 18.139 14.9663
1245 1 16.5858 16.5407 16.5441
1246 1 18.1344 18.0791 18.1083
1247 1 16.56 16.4867 19.7166
1248 1 18.1165 18.0114 21.2561
1249 1 16.5298 16.4872 22.8806
1250 1 18.0924 18.0041 24.4572
1251 1 16.5477 16.4955 26.102
1252 1 18.156 18.0729 27.7251
1253 1 19.7382 16.5032 29.2834
1254 1 18.1663 18.1175 30.8904
1255 1 16.5965 16.5412 32.4416
1256 1 18.1756 18.1426 34.0552
1257 1 16.6166 16.5763 35.5996
1258 1 18.193 18.1617 37.2029
1259 1 16.6238 16.5769 38.7577
1260 1 18.2497 18.1461 40.3572
1261 1 16.6136 16.5852 41.9368
1262 1 18.2145 18.1515 43.5178
1263 1 16.6146 19.7642 7.1027
1264 1 18.1983 21.3358 8.6539
1265 1 16.6381 19.7353 10.252
1266 1 18.2052 21.3433 11.8273
1267 1 16.6171 19.7381 13.3795
1268 1 18.1619 21.3105 14.9669
1269 1 16.594 19.7404 16.5529
1270 1 18.1593 21.3126 18.143
1271 1 16.5166 19.6561 19.6648
1272 1 18.0302 21.1775 21.2055
1273 1 16.4321 19.5273 22.6831
1274 1 17.8078 20.8808 24.379
1275 1 16.512 19.6487 26.2146
1276 1 18.1249 21.2184 27.7873
1277 1 16.5572 19.6921 29.3169
1278 1 18.1908 21.3054 30.8988
1279 1 16.6041 19.7247 32.4617
1280 1 18.1946 21.32 34.0373
1281 1 16.6372 19.7363 35.6078
1282 1 18.2056 21.3088 37.2109
1283 1 16.6192 19.769 38.7833
1284 1 18.2195 21.3212 40.3507
1285 1 16.6521 19.7593 41.9544
1286 1 18.2468 21.3493 43.501
1287 1 16.6505 22.9524 7.1028
1288 1 18.2052 24.5093 8.6854
1289 1 16.6152 22.9135 10.2552
1290 1 18.2065 24.4797 11.8537
1291 1 16.6324 22.9106 13.3982
1292 1 18.1824 24.5141 15.0057
1293 1 16.6211 22.9122 16.5776
1294 1 18.2614 24.4748 18.1867
1295 1 16.5945 22.8832 19.7268
1296 1 18.1432 24.4724 21.3423
1297 1 16.7 22.9009 22.9434
1298 1 18.6049 24.6259 24.5742
1299 1 16.665 22.8519 26.0687
1300 1 18.1521 24.4586 27.7018
1301 1 16.6228 22.8998 29.3254
1302 1 18.1807 24.5023 30.8958
1303 1 16.6017 22.9159 32.4645
1304 1 18.2265 24.4701 34.031
1305 1 16.6268 22.9113 35.5926
1306 1 18.1902 24.5001 37.175
1307 1 16.6186 22.9047 38.78
1308 1 18.2505 24.5044 40.3332
1309 1 16.6198 22.9106 41.9162
1310 1 18.2197 24.4994 43.5244
1311 1 16.6565 26.1161 7.0784
1312 1 18.2129 27.6676 8.6702
1313 1 16.6156 26.0768 10.2585
1314 1 18.2077 27.6726 11.8142
1315 1 16.6113 26.0804 13.3998
1316 1 18.172 27.6962 14.9948
1317 1 16.6035 26.0814 16.5934
1318 1 18.1645 27.6717 18.134
1319 1 16.614 26.0714 19.7457
1320 1 18.0765 27.7897 21.1868
1321 1 16.6896 26.094 22.9517
1322 1 18.1838 27.8356 24.6924
1323 1 16.7104 26.0861 26.1085
1324 1 18.155 27.7521 27.8193
1325 1 16.6344 26.0762 29.2894
1326 1 18.2029 27.6781 30.8906
1327 1 16.6096 26.0928 32.4283
1328 1 18.1934 27.6639 34.0369
1329 1 16.6043 26.0729 35.611
1330 1 18.2215 27.6623 37.173
1331 1 16.648 26.0771 38.7675
1332 1 18.2161 27.6593 40.3317
1333 1 16.6431 26.0713 41.9403
1334 1 18.2236 27.6633 43.5105
1335 1 16.6241 29.2672 7.0715
1336 1 16.6115 29.2286 10.2293
1337 1 16.6001 29.2378 13.4031
1338 1 16.5916 29.2792 16.5539
1339 1 16.5351 29.3173 19.6837
1340 1 16.6299 29.2913 22.9273
1341 1 16.6163 29.331 26.1598
1342 1 16.5845 29.2951 29.332
1343 1 16.626 29.2951 32.4714
1344 1 16.6426 29.2625 35.6063
1345 1 16.6465 29.2748 38.7609
1346 1 16.6505 29.2451 41.9112
1347 1 19.7993 13.4214 7.1121
1348 1 21.3859 15.0266 8.672
1349 1 19.7967 13.4269 10.2529
1350 1 21.3662 14.978 11.8485
1351 1 19.7931 13.3884 13.4258
1352 1 21.3603 14.9969 15.0179
1353 1 19.7672 13.3878 16.5664
1354 1 21.3605 14.943 18.1432
1355 1 19.7544 13.4138 19.737
1356 1 21.3561 14.9376 21.3202
1357 1 19.7921 13.3659 22.9128
1358 1 21.3508 14.9595 24.4957
1359 1 19.7886 13.3938 26.1139
1360 1 21.3621 14.9438 27.6796
1361 1 19.7465 13.3736 29.2627
1362 1 21.3476 14.9607 30.8843
1363 1 19.757 13.3873 32.416
1364 1 21.3503 14.9859 34.0276
1365 1 19.7816 13.4117 35.5971
1366 1 21.3683 14.98 37.2059
1367 1 19.7711 13.3868 38.7459
1368 1 21.3796 14.9833 40.3503
1369 1 19.8025 13.4009 41.9245
1370 1 21.3966 15.009 43.5233
1371 1 19.7722 16.5707 7.0995
1372 1 21.3931 18.1797 8.6957
1373 1 19.772 16.5739 10.2491
1374 1 21.3636 18.1761 11.8191
1375 1 19.816 16.5581 13.415
1376 1 21.3869 18.1331 14.9859
1377 1 19.7686 16.5607 16.5355
1378 1 21.3751 18.1256 18.1257
1379 1 19.7185 16.4749 19.6746
1380 1 21.2358 17.9672 21.2229
1381 1 19.7238 16.4705 22.8945
1382 1 21.3306 17.9743 24.4963
1383 1 19.7228 16.5239 26.0839
1384 1 22.9737 19.4393 26.1197
1385 1 21.2956 18.0613 27.6812
1386 1 21.3103 18.08 30.8911
1387 1 19.7658 16.5402 32.45
1388 1 21.3727 18.111 34.0671
1389 1 19.7779 16.5582 35.6089
1390 1 21.3799 18.1553 37.1897
1391 1 19.7598 16.5703 38.776
1392 1 21.3609 18.1304 40.3719
1393 1 19.7722 16.5769 41.9434
1394 1 21.4019 18.1551 43.5436
1395 1 19.7956 19.766 7.11
1396 1 21.3869 21.3429 8.6724
1397 1 19.805 19.7125 10.2709
1398 1 21.3704 21.335 11.8201
1399 1 19.8191 19.72 13.3956
1400 1 21.3483 21.3196 14.9846
1401 1 19.7655 19.7044 16.5269
1402 1 21.2586 21.271 18.1018
1403 1 19.6684 19.5849 19.644
1404 1 21.207 20.9216 21.1855
1405 1 19.666 19.432 22.8459
1406 1 21.394 20.6702 24.433
1407 1 19.6358 19.5069 26.0534
1408 1 21.106 21.0565 27.6281
1409 1 19.7074 19.6606 29.3287
1410 1 21.2827 21.2237 30.9119
1411 1 19.7609 19.6765 32.4993
1412 1 21.3526 21.2974 34.0709
1413 1 19.7625 19.7143 35.6351
1414 1 21.3931 21.293 37.1858
1415 1 19.7735 19.7409 38.8012
1416 1 21.3962 21.3233 40.3423
1417 1 19.792 19.7509 41.9253
1418 1 21.4005 21.3233 43.5066
1419 1 19.8108 22.9357 7.0974
1420 1 21.3916 24.5057 8.6894
1421 1 19.8137 22.9309 10.2514
1422 1 21.378 24.4863 11.8309
1423 1 19.7737 22.9126 13.4279
1424 1 21.3836 24.493 14.9658
1425 1 19.7581 22.8628 16.5252
1426 1 21.3502 24.4904 17.8087
1427 1 19.7483 22.7842 19.8448
1428 2 20.4445 24.4362 22.5071
1429 1 19.5925 22.1307 22.9799
1430 2 21.5333 25.7801 24.5173
1431 1 19.402 22.2322 25.7632
1432 1 20.6802 24.0695 27.0076
1433 1 19.7943 22.8685 29.2848
1434 1 21.3713 24.5074 30.9717
1435 1 19.7671 22.8985 32.4725
1436 1 21.3781 24.5003 34.0748
1437 1 19.766 22.9029 35.6314
1438 1 21.3848 24.526 37.1906
1439 1 19.7883 22.8988 38.7732
1440 1 21.3705 24.5025 40.3594
1441 1 19.8079 22.9153 41.9382
1442 1 21.383 24.5134 43.4892
1443 1 19.8039 26.0858 7.0761
1444 1 21.383 27.6702 8.6709
1445 1 19.7942 26.0857 10.2762
1446 1 21.3814 27.6951 11.8154
1447 1 19.7727 26.0898 13.4018
1448 1 21.3501 27.6899 14.9698
1449 1 19.732 26.1371 16.5412
1450 1 21.3182 27.6783 18.105
1451 1 19.7131 26.1313 19.785
1452 1 21.2781 27.9006 21.1216
1453 1 19.7069 26.8071 22.905
1454 1 21.4932 28.3296 24.3106
1455 1 19.9003 26.5155 26.3548
1456 1 21.4315 27.8935 28.1902
1457 1 19.7344 26.0573 29.3062
1458 1 21.357 27.7177 30.9485
1459 1 19.7787 26.0965 32.4797
1460 1 21.3714 27.7052 34.086
1461 1 19.8121 26.0803 35.6142
1462 1 21.408 27.6659 37.1963
1463 1 19.7947 26.0931 38.7743
1464 1 21.39 27.6645 40.3391
1465 1 19.7725 26.0769 41.9204
1466 1 21.4105 27.6893 43.5105
1467 1 19.782 29.2786 7.0836
1468 1 19.8187 29.2342 10.2667
1469 1 19.7538 29.2861 13.4194
1470 1 19.7655 29.2923 16.5326
1471 1 19.7053 29.3665 19.6208
1472 1 19.729 29.4854 22.7704
1473 1 19.8712 29.3776 26.1866
1474 1 19.714 29.41 29.3928
1475 1 19.7702 29.2848 32.5036
1476 1 19.7824 29.2645 35.6149
1477 1 19.7906 29.2531 38.7677
1478 1 19.8267 29.2283 41.9489
1479 1 22.9372 13.4257 7.0867
1480 1 24.5333 14.9797 8.6834
1481 1 22.9619 13.3968 10.2692
1482 1 24.5363 14.9886 11.8373
1483 1 22.9542 13.4187 13.4263
1484 1 24.5381 14.9881 14.9785
1485 1 22.9687 13.398 16.5673
1486 1 24.5533 14.9602 18.1534
1487 1 22.9605 13.3585 19.7614
1488 1 24.5249 14.9624 21.3219
1489 1 22.9619 13.3897 22.9168
1490 1 24.5199 14.962 24.5024
1491 1 22.9614 13.3522 26.0903
1492 1 24.5519 14.8993 27.6698
1493 1 22.9276 13.3668 29.2843
1494 1 24.5353 14.9424 30.8699
1495 1 22.9305 13.38 32.4385
1496 1 24.5252 14.9539 34.0193
1497 1 22.9317 13.3885 35.6138
1498 1 24.5403 14.9803 37.187
1499 1 22.945 13.4022 38.777
1500 1 24.5724 14.9814 40.3413
1501 1 22.9426 13.407 41.935
1502 1 24.5494 14.9839 43.509
1503 1 22.9703 16.5996 7.074
1504 1 24.5366 18.1452 8.6952
1505 1 22.989 16.5648 10.2461
1506 1 24.5622 18.1886 11.8524
1507 1 22.9431 16.5746 13.4105
1508 1 24.5534 18.159 14.9911
1509 1 22.9756 16.5683 16.58
1510 1 24.5746 18.1236 18.1173
1511 1 22.9679 16.5271 19.7182
1512 1 24.6248 18.073 21.2741
1513 1 22.9822 16.5021 22.8743
1514 1 24.5037 18.0465 24.4451
1515 1 22.9489 16.4836 26.1075
1516 1 24.57 18.0291 27.7418
1517 1 22.9252 16.538 29.2783
1518 1 24.4941 18.0752 30.8786
1519 1 22.9244 16.5155 32.4507
1520 1 24.5275 18.0905 34.0549
1521 1 22.924 16.5418 35.6418
1522 1 24.5426 18.1493 37.2072
1523 1 22.9652 16.5559 38.7732
1524 1 24.5414 18.139 40.3312
1525 1 22.9458 16.5554 41.9347
1526 1 24.5319 18.1774 43.5312
1527 1 22.9469 19.7595 7.1015
1528 1 24.5565 21.3369 8.6956
1529 1 22.9573 19.753 10.2673
1530 1 24.5658 21.3447 11.8426
1531 1 22.9709 19.7309 13.3986
1532 1 24.5698 21.3269 14.9826
1533 1 22.9563 19.7327 16.531
1534 1 24.6821 21.1839 18.0184
1535 1 23.0142 19.6506 19.6736
1536 1 24.6141 21.2556 21.3333
1537 1 22.8893 19.3469 22.6611
1538 1 24.1533 21.051 24.0558
1539 1 23.0588 22.0671 26.2805
1540 1 24.7051 20.8074 27.8662
1541 1 22.8479 19.6312 29.3014
1542 1 24.3839 21.2259 30.8672
1543 1 22.891 19.6585 32.4729
1544 1 24.5372 21.2895 34.0362
1545 1 22.9291 19.7216 35.6144
1546 1 24.5449 21.3024 37.1821
1547 1 22.9557 19.7409 38.7816
1548 1 24.5568 21.3166 40.345
1549 1 22.9787 19.7345 41.9096
1550 1 24.5658 21.3432 43.4926
1551 1 22.9694 22.9226 7.1157
1552 1 24.5511 24.5169 8.7004
1553 1 22.9483 22.9274 10.2481
1554 1 24.5522 24.5022 11.831
1555 1 22.9572 22.9052 13.4098
1556 1 24.5297 24.4967 15.001
1557 1 22.9958 22.8481 16.5357
1558 1 24.5053 24.5141 18.2078
1559 1 23.0962 22.5264 19.5324
1560 1 22.5894 22.8204 22.1797
1561 2 21.5168 23.2329 24.5437
1562 2 24.1485 23.6887 23.9714
1563 2 23.1589 24.6222 26.1988
1564 2 24.7339 23.4126 27.925
1565 1 22.5864 22.7245 29.1719
1566 1 24.2811 24.1349 30.7795
1567 1 22.9007 22.8338 32.5424
1568 1 24.5755 24.4831 33.9458
1569 1 22.963 22.9054 35.6328
1570 1 24.5631 24.5063 37.1615
1571 1 22.9758 22.9016 38.769
1572 1 24.5447 24.4788 40.3375
1573 1 22.9552 22.911 41.9298
1574 1 24.5428 24.5149 43.4889
1575 1 22.9641 26.0947 7.0833
1576 1 24.548 27.6726 8.6842
1577 1 22.9596 26.1066 10.2657
1578 1 24.5375 27.6613 11.8499
1579 1 22.9637 26.0874 13.415
1580 1 24.5465 27.6953 15.0
1581 1 22.9859 26.1559 16.5244
1582 1 23.1651 26.4773 19.6286
1583 2 21.7061 24.5128 20.3109
1584 1 24.7361 27.7027 21.5419
1585 1 22.6663 26.001 22.2364
1586 2 24.1901 26.2784 24.2216
1587 2 22.9393 27.2464 26.2427
1588 2 24.729 26.0005 27.7577
1589 2 22.1951 25.2804 28.5556
1590 2 23.7339 26.6324 30.0899
1591 1 22.986 26.1236 32.5701
1592 1 24.6036 27.7345 33.9868
1593 1 22.9828 26.0941 35.6155
1594 1 24.5529 27.6999 37.183
1595 1 22.9814 26.0782 38.7588
1596 1 24.5666 27.6835 40.3477
1597 1 22.9627 26.0913 41.9388
1598 1 24.5631 27.6662 43.5032
1599 1 22.9677 29.2578 7.0849
1600 1 22.9578 29.2734 10.2648
1601 1 22.9441 29.2723 13.3909
1602 1 22.9345 29.3057 16.5265
1603 1 22.9435 29.3045 19.5954
1604 1 22.9026 29.5256 22.4402
1605 2 24.3605 28.802 24.4269
1606 1 22.9471 29.6028 29.4918
1607 1 22.8264 29.3763 32.5763
1608 1 22.9725 29.2831 35.6416
1609 1 22.9681 29.2498 38.7935
1610 1 22.9576 29.2677 41.9462
1611 1 26.1247 13.4245 7.1089
1612 1 26.1188 13.4112 10.2564
1613 1 26.1088 13.4062 13.4254
1614 1 26.1317 13.3921 16.5633
1615 1 26.1157 13.4007 19.7345
1616 1 26.113 13.38 22.896
1617 1 26.1336 13.3593 26.0955
1618 1 26.1365 13.3806 29.2805
1619 1 26.1199 13.3573 32.4412
1620 1 26.1395 13.4022 35.6354
1621 1 26.1257 13.403 38.7662
1622 1 26.1235 13.4219 41.9425
1623 1 26.1058 16.5715 7.0869
1624 1 26.122 16.5776 10.244
1625 1 26.1372 16.5979 13.4232
1626 1 26.1519 16.5408 16.5687
1627 1 26.137 16.5506 19.7158
1628 1 26.1752 16.5276 22.9353
1629 1 26.1216 16.5019 26.0903
1630 1 26.1339 16.4681 29.2812
1631 1 26.1003 16.533 32.4632
1632 1 26.1094 16.5527 35.6275
1633 1 26.1102 16.5545 38.7644
1634 1 26.114 16.5909 41.946
1635 1 26.1416 19.7449 7.1199
1636 1 26.1264 19.7533 10.253
1637 1 26.1282 19.7305 13.4326
1638 1 26.1898 19.6745 16.5216
1639 1 26.1701 19.6889 19.7369
1640 1 26.203 19.7047 22.9306
1641 1 26.1365 19.5194 26.0054
1642 1 26.2678 19.5182 29.5038
1643 1 26.042 19.6493 32.5147
1644 1 26.1334 19.7143 35.6251
1645 1 26.1262 19.7399 38.785
1646 1 26.1219 19.7456 41.9411
1647 1 26.1305 22.9248 7.091
1648 1 26.1419 22.9073 10.2527
1649 1 26.1375 22.9356 13.4314
1650 1 26.1138 22.9087 16.6045
1651 1 26.1667 22.8799 19.7342
1652 1 26.3815 22.8694 22.9344
1653 1 25.7685 22.1455 25.7609
1654 1 26.4034 22.2274 29.5251
1655 1 26.1048 22.8533 32.4199
1656 1 26.1381 22.9079 35.5906
1657 1 26.135 22.9086 38.7454
1658 1 26.141 22.8996 41.9133
1659 1 26.0983 26.1084 7.0717
1660 1 26.1302 26.0975 10.2607
1661 1 26.1337 26.0993 13.4191
1662 1 26.1292 26.0694 16.567
1663 1 24.6652 24.4998 21.3419
1664 1 26.4837 25.7647 23.0337
1665 2 25.8273 24.7552 25.6753
1666 2 26.392 24.8021 29.4253
1667 1 26.0561 26.0634 32.2323
1668 1 26.1388 26.0912 35.5757
1669 1 26.1285 26.1035 38.7636
1670 1 26.1381 26.1107 41.9153
1671 1 26.132 29.275 7.1008
1672 1 26.1262 29.2707 10.2457
1673 1 26.1183 29.2848 13.4085
1674 1 24.6459 27.787 18.0063
1675 1 26.0914 29.3144 19.7343
1676 1 25.7561 30.1599 22.6023
1677 2 26.0053 27.337 25.8684
1678 2 26.3171 27.3585 29.3699
1679 1 24.8465 28.5751 31.1513
1680 1 26.156 29.3301 35.654
1681 1 26.1359 29.2702 38.7783
1682 1 26.1419 29.2619 41.9341
1683 1 13.4345 13.3704 22.889
1684 1 10.2647 13.3999 13.4065
1685 1 10.2881 19.7255 19.7406
1686 1 10.2711 16.5866 7.1344
1687 1 10.2826 26.0736 16.5826
1688 1 10.2648 22.9282 16.5984
1689 1 10.2774 26.0726 13.4062
1690 1 10.2526 22.9265 13.4303
1691 1 10.2767 29.2499 19.7713
1692 1 10.2824 16.5867 35.5828
1693 1 10.3365 26.0664 26.0761
1694 1 11.9017 30.7955 24.5139
1695 1 10.3191 22.9122 26.0827
1696 1 10.3509 29.2284 26.0901
1697 1 10.2972 19.7436 32.423
1698 1 10.2812 13.3947 32.3957
1699 1 11.8987 30.8092 34.0209
1700 1 10.3127 29.2452 22.9511
1701 1 10.3147 26.0604 29.2456
1702 1 11.8635 30.8366 30.855
1703 1 15.0444 30.8423 27.6961
1704 1 15.0743 30.8342 24.5166
1705 1 10.286 29.2462 16.5787
1706 1 10.2871 13.3953 35.5858
1707 1 21.3167 30.9315 34.0959
1708 1 10.3265 26.0761 22.9235
1709 1 11.8742 30.8247 8.6725
1710 1 18.1519 30.9083 30.8995
1711 1 11.8656 30.8224 11.8339
1712 1 10.3218 29.2199 29.2656
1713 1 18.1103 30.9471 21.236
1714 1 15.0217 30.8482 21.348
1715 1 10.3 29.2296 32.4199
1716 1 11.8876 30.824 21.3619
1717 1 11.8895 30.8312 27.6727
1718 1 10.2884 19.7467 22.9237
1719 1 10.3101 26.0839 35.5967
1720 1 15.0813 30.8139 40.3776
1721 1 14.9889 30.8581 18.1544
1722 1 15.0442 30.8284 30.8635
1723 1 10.3068 22.9121 35.5903
1724 1 21.2267 31.0581 21.1672
1725 1 15.0469 30.8159 37.183
1726 1 11.8995 30.8293 40.3511
1727 1 11.9065 30.8365 37.1654
1728 1 21.2688 31.0528 27.8895
1729 1 10.3162 26.0741 38.7544
1730 1 18.2004 30.8524 43.5032
1731 1 21.3859 30.8504 40.3624
1732 1 15.0342 30.8601 8.6764
1733 1 15.0334 30.8506 34.0268
1734 1 21.4059 31.0666 24.3676
1735 1 18.2329 30.8381 40.3696
1736 1 11.8655 30.8248 18.1762
1737 1 24.5966 28.6065 27.7887
1738 1 18.2315 30.8352 37.1994
1739 1 18.1841 30.8674 34.0559
1740 1 10.2882 16.5814 16.5882
1741 1 10.2792 16.5864 26.1017
1742 1 21.3787 30.8247 43.5213
1743 1 18.222 30.9051 24.4915
1744 1 21.3208 30.894 18.0928
1745 1 24.535 30.8541 43.5087
1746 1 24.4522 31.4292 24.5036
1747 1 18.1814 30.9036 27.7097
1748 1 11.8411 30.8454 15.0128
1749 1 15.0408 30.8421 11.8154
1750 1 15.0622 30.8184 43.4854
1751 1 14.9927 30.8351 14.9771
1752 1 10.3409 26.0645 41.9268
1753 1 10.2448 16.5904 19.7402
1754 1 10.3193 29.2207 35.5968
1755 1 24.4653 30.9507 34.0806
1756 1 10.3073 22.9169 10.2624
1757 1 18.2064 30.8636 11.7984
1758 1 18.1627 30.8755 14.9502
1759 1 10.3087 22.9322 19.7331
1760 1 10.2849 13.4171 19.7394
1761 1 10.2841 13.41 22.9124
1762 1 21.3819 30.8338 8.6762
1763 1 18.204 30.8602 8.6773
1764 1 24.5318 30.8609 11.8029
1765 1 24.5651 30.8516 40.3487
1766 1 21.2877 30.967 30.9843
1767 1 21.3752 30.8279 37.2262
1768 1 10.2739 13.4174 26.0793
1769 1 10.2457 13.3961 16.5806
1770 1 24.5508 30.8761 37.2148
1771 1 10.3192 29.2509 41.8964
1772 1 21.3485 30.8819 14.9799
1773 1 10.2729 13.4048 29.2587
1774 1 10.3004 19.7225 38.7751
1775 1 24.5502 30.856 8.6619
1776 1 18.1434 30.8784 18.1136
1777 1 10.3164 22.9017 38.7534
1778 1 10.2687 16.5924 22.9203
1779 1 10.2787 19.7409 41.9387
1780 1 11.8872 30.8184 43.5069
1781 1 10.2923 19.7507 35.5784
1782 1 10.2985 16.5748 29.2841
1783 1 10.2783 16.563 13.4369
1784 1 24.5376 30.9231 18.0858
1785 1 10.2891 13.4125 41.9046
1786 1 10.311 22.9072 41.9227
1787 1 24.2918 31.1525 20.9016
1788 1 10.2896 16.5825 32.4497
1789 1 24.5295 30.8754 14.9911
1790 1 24.5502 31.2344 30.9724
1791 1 10.3132 16.5608 38.7728
1792 1 10.2919 19.7586 26.0865
1793 1 10.2971 26.0946 32.4137
1794 1 21.373 30.882 11.8099
1795 1 10.301 19.7259 29.2764
1796 1 10.2989 22.8968 29.2604
1797 1 10.3177 29.2304 38.7737
1798 1 10.295 22.8895 32.4223
1799 1 10.3134 22.9051 22.9071
1800 1 10.2701 13.3922 38.7396
1801 1 26.1432 26.0966 19.7519
1802 1 26.1565 29.3189 16.5017
1803 1 26.1066 29.9723 26.0774
1804 1 26.2012 29.9578 29.3378
1805 1 22.851 29.8852 26.2625
1806 1 24.5379 31.3286 27.7326
1807 1 26.3537 29.6589 32.9085
1808 2 27.0585 28.25 23.6466
1809 1 9.7139 25.5327 7.5881
1810 1 29.2818 13.4454 7.0757
1811 1 30.8903 14.9904 8.67
1812 1 29.2757 13.4379 10.2592
1813 1 30.8907 15.0183 11.832
1814 1 29.2804 13.425 13.4037
1815 1 30.9068 14.9863 14.9809
1816 1 29.2786 13.4188 16.5795
1817 1 30.886 14.9873 18.1812
1818 1 29.288 13.4018 19.7478
1819 1 30.9073 14.9699 21.357
1820 1 29.3077 13.3696 22.9171
1821 1 30.8869 14.9675 24.4898
1822 1 29.327 13.3749 26.0996
1823 1 30.9075 14.9622 27.6972
1824 1 29.299 13.3561 29.2984
1825 1 30.9064 14.9443 30.8512
1826 1 29.2932 13.3503 32.4652
1827 1 30.8994 14.9507 34.0696
1828 1 29.2867 13.41 35.6177
1829 1 30.8846 14.9823 37.1973
1830 1 29.2735 13.408 38.7685
1831 1 30.8671 14.9912 40.3495
1832 1 29.3019 13.4206 41.9289
1833 1 30.8779 15.0039 43.502
1834 1 29.3052 16.5797 7.0933
1835 1 30.8614 18.1895 8.6789
1836 1 29.286 16.5955 10.2584
1837 1 30.8681 18.1761 11.8393
1838 1 29.3057 16.5608 13.3904
1839 1 30.8913 18.149 14.9791
1840 1 29.3452 16.5671 16.6028
1841 1 30.8946 18.145 18.1622
1842 1 29.2889 16.5447 19.7338
1843 1 30.8982 18.1172 21.3227
1844 1 29.3 16.5451 22.914
1845 1 30.9475 18.0962 24.4711
1846 1 29.3282 16.5112 26.0708
1847 1 30.928 18.0655 27.6769
1848 1 29.331 16.4693 29.2712
1849 1 29.353 19.4543 29.3744
1850 1 29.3301 16.4674 32.4902
1851 1 30.9515 18.0558 34.0989
1852 1 29.2962 16.568 35.6389
1853 1 30.9157 18.16 37.2319
1854 1 29.3101 16.5489 38.7931
1855 1 30.8948 18.1776 40.3752
1856 1 29.2949 16.5769 41.9264
1857 1 30.8531 18.1778 43.5197
1858 1 29.2943 19.7443 7.1093
1859 1 30.8921 21.3353 8.6978
1860 1 29.2972 19.7607 10.2593
1861 1 30.8796 21.3493 11.8523
1862 1 29.2933 19.7749 13.4225
1863 1 30.8813 21.354 15.0063
1864 1 29.3426 19.7485 16.5871
1865 1 30.9084 21.3238 18.1679
1866 1 29.3369 19.7267 19.7275
1867 1 30.9334 21.3025 21.3035
1868 1 29.3665 19.6866 22.8895
1869 1 30.9758 21.2738 24.4666
1870 1 29.4154 19.6034 26.0777
1871 1 31.0691 21.0938 27.7218
1872 1 31.0119 21.0382 31.1163
1873 1 29.4094 19.5172 32.5991
1874 1 30.9926 21.2245 34.1556
1875 1 29.3178 19.6701 35.6366
1876 1 30.8949 21.2977 37.2165
1877 1 29.308 19.7344 38.7957
1878 1 30.8729 21.3472 40.3721
1879 1 29.2833 19.7577 41.9181
1880 1 30.8605 21.3201 43.5099
1881 1 29.2939 22.8973 7.0784
1882 1 30.8315 24.5146 8.6777
1883 1 29.2821 22.9319 10.2816
1884 1 30.862 24.5289 11.8477
1885 1 29.3112 22.9044 13.4167
1886 1 30.8806 24.5 14.9827
1887 1 29.3157 22.9228 16.5702
1888 1 30.8948 24.508 18.1457
1889 1 29.3263 22.8624 19.7058
1890 1 30.9315 24.4827 21.295
1891 1 29.4064 22.8689 22.8715
1892 1 30.9643 24.4867 24.4486
1893 1 29.6532 22.7697 26.2064
1894 2 30.0882 25.6708 26.7002
1895 2 29.3543 22.0945 29.4258
1896 2 29.1439 24.5207 28.8891
1897 1 29.5125 22.7122 32.5942
1898 1 30.8972 24.4993 34.05
1899 1 30.8971 24.5017 37.1778
1900 1 29.297 22.9028 38.7802
1901 1 30.8914 24.5111 40.3645
1902 1 29.2933 22.9342 41.9167
1903 1 30.9075 24.5086 43.5087
1904 1 29.3027 26.1156 7.0962
1905 1 30.8727 27.6876 8.6822
1906 1 29.2677 26.1173 10.2568
1907 1 30.875 27.6915 11.8495
1908 1 29.2697 26.1162 13.4213
1909 1 30.8779 27.6767 14.9825
1910 1 29.2833 26.1052 16.5789
1911 1 30.8996 27.6715 18.1433
1912 1 29.3462 26.1007 19.6929
1913 1 30.9277 27.6937 21.2957
1914 1 29.3459 26.0809 22.7956
1915 1 31.0071 27.6913 24.4891
1916 1 30.7557 28.009 27.6266
1917 1 29.0393 26.9875 29.4179
1918 1 30.9298 27.8575 30.9713
1919 1 30.9294 27.7203 34.1075
1920 1 29.3374 26.1083 35.6221
1921 1 30.894 27.6872 37.224
1922 1 29.3037 26.1125 38.7665
1923 1 30.881 27.6824 40.3576
1924 1 29.3133 26.0986 41.9215
1925 1 30.8797 27.6858 43.5064
1926 1 29.2757 29.2944 7.1214
1927 1 29.299 29.2715 10.2212
1928 1 29.3017 29.2612 13.421
1929 1 29.3285 29.2955 19.6781
1930 1 29.3716 29.2937 22.8819
1931 1 29.2979 29.485 25.746
1932 1 29.275 29.6226 29.4497
1933 1 29.4492 29.4616 32.6204
1934 1 29.3288 29.3 35.6637
1935 1 29.3365 29.2841 38.7824
1936 1 29.3082 29.2493 41.9412
1937 1 32.4706 13.4313 7.1026
1938 1 34.0384 14.9894 8.6828
1939 1 32.4347 13.4365 10.2552
1940 1 34.0458 15.008 11.8092
1941 1 32.4587 13.4301 13.4088
1942 1 34.0496 15.0142 14.9914
1943 1 32.4652 13.4033 16.5883
1944 1 34.0558 15.0057 18.1418
1945 1 32.4754 13.4053 19.7574
1946 1 34.0608 14.9764 21.3317
1947 1 32.4664 13.4092 22.9104
1948 1 34.081 14.9608 24.5233
1949 1 32.4738 13.3899 26.1107
1950 1 34.0686 14.9795 27.7011
1951 1 32.4669 13.3721 29.2651
1952 1 34.0518 14.9588 30.873
1953 1 32.4836 13.3939 32.4577
1954 1 32.5049 16.4894 32.4635
1955 1 32.4762 13.4088 35.6344
1956 1 34.0669 14.979 37.2134
1957 1 32.4858 13.4049 38.7739
1958 1 34.0521 15.0022 40.3665
1959 1 32.4492 13.4143 41.9358
1960 1 34.0206 14.9968 43.5064
1961 1 32.4658 16.6092 7.0914
1962 1 34.0355 18.1873 8.6798
1963 1 32.4614 16.5803 10.2735
1964 1 34.0316 18.1961 11.821
1965 1 32.4584 16.5954 13.4214
1966 1 34.066 18.1859 14.9935
1967 1 32.4826 16.5992 16.5815
1968 1 34.0591 18.1427 18.1794
1969 1 32.4916 16.5761 19.7275
1970 1 34.062 18.1519 21.33
1971 1 32.5031 16.5412 22.9082
1972 1 34.0849 18.1217 24.4829
1973 1 32.4756 16.5275 26.0767
1974 1 34.0479 18.1542 27.7256
1975 1 32.5156 16.5479 29.2408
1976 1 34.1066 18.0763 30.9119
1977 1 30.9583 18.0073 30.901
1978 1 34.1349 18.0907 34.0693
1979 1 32.4951 16.5275 35.6694
1980 1 34.0736 18.1506 37.2457
1981 1 32.4794 16.5595 38.8046
1982 1 34.0322 18.1554 40.3772
1983 1 32.4533 16.5709 41.9547
1984 1 34.0438 18.1671 43.5329
1985 1 32.4682 19.7319 7.1133
1986 1 34.0205 21.3586 8.6952
1987 1 32.4291 19.7522 10.2517
1988 1 34.0344 21.3291 11.853
1989 1 32.4499 19.7543 13.4643
1990 1 34.0279 21.3352 14.9918
1991 1 32.5041 19.7382 16.6116
1992 1 34.0761 21.3242 18.1583
1993 1 32.5128 19.7145 19.7171
1994 1 34.0974 21.3118 21.3207
1995 1 32.52 19.7113 22.8926
1996 1 34.1713 21.2562 24.4336
1997 1 32.5405 19.6896 26.0637
1998 1 34.0354 21.3385 27.7272
1999 1 32.5368 19.629 29.3554
2000 1 32.5642 22.606 29.7246
2001 1 32.5977 19.6109 32.5754
2002 1 34.1023 21.3034 34.0852
2003 1 32.5124 19.7079 35.7138
2004 1 34.074 21.3426 37.2079
2005 1 32.478 19.7577 38.8211
2006 1 34.0782 21.3589 40.3766
2007 1 32.4607 19.7767 41.9638
2008 1 34.0523 21.3443 43.521
2009 1 32.454 22.9347 7.1176
2010 1 34.0443 24.5187 8.6656
2011 1 32.4569 22.9311 10.2644
2012 1 34.0274 24.5213 11.842
2013 1 32.4476 22.9328 13.4448
2014 1 34.0464 24.5143 15.0105
2015 1 32.47 22.9152 16.5697
2016 1 34.0568 24.5132 18.1674
2017 1 32.5177 22.9203 19.7109
2018 1 34.0666 24.5134 21.3337
2019 1 32.5319 22.8919 22.8875
2020 1 34.1224 24.5123 24.479
2021 1 32.6441 22.8131 25.8564
2022 1 34.0708 24.4962 27.6925
2023 1 31.4663 23.898 27.8714
2024 1 34.0266 24.5276 30.8735
2025 1 32.4866 22.8409 32.488
2026 1 34.0309 24.4873 34.0324
2027 1 32.4875 22.9132 35.6417
2028 1 34.0587 24.5005 37.2102
2029 1 32.4873 22.9282 38.7641
2030 1 34.0387 24.5047 40.3655
2031 1 32.442 22.9296 41.9269
2032 1 34.0392 24.5181 43.5049
2033 1 32.444 26.0663 7.0967
2034 1 34.0206 27.6892 8.6958
2035 1 32.4486 26.0806 10.2488
2036 1 34.0186 27.6684 11.8389
2037 1 32.4673 26.0921 13.4297
2038 1 34.0399 27.6873 15.0239
2039 1 32.4635 26.1003 16.587
2040 1 34.0622 27.6747 18.1686
2041 1 32.4732 26.1132 19.7363
2042 1 34.076 27.6771 21.3295
2043 1 32.5204 26.0992 22.8955
2044 1 34.0912 27.6974 24.5044
2045 1 32.5934 26.0687 26.0857
2046 1 33.9904 27.6841 27.7088
2047 1 32.1242 26.1405 29.1919
2048 1 32.4447 26.1169 32.4389
2049 1 30.8895 24.4482 30.9214
2050 1 34.0557 27.6711 34.0459
2051 1 32.4745 26.0799 35.6231
2052 1 34.0728 27.6905 37.1748
2053 1 32.4681 26.067 38.7678
2054 1 34.0356 27.6965 40.3478
2055 1 32.468 26.1036 41.9414
2056 1 34.0591 27.676 43.5022
2057 1 32.4539 29.2627 7.0699
2058 1 32.4327 29.2584 10.2751
2059 1 32.4592 29.2767 13.4206
2060 1 32.4665 29.2623 16.5769
2061 1 32.4609 29.281 19.7207
2062 1 32.4826 29.2951 22.9071
2063 1 32.4885 29.2973 26.0607
2064 1 32.4159 29.3143 29.2902
2065 1 32.5242 29.339 32.509
2066 1 32.4933 29.3014 35.6403
2067 1 32.4615 29.2689 38.7904
2068 1 32.482 29.2579 41.9296
2069 1 35.6192 13.4388 7.1024
2070 1 37.2057 15.0658 8.6828
2071 1 35.6321 13.4242 10.2534
2072 1 37.1997 15.0007 11.8625
2073 1 35.607 13.4333 13.4614
2074 1 37.1921 15.006 15.0192
2075 1 35.6141 13.3802 16.5802
2076 1 37.2204 15.0033 18.1578
2077 1 35.6242 13.4046 19.735
2078 1 37.2359 14.9715 21.3377
2079 1 35.6368 13.4232 22.9164
2080 1 37.2066 14.9892 24.5157
2081 1 35.6488 13.398 26.1139
2082 1 37.1943 14.9865 27.6858
2083 1 35.6321 13.4191 29.2731
2084 1 37.2267 14.9896 30.8497
2085 1 35.6213 13.4195 32.4484
2086 1 37.239 14.9637 34.0498
2087 1 34.0876 14.9536 34.0532
2088 1 37.2141 15.0011 37.199
2089 1 37.2021 14.9888 40.3493
2090 1 37.1959 15.019 43.5061
2091 1 35.5961 16.5773 7.111
2092 1 37.1967 18.1937 8.6863
2093 1 35.6157 16.6075 10.2641
2094 1 37.1807 18.1966 11.837
2095 1 35.6133 16.5998 13.3969
2096 1 37.2165 18.1836 15.0063
2097 1 35.6506 16.584 16.585
2098 1 37.2212 18.1476 18.162
2099 1 35.6573 16.557 19.7577
2100 1 37.2115 18.1592 21.3387
2101 1 35.6721 16.5718 22.9292
2102 1 37.2153 18.1361 24.5271
2103 1 35.6395 16.5602 26.0915
2104 1 37.2363 18.181 27.6896
2105 1 35.6374 16.5716 29.2673
2106 1 37.2533 18.1341 30.874
2107 1 35.6571 16.5178 32.4763
2108 1 35.7298 19.6789 32.5082
2109 1 35.6696 16.5659 35.6437
2110 1 37.2286 18.152 37.2124
2111 1 35.6394 16.5781 38.8014
2112 1 37.21 18.1769 40.3624
2113 1 35.6235 16.595 41.9403
2114 1 37.181 18.1469 43.534
2115 1 35.6179 19.7452 7.1051
2116 1 37.2042 21.3517 8.6947
2117 1 35.6108 19.7679 10.2554
2118 1 37.2111 21.3477 11.8634
2119 1 35.5998 19.777 13.4155
2120 1 37.1796 21.3558 15.0301
2121 1 35.63 19.7331 16.5828
2122 1 37.2246 21.3411 18.1645
2123 1 35.6394 19.731 19.7428
2124 1 37.2113 21.3315 21.3398
2125 1 35.6882 19.7165 22.9099
2126 1 37.2077 21.3093 24.5184
2127 1 35.6357 19.7528 26.1073
2128 1 37.2173 21.3147 27.7029
2129 1 35.6465 19.7053 29.279
2130 1 37.2532 21.3127 30.8663
2131 1 34.2191 21.1638 31.0212
2132 1 37.2339 21.3149 34.043
2133 1 35.6771 19.741 35.6519
2134 1 37.2115 21.3106 37.2157
2135 1 35.6321 19.7433 38.794
2136 1 37.1925 21.319 40.3719
2137 1 35.597 19.7815 41.9461
2138 1 37.1873 21.3527 43.5425
2139 1 35.6114 22.92 7.132
2140 1 37.1702 24.5405 8.7141
2141 1 35.6009 22.9253 10.2732
2142 1 37.1925 24.5418 11.8525
2143 1 35.6241 22.9527 13.4386
2144 1 37.1954 24.5165 15.0306
2145 1 35.6363 22.9375 16.6051
2146 1 37.2057 24.4896 18.1678
2147 1 35.6407 22.9174 19.7741
2148 1 37.233 24.5045 21.3461
2149 1 35.6765 22.8986 22.9139
2150 1 37.2337 24.5223 24.5105
2151 1 35.6446 22.917 26.1093
2152 1 37.215 24.5037 27.7105
2153 1 35.612 22.8844 29.3197
2154 1 37.1869 24.5086 30.8721
2155 1 35.6488 22.8902 32.4723
2156 1 37.2111 24.4808 34.034
2157 1 35.6445 22.9157 35.6144
2158 1 37.2334 24.5166 37.2074
2159 1 35.6337 22.9442 38.7842
2160 1 37.2129 24.5196 40.3346
2161 1 35.6271 22.9392 41.9368
2162 1 37.1878 24.5159 43.5335
2163 1 35.5964 26.128 7.1219
2164 1 37.1982 27.6653 8.6584
2165 1 35.616 26.1121 10.278
2166 1 37.2036 27.6786 11.8579
2167 1 35.6045 26.116 13.4223
2168 1 37.1919 27.7002 15.0366
2169 1 35.6131 26.112 16.5904
2170 1 37.2124 27.6865 18.1874
2171 1 35.6354 26.093 19.7594
2172 1 37.2143 27.6893 21.3261
2173 1 35.6522 26.115 22.9119
2174 1 37.2222 27.6696 24.529
2175 1 35.6249 26.0856 26.1031
2176 1 37.1873 27.6452 27.7007
2177 1 35.6092 26.0959 29.2739
2178 1 37.168 27.6423 30.8592
2179 1 35.6021 26.0845 32.4475
2180 1 37.1835 27.6659 34.0269
2181 1 35.6286 26.0906 35.6082
2182 1 37.2014 27.6692 37.1742
2183 1 35.6216 26.0835 38.7731
2184 1 37.2102 27.6755 40.3509
2185 1 35.6221 26.0886 41.9222
2186 1 37.2075 27.6772 43.5308
2187 1 35.6209 29.2531 7.1116
2188 1 35.6076 29.257 10.2781
2189 1 35.6167 29.2726 13.433
2190 1 35.6201 29.2773 16.6017
2191 1 35.6497 29.2727 19.7541
2192 1 35.6449 29.2743 22.9421
2193 1 35.6223 29.2565 26.1177
2194 1 35.6073 29.2707 29.2895
2195 1 34.0049 27.6491 30.8299
2196 1 35.6222 29.2634 32.4453
2197 1 35.6518 29.2764 35.613
2198 1 35.6368 29.2437 38.7798
2199 1 35.6224 29.2398 41.9227
2200 1 38.7957 13.4325 7.1144
2201 1 40.3856 15.0325 8.6937
2202 1 38.7957 13.4595 10.2739
2203 1 40.3714 15.0288 11.8821
2204 1 38.7872 13.4349 13.4235
2205 1 40.361 15.0084 15.0355
2206 1 38.7772 13.4053 16.5906
2207 1 40.3542 14.9962 18.1759
2208 1 38.8034 13.4026 19.7435
2209 1 40.3693 15.0027 21.3512
2210 1 38.7992 13.4284 22.9252
2211 1 40.3725 15.0326 24.5168
2212 1 38.8103 13.4246 26.1251
2213 1 40.3734 14.9922 27.7024
2214 1 38.775 13.3908 29.25
2215 1 40.3903 14.9666 30.8493
2216 1 38.8095 13.4215 32.4342
2217 1 40.3625 14.9908 34.0124
2218 1 38.7787 13.401 35.6065
2219 1 38.8081 16.5662 35.6234
2220 1 40.3917 14.9883 40.3697
2221 1 40.3674 15.0039 43.4966
2222 1 38.7874 16.6087 7.1154
2223 1 40.3565 18.2122 8.7137
2224 1 38.7799 16.5985 10.3078
2225 1 40.3683 18.192 11.8839
2226 1 38.7617 16.5921 13.4364
2227 1 40.3755 18.1659 15.0021
2228 1 38.8003 16.5838 16.5802
2229 1 40.3476 18.1909 18.1788
2230 1 38.7848 16.5667 19.7857
2231 1 40.387 18.1704 21.3421
2232 1 38.7835 16.5854 22.9412
2233 1 40.4121 18.169 24.505
2234 1 38.7757 16.5962 26.104
2235 1 40.3699 18.1453 27.6713
2236 1 38.7985 16.5638 29.272
2237 1 40.3782 18.1416 30.8456
2238 1 38.8186 16.5763 32.4541
2239 1 40.3892 18.1463 33.9984
2240 1 37.2624 18.1209 34.0614
2241 1 40.3671 18.1671 37.189
2242 1 38.791 16.5645 38.7872
2243 1 40.3759 18.1832 40.3581
2244 1 38.8052 16.5943 41.938
2245 1 40.3449 18.1447 43.5217
2246 1 41.929 19.7459 7.1034
2247 1 38.7737 19.7726 7.1219
2248 1 40.3448 21.3373 8.7198
2249 1 38.775 19.7673 10.2856
2250 1 40.3655 21.3743 11.8577
2251 1 38.7644 19.7634 13.4417
2252 1 40.3588 21.3606 15.0393
2253 1 38.7585 19.7449 16.6021
2254 1 40.3375 21.3264 18.1804
2255 1 38.8078 19.7413 19.7343
2256 1 40.3595 21.3275 21.3484
2257 1 38.7926 19.7383 22.9342
2258 1 40.3601 21.3575 24.5159
2259 1 38.8007 19.7519 26.0978
2260 1 40.3762 21.3372 27.7018
2261 1 38.7946 19.7528 29.279
2262 1 40.372 21.324 30.8565
2263 1 38.7892 19.7503 32.4441
2264 1 40.3836 21.3295 34.0206
2265 1 38.8043 19.7329 35.6378
2266 1 40.3655 21.3407 37.1829
2267 1 38.8067 19.7536 38.7862
2268 1 40.3714 21.3482 40.3621
2269 1 38.7891 19.7702 41.9451
2270 1 40.3807 21.343 43.5085
2271 1 38.7741 22.9679 7.1099
2272 1 40.3882 24.5106 8.6989
2273 1 38.7659 22.9593 10.2866
2274 1 40.3548 24.4969 11.8661
2275 1 38.7899 22.9566 13.4367
2276 1 40.3711 24.5111 15.0011
2277 1 38.7806 22.9517 16.588
2278 1 40.3645 24.4848 18.1684
2279 1 38.7799 22.9456 19.7575
2280 1 40.3553 24.5112 21.3579
2281 1 38.778 22.9194 22.9499
2282 1 40.3648 24.5249 24.5099
2283 1 38.8035 22.937 26.1046
2284 1 40.3833 24.5059 27.6847
2285 1 38.7849 22.9095 29.2529
2286 1 40.3544 24.5126 30.8609
2287 1 38.7689 22.8919 32.4522
2288 1 40.3652 24.4799 34.0087
2289 1 38.7818 22.9473 35.6156
2290 1 40.3804 24.5117 37.1905
2291 1 38.8055 22.9011 38.7993
2292 1 40.3493 24.4945 40.3553
2293 1 38.8068 22.909 41.951
2294 1 40.3634 24.4938 43.5125
2295 1 38.7656 26.0863 7.1089
2296 1 40.3462 27.7176 8.681
2297 1 38.7837 26.1103 10.2719
2298 1 40.3613 27.6742 11.8669
2299 1 38.7905 26.1021 13.4373
2300 1 40.3803 27.687 15.0184
2301 1 38.7816 26.1076 16.599
2302 1 40.3711 27.6857 18.2053
2303 1 38.7921 26.1009 19.7789
2304 1 40.3791 27.6845 21.3612
2305 1 38.7822 26.1098 22.9553
2306 1 40.3751 27.6774 24.5232
2307 1 38.7896 26.1 26.1252
2308 1 40.3406 27.7024 27.7065
2309 1 38.7872 26.0685 29.2819
2310 1 40.3261 27.6667 30.8304
2311 1 38.7732 26.0905 32.4472
2312 1 40.3646 27.6632 34.0068
2313 1 38.8131 26.0853 35.5967
2314 1 40.3567 27.6789 37.1939
2315 1 38.7884 26.0824 38.7565
2316 1 40.373 27.6657 40.3429
2317 1 38.8204 26.1021 41.9278
2318 1 40.3671 27.6914 43.5156
2319 1 38.7605 29.2546 7.0972
2320 1 38.7645 29.2557 10.287
2321 1 38.7784 29.2681 13.4204
2322 1 38.7861 29.2782 16.5879
2323 1 38.7906 29.258 19.7645
2324 1 38.7723 29.2726 22.9474
2325 1 38.7883 29.2702 26.1031
2326 1 38.7684 29.2642 29.272
2327 1 38.7572 29.2506 32.4342
2328 1 38.7935 29.2708 35.6065
2329 1 38.7785 29.2437 38.8034
2330 1 38.7571 29.2693 41.9195
2331 1 41.9283 13.4499 7.1189
2332 1 43.5127 15.0282 8.7036
2333 1 41.9481 13.4016 10.29
2334 1 43.5347 15.0229 11.8544
2335 1 41.9265 13.4154 13.4404
2336 1 43.5377 15.0108 15.0095
2337 1 41.9147 13.4157 16.5859
2338 1 43.5421 15.002 18.1954
2339 1 41.9424 13.4366 19.7814
2340 1 43.5337 15.0219 21.3422
2341 1 41.9363 13.4178 22.9304
2342 1 43.5297 15.0277 24.5139
2343 1 41.95 13.4371 26.0881
2344 1 43.5341 15.0026 27.6915
2345 1 43.5198 14.9896 30.8255
2346 1 43.5631 15.0031 33.9766
2347 1 41.9668 13.4244 35.5952
2348 1 43.5188 15.0283 37.1736
2349 1 40.3621 14.9607 37.1919
2350 1 43.5288 15.0101 40.3457
2351 1 41.9534 13.4174 41.9475
2352 1 43.5093 14.9746 43.5082
2353 1 41.9568 16.6252 7.0969
2354 1 41.9269 16.5964 10.2853
2355 1 43.5027 18.188 11.8704
2356 1 41.9535 16.5969 13.4467
2357 1 43.5106 18.183 15.006
2358 1 41.9821 16.5652 16.5965
2359 1 43.525 18.1866 18.177
2360 1 41.9594 16.6037 19.7614
2361 1 43.5172 18.1893 21.342
2362 1 41.9528 16.5946 22.9257
2363 1 43.5209 18.1613 24.5365
2364 1 41.9501 16.5647 26.1232
2365 1 43.5165 18.1823 27.6649
2366 1 41.9712 16.627 29.2575
2367 1 43.518 18.1833 30.8601
2368 1 41.9301 16.578 32.4383
2369 1 43.541 18.1748 33.9947
2370 1 41.9626 16.5857 35.583
2371 1 43.5434 18.1544 37.1925
2372 1 41.9382 16.5868 38.7431
2373 1 43.5378 18.1863 40.3606
2374 1 41.9248 16.5912 41.9184
2375 1 43.4995 18.1816 43.4994
2376 1 43.5174 18.1843 8.6966
2377 1 43.5107 21.3667 8.6777
2378 1 41.9353 19.7722 10.254
2379 1 43.5491 21.3357 11.8747
2380 1 41.9373 19.7873 13.4418
2381 1 43.5171 21.3299 15.0259
2382 1 41.9419 19.7535 16.6021
2383 1 43.5403 21.3403 18.1681
2384 1 41.9338 19.7555 19.7738
2385 1 43.5294 21.3607 21.3353
2386 1 41.9383 19.7826 22.9169
2387 1 43.5285 21.3354 24.5196
2388 1 41.9559 19.773 26.1054
2389 1 43.525 21.3378 27.6925
2390 1 41.9638 19.7525 29.263
2391 1 43.5355 21.3274 30.8424
2392 1 41.9479 19.7474 32.4436
2393 1 43.4953 21.3256 34.0266
2394 1 41.9707 19.7531 35.6246
2395 1 43.558 21.3515 37.1709
2396 1 41.9557 19.7265 38.747
2397 1 41.9537 19.7359 41.9131
2398 1 43.5216 21.309 43.5217
2399 1 41.9385 22.9183 7.12
2400 1 43.5099 24.5236 8.6924
2401 1 41.9377 22.9252 10.2855
2402 1 43.5017 24.492 11.8346
2403 1 41.9448 22.8975 13.4415
2404 1 43.5376 24.511 15.0228
2405 1 41.932 22.8916 16.5967
2406 1 43.4959 24.5207 18.1764
2407 1 41.9095 22.9417 19.7807
2408 1 43.5291 24.4806 21.351
2409 1 41.9335 22.9112 22.9482
2410 1 43.5215 24.5119 24.5201
2411 1 41.9363 22.931 26.1005
2412 1 43.5448 24.5078 27.6796
2413 1 41.9211 22.9323 29.2762
2414 1 43.5262 24.4989 30.8534
2415 1 41.9596 22.9114 32.4338
2416 1 43.52 24.5182 34.0048
2417 1 41.9327 22.9072 35.6284
2418 1 43.5283 24.5161 37.1786
2419 1 41.9554 22.9162 38.7526
2420 1 43.528 24.5072 40.3409
2421 1 41.9515 22.9187 41.9255
2422 1 43.52 24.5057 43.5116
2423 1 41.9082 26.1068 7.1055
2424 1 43.5063 27.677 8.6917
2425 1 41.9525 26.0922 10.2722
2426 1 43.5425 27.6934 11.8774
2427 1 41.9332 26.1054 13.433
2428 1 43.5089 27.6672 15.0396
2429 1 41.9436 26.0942 16.6035
2430 1 43.4879 27.6748 18.1898
2431 1 41.9391 26.0844 19.7878
2432 1 43.5448 27.6575 21.3361
2433 1 41.9657 26.1141 22.9572
2434 1 43.5115 27.6939 24.5003
2435 1 41.9561 26.1153 26.1081
2436 1 41.9356 26.0688 29.2677
2437 1 43.5343 27.6685 30.8669
2438 1 41.9497 26.0841 32.4301
2439 1 43.5421 27.6761 34.0342
2440 1 41.9341 26.0811 35.6129
2441 1 43.5107 27.6649 37.1756
2442 1 41.9681 26.089 38.7864
2443 1 43.5462 27.6746 40.3301
2444 1 41.9461 26.1096 41.9437
2445 1 43.4953 27.6685 43.5217
2446 1 41.9537 29.2465 7.117
2447 1 41.9685 29.252 10.2601
2448 1 41.9399 29.2649 13.4274
2449 1 41.9353 29.2681 16.6095
2450 1 41.9494 29.2595 19.7679
2451 1 41.9341 29.2596 22.9314
2452 1 41.9402 29.2618 26.0866
2453 1 41.9318 29.2574 29.2509
2454 1 41.9313 29.2376 32.4327
2455 1 41.9521 29.2472 35.5843
2456 1 41.9536 29.2749 38.7597
2457 1 41.9512 29.243 41.9142
2458 1 43.5283 27.6562 27.6888
2459 1 43.5301 21.3392 40.3731
2460 1 38.7778 13.4012 38.7806
2461 1 35.634 13.4249 38.771
2462 1 38.7623 13.4331 41.9264
2463 1 35.6434 13.4131 41.9558
2464 1 29.3469 26.2357 32.4857
2465 1 29.326 22.8902 35.6174
2466 1 30.9106 30.8733 37.225
2467 1 34.0202 30.866 43.5173
2468 1 30.8494 30.8574 43.5444
2469 1 37.1889 30.8394 43.5
2470 1 30.9492 30.9917 30.9361
2471 1 29.305 29.2734 16.553
2472 1 37.2113 30.8427 40.3664
2473 1 30.858 30.8534 11.8428
2474 1 30.9882 30.9637 34.1185
2475 1 34.0834 30.8726 37.1977
2476 1 34.0704 30.8757 34.0541
2477 1 34.0213 30.8476 8.6942
2478 1 34.0376 30.8603 40.3589
2479 1 34.0585 30.8654 18.1477
2480 1 34.0454 30.8342 11.8402
2481 1 37.2008 30.8318 8.6989
2482 1 37.2018 30.8561 21.3613
2483 1 34.0404 30.8635 21.3299
2484 1 40.3839 30.8562 18.1865
2485 1 40.354 30.8587 24.5193
2486 1 37.1756 30.8588 30.872
2487 1 34.0656 30.8802 24.505
2488 1 30.8856 30.8352 8.6737
2489 1 40.3655 30.8757 21.3501
2490 1 40.3613 30.8289 30.8541
2491 1 40.3419 30.8369 33.9997
2492 1 37.2261 30.8512 37.1724
2493 1 40.3426 30.8399 11.8482
2494 1 43.5216 30.8512 8.6821
2495 1 40.3904 30.8571 37.1709
2496 1 37.2279 30.855 34.0475
2497 1 40.3577 30.8244 8.6897
2498 1 43.5022 30.8718 43.5121
2499 1 43.518 30.8702 24.536
2500 1 41.9528 13.4165 32.4599
2501 1 37.2089 30.8502 15.0
2502 1 41.9513 13.4196 29.243
2503 1 34.0423 30.8733 14.9967
2504 1 37.2027 30.8613 11.8795
2505 1 43.5227 30.845 21.3624
2506 1 37.2219 30.8318 18.1907
2507 1 43.5084 30.8169 34.0148
2508 1 30.8451 30.9437 27.6471
2509 1 43.5151 30.8292 30.8501
2510 1 43.5132 30.8483 11.8506
2511 1 30.9301 30.8691 21.2914
2512 1 40.3798 30.8569 15.0238
2513 1 30.8836 30.883 18.1641
2514 1 34.0555 30.8629 27.6579
2515 1 30.8741 30.8669 40.3692
2516 1 43.5123 30.8467 15.0247
2517 1 30.9851 30.9675 24.4192
2518 1 40.3543 30.8341 40.3306
2519 1 43.5311 30.8464 40.3151
2520 1 40.3741 30.8423 43.5046
2521 1 27.6852 30.8742 11.8488
2522 1 43.5072 30.8515 18.1789
2523 1 37.2103 30.8527 24.4919
2524 1 43.5076 30.8187 37.1635
2525 1 27.8458 24.4433 21.2299
2526 1 27.689 21.3443 8.673
2527 1 27.6861 27.7143 18.1252
2528 1 27.7192 24.4991 15.0039
2529 1 27.7139 27.6973 14.985
2530 1 27.7237 18.1813 8.6734
2531 1 27.6914 30.8641 8.6699
2532 1 27.7555 18.1415 18.152
2533 1 27.7365 14.9565 21.3467
2534 1 27.7238 21.3373 15.0105
2535 1 34.0612 30.8812 30.8642
2536 1 27.7064 24.4919 18.1736
2537 1 27.9324 21.2779 24.5688
2538 1 27.7173 18.1425 21.3213
2539 1 27.7223 30.8606 18.1162
2540 1 27.7064 27.6931 11.8486
2541 1 27.7036 18.1576 37.191
2542 1 27.7174 15.0008 8.6804
2543 1 27.7195 18.0214 27.7083
2544 1 27.7401 14.9641 18.1472
2545 1 27.7316 18.1403 11.8267
2546 1 27.7809 31.2585 27.6633
2547 1 27.713 21.3452 11.8223
2548 1 27.689 24.5358 11.8207
2549 1 27.7639 31.1202 31.0821
2550 1 28.0335 24.3107 31.2831
2551 1 27.8162 30.9148 21.2304
2552 1 27.7214 24.499 43.4904
2553 1 27.7233 24.5103 8.6982
2554 1 27.7254 14.9708 34.0198
2555 1 27.7273 27.695 40.3594
2556 1 27.7202 14.9653 24.4956
2557 1 27.7261 21.341 40.3319
2558 1 27.7034 18.1574 40.3654
2559 1 27.7518 27.6966 21.1636
2560 1 27.7622 17.9589 30.9562
2561 1 27.7245 27.6805 43.494
2562 1 27.7036 15.0001 40.3279
2563 1 27.687 27.7047 8.6623
2564 1 27.7513 27.687 34.1059
2565 1 27.7261 24.5188 37.171
2566 1 27.7138 30.8427 43.516
2567 1 27.7063 21.3446 43.5083
2568 1 27.6967 14.9494 27.6971
2569 1 27.7237 30.8726 40.369
2570 1 27.688 14.9358 30.8843
2571 1 27.712 14.9786 37.2065
2572 1 27.7135 15.0004 43.4876
2573 1 27.7298 24.5051 40.3393
2574 1 27.7587 21.292 18.108
2575 1 27.7309 24.4811 34.0422
2576 1 27.7161 18.0863 34.0599
2577 1 27.7323 18.1605 14.9736
2578 1 27.7219 21.2838 34.07
2579 1 27.8453 21.0817 31.2846
2580 1 27.7924 21.2778 21.3146
2581 1 27.7505 18.1022 24.4915
2582 1 27.7173 14.9777 14.9782
2583 1 27.7118 18.1428 43.5182
2584 1 43.5428 30.8463 27.6805
2585 1 40.3531 30.8431 27.6969
2586 1 30.8707 30.8393 14.9602
2587 1 27.7165 30.8753 14.9649
2588 1 27.7289 28.5445 27.5716
2589 1 27.7141 15.0049 11.8307
2590 1 37.1997 30.8433 27.6942
2591 1 27.7222 27.6866 37.189
2592 1 27.701 31.0916 24.3403
2593 1 41.9727 13.4226 38.764
2594 1 35.6322 13.418 35.6214
2595 1 27.7161 21.3281 37.2083
2596 1 27.7485 20.834 27.6818
2597 2 28.5501 26.9871 25.1421
2598 1 27.7468 28.0315 31.3886
2599 1 28.1591 24.3769 24.6396
2600 2 27.5501 25.9391 27.3651
2601 1 27.7118 30.8894 37.2144
2602 1 27.9345 31.0977 34.2429
2603 2 27.4156 23.3692 27.3254
2604 1 7.1217 10.2869 7.1217
2605 1 7.1113 10.2543 10.2645
2606 1 7.1123 10.2508 13.4147
2607 1 7.115 10.2587 16.6033
2608 1 7.1286 10.2336 19.7949
2609 1 7.1287 10.2673 22.9176
2610 1 7.1304 10.2601 26.0763
2611 1 7.142 10.2595 29.241
2612 1 8.7157 11.8325 30.8404
2613 1 7.1266 10.2429 32.4141
2614 1 8.7176 11.8284 33.9912
2615 1 7.1273 10.2518 35.5854
2616 1 8.7267 11.8353 37.1407
2617 1 7.1521 10.2443 38.73
2618 1 8.7418 11.829 40.3367
2619 1 7.1404 10.2481 41.8953
2620 1 8.7317 11.8257 43.4886
2621 1 8.697 11.8458 24.4913
2622 1 8.6831 11.8399 8.6885
2623 1 8.687 11.8179 18.1597
2624 1 8.6751 11.8411 11.846
2625 1 8.6917 11.8357 15.0108
2626 1 8.6883 11.85 21.3386
2627 1 8.7059 11.8128 27.6522
2628 1 10.2985 10.2707 7.1146
2629 1 10.2833 10.2291 10.2816
2630 1 11.8732 11.8123 11.8393
2631 1 10.2868 10.2499 13.4187
2632 1 11.8726 11.8134 30.8591
2633 1 11.8815 11.8301 34.0044
2634 1 11.8902 11.801 37.17
2635 1 10.2881 10.2486 38.7552
2636 1 11.8792 11.815 40.3201
2637 1 11.8785 11.8348 43.5192
2638 1 13.4397 10.2575 7.103
2639 1 13.428 10.2418 10.2554
2640 1 13.4593 10.2702 13.4237
2641 1 13.4302 10.2109 16.593
2642 1 13.4546 10.2278 19.7693
2643 1 13.4549 10.2225 22.9061
2644 1 13.451 10.2564 26.0706
2645 1 13.4842 10.2466 29.2235
2646 1 15.0051 11.829 30.8234
2647 1 13.4426 10.2363 32.4184
2648 1 15.0368 11.831 34.001
2649 1 13.4802 10.2336 35.5942
2650 1 15.0393 11.8163 37.1696
2651 1 13.438 10.2244 38.7447
2652 1 15.0281 11.8208 40.3209
2653 1 13.4602 10.2285 41.9014
2654 1 15.0175 11.8173 43.5096
2655 1 16.6287 10.2505 7.0976
2656 1 16.6061 10.2276 10.2642
2657 1 16.6335 10.2341 13.414
2658 1 18.2034 11.8248 14.9773
2659 1 16.6245 10.2463 16.5833
2660 1 16.621 10.1969 19.7296
2661 1 18.1899 11.7697 21.3246
2662 1 16.6227 10.2314 22.9353
2663 1 18.184 11.7956 24.5134
2664 1 16.6128 10.2306 26.0882
2665 1 16.6052 10.2081 29.2645
2666 1 18.184 11.806 30.834
2667 1 16.6168 10.2473 32.4357
2668 1 18.1903 11.8084 34.0495
2669 1 16.6182 10.2549 35.5949
2670 1 18.1984 11.8314 37.1679
2671 1 16.6479 10.2598 38.7532
2672 1 18.2179 11.8315 40.3501
2673 1 16.6071 10.2223 41.8953
2674 1 18.1948 11.8176 43.4891
2675 1 19.7888 10.2535 7.1068
2676 1 21.3871 11.8408 8.6978
2677 1 19.7951 10.2693 10.2602
2678 1 19.8034 10.2676 13.4164
2679 1 19.7673 10.2382 16.5825
2680 1 19.8145 10.2399 19.7387
2681 1 19.8059 10.2287 22.9239
2682 1 21.3602 11.8144 24.4922
2683 1 19.7678 10.2404 26.077
2684 1 19.7947 10.2631 29.2728
2685 1 19.7938 10.2276 32.4277
2686 1 21.3962 11.7963 34.0325
2687 1 19.804 10.2246 35.5959
2688 1 21.4111 11.8225 37.178
2689 1 19.7716 10.2116 38.7534
2690 1 21.3793 11.8127 40.3311
2691 1 19.7918 10.2427 41.928
2692 1 21.3682 11.8425 43.514
2693 1 22.9681 10.2476 7.0861
2694 1 24.5298 11.8449 8.6846
2695 1 22.9444 10.2239 10.2575
2696 1 24.531 11.8335 11.8413
2697 1 22.9731 10.2213 13.4382
2698 1 22.9423 10.248 16.5838
2699 1 22.9413 10.217 19.7247
2700 1 22.9271 10.2428 22.9218
2701 1 22.9715 10.2333 26.0926
2702 1 24.5487 11.8161 27.6718
2703 1 22.9466 10.2547 29.2512
2704 1 22.9552 10.2508 32.4439
2705 1 22.9502 10.2087 35.5832
2706 1 24.5269 11.8473 37.1718
2707 1 22.969 10.2435 38.7345
2708 1 24.521 11.8164 40.3427
2709 1 22.9348 10.2483 41.9284
2710 1 26.1129 10.2664 7.1061
2711 1 26.1268 10.284 10.2554
2712 1 26.1221 10.2443 13.4216
2713 1 26.1306 10.2494 16.6169
2714 1 26.1308 10.2284 19.7297
2715 1 26.1307 10.2362 22.9477
2716 1 26.1229 10.2366 26.0796
2717 1 26.1274 10.2172 29.2529
2718 1 26.1295 10.2357 32.4415
2719 1 26.1288 10.2205 35.6169
2720 1 26.1075 10.2378 38.7894
2721 1 26.1386 10.2849 41.8962
2722 1 15.0334 11.8031 21.3368
2723 1 11.8801 11.8113 15.0004
2724 1 11.8592 11.8024 21.3401
2725 1 11.8892 11.8216 27.6593
2726 1 21.3795 11.7922 11.843
2727 1 10.279 10.2644 16.6233
2728 1 24.5244 11.8515 43.5004
2729 1 24.5512 11.8232 24.488
2730 1 21.3579 11.8267 30.8656
2731 1 24.5584 11.7976 30.8743
2732 1 24.5505 11.8308 14.9859
2733 1 21.3609 11.8193 27.6765
2734 1 10.2994 10.2385 41.8836
2735 1 10.2648 10.2403 19.7562
2736 1 10.2919 10.2578 22.9114
2737 1 24.5472 11.8114 18.1665
2738 1 18.2035 11.8277 27.6543
2739 1 24.5409 11.8176 34.0301
2740 1 21.3803 11.8179 18.1421
2741 1 21.3806 11.8152 15.0294
2742 1 18.2133 11.8496 11.8236
2743 1 15.0504 11.8136 24.4995
2744 1 18.1973 11.8366 8.6718
2745 1 18.1966 11.7959 18.1681
2746 1 15.0447 11.8262 27.6557
2747 1 15.0383 11.8271 11.8118
2748 1 15.001 11.8328 15.0018
2749 1 15.0229 11.8463 8.7004
2750 1 21.3913 11.784 21.3218
2751 1 10.2572 10.2304 32.4078
2752 1 11.8527 11.8386 18.1628
2753 1 11.8735 11.8469 8.6839
2754 1 11.857 11.8073 24.5129
2755 1 10.286 10.2506 29.2335
2756 1 10.2916 10.2429 35.5789
2757 1 10.2989 10.2457 26.0821
2758 1 24.5449 11.7891 21.3282
2759 1 14.9962 11.8205 18.1548
2760 1 29.2932 10.2589 7.1162
2761 1 29.2713 10.2538 10.24
2762 1 29.2761 10.2389 13.4146
2763 1 29.2787 10.2418 16.5755
2764 1 29.2908 10.2563 19.7568
2765 1 29.3081 10.2662 22.9093
2766 1 29.282 10.2596 26.0787
2767 1 29.2725 10.2236 29.2988
2768 1 29.3066 10.2374 32.4272
2769 1 29.273 10.2349 35.6163
2770 1 30.8751 11.8089 37.2245
2771 1 29.3028 10.253 38.7827
2772 1 30.8767 11.8276 40.3297
2773 1 29.2935 10.2573 41.923
2774 1 30.8696 11.8386 43.5234
2775 1 32.4676 10.2667 7.1089
2776 1 32.4354 10.2506 10.2776
2777 1 32.4676 10.2918 13.4231
2778 1 32.4821 10.2555 16.5888
2779 1 32.457 10.2516 19.7623
2780 1 32.4428 10.2524 22.9453
2781 1 32.4715 10.2692 26.1131
2782 1 32.4552 10.2318 29.265
2783 1 32.4596 10.2264 32.4437
2784 1 32.4769 10.2431 35.6056
2785 1 32.4657 10.2481 38.761
2786 1 34.0474 11.8338 40.3544
2787 1 32.4605 10.228 41.9243
2788 1 35.6292 10.2748 7.1008
2789 1 35.5969 10.2727 10.2823
2790 1 35.6133 10.2816 13.4073
2791 1 35.6254 10.2491 16.6057
2792 1 35.6337 10.248 19.7464
2793 1 35.6258 10.2641 22.9335
2794 1 35.6174 10.2205 26.0866
2795 1 35.6266 10.2567 29.2587
2796 1 35.6207 10.2094 32.441
2797 1 35.6311 10.2655 35.6004
2798 1 35.6265 10.2517 38.7582
2799 1 37.2047 11.8102 40.3593
2800 1 35.6094 10.2461 41.9465
2801 1 38.8083 10.2528 38.7647
2802 1 38.7749 10.2694 7.0873
2803 1 38.7901 10.2945 10.2622
2804 1 38.7822 10.2322 13.429
2805 1 38.7879 10.2514 16.5997
2806 1 38.7695 10.2602 19.7837
2807 1 38.7932 10.2655 22.9251
2808 1 38.7785 10.2669 26.0911
2809 1 38.7837 10.2668 29.2801
2810 1 38.7799 10.2506 32.4451
2811 1 38.8231 10.2491 35.6161
2812 1 37.2271 11.8327 37.1794
2813 1 38.783 10.2271 41.9164
2814 1 41.9491 10.2765 7.1178
2815 1 41.9451 10.2744 10.257
2816 1 41.9341 10.2588 13.4111
2817 1 41.959 10.2429 16.591
2818 1 41.9525 10.2602 19.7703
2819 1 41.9757 10.2667 22.9094
2820 1 41.9331 10.284 26.0824
2821 1 41.9431 10.2489 29.256
2822 1 41.9471 10.2565 32.4169
2823 1 41.956 10.2682 35.5827
2824 1 41.9494 10.2304 38.7581
2825 1 41.9466 10.2631 41.9259
2826 1 30.8878 11.8469 14.9872
2827 1 30.8739 11.815 24.5117
2828 1 43.5348 11.8274 43.5181
2829 1 37.2079 11.8034 34.0229
2830 1 43.5511 11.8314 37.1905
2831 1 30.907 11.8061 30.8445
2832 1 30.888 11.8031 34.045
2833 1 40.3889 11.8355 40.3275
2834 1 34.0507 11.8224 37.1905
2835 1 40.3629 11.8615 30.8375
2836 1 43.5268 11.8689 24.5217
2837 1 34.0369 11.8421 30.8573
2838 1 43.5475 11.8915 21.3337
2839 1 43.4922 11.8305 18.196
2840 1 43.5242 11.8448 30.8533
2841 1 40.392 11.8281 27.6917
2842 1 43.5631 11.8279 33.9895
2843 1 34.0132 11.8423 14.9895
2844 1 34.0453 11.825 21.3465
2845 1 43.537 11.8343 27.6736
2846 1 43.5379 11.8127 15.0046
2847 1 40.3777 11.8667 18.1731
2848 1 40.3316 11.8474 11.8468
2849 1 40.3901 11.8376 24.515
2850 1 34.0048 11.8105 18.2002
2851 1 37.2103 11.8636 11.8419
2852 1 34.043 11.8328 24.5189
2853 1 34.0395 11.8278 27.6835
2854 1 37.2056 11.8528 18.1593
2855 1 40.3724 11.8627 21.3235
2856 1 34.0351 11.8177 34.0368
2857 1 40.3737 11.853 15.0565
2858 1 37.2136 11.8523 14.985
2859 1 40.3848 11.8564 37.1938
2860 1 30.8411 11.8391 11.8169
2861 1 37.1994 11.8528 8.6998
2862 1 40.3446 11.8335 34.0075
2863 1 43.5247 11.876 8.6773
2864 1 40.3748 11.873 8.6977
2865 1 34.0604 11.8428 11.8274
2866 1 34.0392 11.874 8.6512
2867 1 30.8601 11.8425 8.6569
2868 1 43.5297 11.8394 11.8506
2869 1 30.8777 11.8453 18.1507
2870 1 30.8963 11.8482 21.313
2871 1 40.3436 11.8378 43.5041
2872 1 30.8491 11.7989 27.6803
2873 1 37.1998 11.8248 27.6711
2874 1 37.2097 11.7922 30.8675
2875 1 34.0339 11.8271 43.4931
2876 1 37.2359 11.8364 24.4972
2877 1 37.208 11.8165 21.3678
2878 1 37.2027 11.8179 43.4701
2879 1 27.7175 11.8112 37.1843
2880 1 27.6823 11.8337 8.6802
2881 1 27.706 11.8351 11.8367
2882 1 27.7039 11.8126 30.8703
2883 1 27.7166 11.8078 34.0589
2884 1 27.6885 11.8202 43.5304
2885 1 27.7154 11.8361 40.3616
2886 1 27.7155 11.8472 18.1515
2887 1 27.7214 11.8159 21.3421
2888 1 27.7107 11.8489 15.0216
2889 1 27.7451 11.8147 24.5121
2890 1 27.7157 11.8079 27.6777
2891 1 43.5154 11.823 40.316
2892 1 0.7913 0.7913 0.7913
2893 1 2.3739 2.3739 2.3739
2894 1 0.7913 0.7913 3.9565
2895 1 2.3739 2.3739 5.5391
2896 1 0.7913 0.7913 7.1217
2897 1 2.3739 2.3739 8.7043
2898 1 0.7913 0.7913 10.2869
2899 1 2.3739 2.3739 11.8695
2900 1 0.7913 0.7913 13.4521
2901 1 2.3739 2.3739 15.0347
2902 1 0.7913 0.7913 16.6173
2903 1 2.3739 2.3739 18.1999
2904 1 0.7913 0.7913 19.7825
2905 1 2.3739 2.3739 21.3651
2906 1 0.7913 0.7913 22.9477
2907 1 2.3739 2.3739 24.5303
2908 1 0.7913 0.7913 26.1129
2909 1 2.3739 2.3739 27.6955
2910 1 0.7913 0.7913 29.2781
2911 1 2.3739 2.3739 30.8607
2912 1 0.7913 0.7913 32.4433
2913 1 2.3739 2.3739 34.0259
2914 1 0.7913 0.7913 35.6085
2915 1 2.3739 2.3739 37.1911
2916 1 0.7913 0.7913 38.7737
2917 1 2.3739 2.3739 40.3563
2918 1 0.7913 0.7913 41.9389
2919 1 2.3739 2.3739 43.5215
2920 1 0.7913 0.7913 45.1041
2921 1 2.3739 2.3739 46.6867
2922 1 0.7913 0.7913 48.2693
2923 1 2.3739 2.3739 49.8519
2924 1 0.7913 3.9565 0.7913
2925 1 2.3739 5.5391 2.3739
2926 1 0.7913 3.9565 3.9565
2927 1 2.3739 5.5391 5.5391
2928 1 0.7913 3.9565 7.1217
2929 1 2.3739 5.5391 8.7043
2930 1 0.7913 3.9565 10.2869
2931 1 2.3739 5.5391 11.8695
2932 1 0.7913 3.9565 13.4521
2933 1 2.3739 5.5391 15.0347
2934 1 0.7913 3.9565 16.6173
2935 1 2.3739 5.5391 18.1999
2936 1 0.7913 3.9565 19.7825
2937 1 2.3739 5.5391 21.3651
2938 1 0.7913 3.9565 22.9477
2939 1 2.3739 5.5391 24.5303
2940 1 0.7913 3.9565 26.1129
2941 1 2.3739 5.5391 27.6955
2942 1 0.7913 3.9565 29.2781
2943 1 2.3739 5.5391 30.8607
2944 1 0.7913 3.9565 32.4433
2945 1 2.3739 5.5391 34.0259
2946 1 0.7913 3.9565 35.6085
2947 1 2.3739 5.5391 37.1911
2948 1 0.7913 3.9565 38.7737
2949 1 2.3739 5.5391 40.3563
2950 1 0.7913 3.9565 41.9389
2951 1 2.3739 5.5391 43.5215
2952 1 0.7913 3.9565 45.1041
2953 1 2.3739 5.5391 46.6867
2954 1 0.7913 3.9565 48.2693
2955 1 2.3739 5.5391 49.8519
2956 1 0.7913 7.1217 0.7913
2957 1 2.3739 8.7043 2.3739
2958 1 0.7913 7.1217 3.9565
2959 1 2.3739 8.7043 5.5391
2960 1 0.7913 7.1217 7.1217
2961 1 2.3739 8.7043 8.7043
2962 1 0.7913 7.1217 10.2869
2963 1 2.3739 8.7043 11.8695
2964 1 0.7913 7.1217 13.4521
2965 1 2.3739 8.7043 15.0347
2966 1 0.7913 7.1217 16.6173
2967 1 2.3739 8.7043 18.1999
2968 1 0.7913 7.1217 19.7825
2969 1 2.3739 8.7043 21.3651
2970 1 0.7913 7.1217 22.9477
2971 1 2.3739 8.7043 24.5303
2972 1 0.7913 7.1217 26.1129
2973 1 2.3739 8.7043 27.6955
2974 1 0.7913 7.1217 29.2781
2975 1 2.3739 8.7043 30.8607
2976 1 0.7913 7.1217 32.4433
2977 1 2.3739 8.7043 34.0259
2978 1 0.7913 7.1217 35.6085
2979 1 2.3739 8.7043 37.1911
2980 1 0.7913 7.1217 38.7737
2981 1 2.3739 8.7043 40.3563
2982 1 0.7913 7.1217 41.9389
2983 1 2.3739 8.7043 43.5215
2984 1 0.7913 7.1217 45.1041
2985 1 2.3739 8.7043 46.6867
2986 1 0.7913 7.1217 48.2693
2987 1 2.3739 8.7043 49.8519
2988 1 0.7913 10.2869 0.7913
2989 1 2.3739 11.8695 2.3739
2990 1 0.7913 10.2869 3.9565
2991 1 2.3739 11.8695 5.5391
2992 1 0.7913 10.2869 7.1217
2993 1 2.3739 11.8695 8.7043
2994 1 0.7913 10.2869 10.2869
2995 1 2.3739 11.8695 11.8695
2996 1 0.7913 10.2869 13.4521
2997 1 2.3739 11.8695 15.0347
2998 1 0.7913 10.2869 16.6173
2999 1 2.3739 11.8695 18.1999
3000 1 0.7913 10.2869 19.7825
3001 1 2.3739 11.8695 21.3651
3002 1 0.7913 10.2869 22.9477
3003 1 2.3739 11.8695 24.5303
3004 1 0.7913 10.2869 26.1129
3005 1 2.3739 11.8695 27.6955
3006 1 0.7913 10.2869 29.2781
3007 1 2.3739 11.8695 30.8607
3008 1 0.7913 10.2869 32.4433
3009 1 2.3739 11.8695 34.0259
3010 1 0.7913 10.2869 35.6085
3011 1 2.3739 11.8695 37.1911
3012 1 0.7913 10.2869 38.7737
3013 1 2.3739 11.8695 40.3563
3014 1 0.7913 10.2869 41.9389
3015 1 2.3739 11.8695 43.5215
3016 1 0.7913 10.2869 45.1041
3017 1 2.3739 11.8695 46.6867
3018 1 0.7913 10.2869 48.2693
3019 1 2.3739 11.8695 49.8519
3020 1 0.7913 13.4521 0.7913
3021 1 2.3739 15.0347 2.3739
3022 1 0.7913 13.4521 3.9565
3023 1 2.3739 15.0347 5.5391
3024 1 0.7913 13.4521 7.1217
3025 1 2.3739 15.0347 8.7043
3026 1 0.7913 13.4521 10.2869
3027 1 2.3739 15.0347 11.8695
3028 1 0.7913 13.4521 13.4521
3029 1 2.3739 15.0347 15.0347
3030 1 0.7913 13.4521 16.6173
3031 1 2.3739 15.0347 18.1999
3032 1 0.7913 13.4521 19.7825
3033 1 2.3739 15.0347 21.3651
3034 1 0.7913 13.4521 22.9477
3035 1 2.3739 15.0347 24.5303
3036 1 0.7913 13.4521 26.1129
3037 1 2.3739 15.0347 27.6955
3038 1 0.7913 13.4521 29.2781
3039 1 2.3739 15.0347 30.8607
3040 1 0.7913 13.4521 32.4433
3041 1 2.3739 15.0347 34.0259
3042 1 0.7913 13.4521 35.6085
3043 1 2.3739 15.0347 37.1911
3044 1 0.7913 13.4521 38.7737
3045 1 2.3739 15.0347 40.3563
3046 1 0.7913 13.4521 41.9389
3047 1 2.3739 15.0347 43.5215
3048 1 0.7913 13.4521 45.1041
3049 1 2.3739 15.0347 46.6867
3050 1 0.7913 13.4521 48.2693
3051 1 2.3739 15.0347 49.8519
3052 1 0.7913 16.6173 0.7913
3053 1 2.3739 18.1999 2.3739
3054 1 0.7913 16.6173 3.9565
3055 1 2.3739 18.1999 5.5391
3056 1 0.7913 16.6173 7.1217
3057 1 2.3739 18.1999 8.7043
3058 1 0.7913 16.6173 10.2869
3059 1 2.3739 18.1999 11.8695
3060 1 0.7913 16.6173 13.4521
3061 1 2.3739 18.1999 15.0347
3062 1 0.7913 16.6173 16.6173
3063 1 2.3739 18.1999 18.1999
3064 1 0.7913 16.6173 19.7825
3065 1 2.3739 18.1999 21.3651
3066 1 0.7913 16.6173 22.9477
3067 1 2.3739 18.1999 24.5303
3068 1 0.7913 16.6173 26.1129
3069 1 2.3739 18.1999 27.6955
3070 1 0.7913 16.6173 29.2781
3071 1 2.3739 18.1999 30.8607
3072 1 0.7913 16.6173 32.4433
3073 1 2.3739 18.1999 34.0259
3074 1 0.7913 16.6173 35.6085
3075 1 2.3739 18.1999 37.1911
3076 1 0.7913 16.6173 38.7737
3077 1 2.3739 18.1999 40.3563
3078 1 0.7913 16.6173 41.9389
3079 1 2.3739 18.1999 43.5215
3080 1 0.7913 16.6173 45.1041
3081 1 2.3739 18.1999 46.6867
3082 1 0.7913 16.6173 48.2693
3083 1 2.3739 18.1999 49.8519
3084 1 0.7913 19.7825 0.7913
3085 1 2.3739 21.3651 2.3739
3086 1 0.7913 19.7825 3.9565
3087 1 2.3739 21.3651 5.5391
3088 1 0.7913 19.7825 7.1217
3089 1 2.3739 21.3651 8.7043
3090 1 0.7913 19.7825 10.2869
3091 1 2.3739 21.3651 11.8695
3092 1 0.7913 19.7825 13.4521
3093 1 2.3739 21.3651 15.0347
3094 1 0.7913 19.7825 16.6173
3095 1 2.3739 21.3651 18.1999
3096 1 0.7913 19.7825 19.7825
3097 1 2.3739 21.3651 21.3651
3098 1 0.7913 19.7825 22.9477
3099 1 2.3739 21.3651 24.5303
3100 1 0.7913 19.7825 26.1129
3101 1 2.3739 21.3651 27.6955
3102 1 0.7913 19.7825 29.2781
3103 1 2.3739 21.3651 30.8607
3104 1 0.7913 19.7825 32.4433
3105 1 2.3739 21.3651 34.0259
3106 1 0.7913 19.7825 35.6085
3107 1 2.3739 21.3651 37.1911
3108 1 0.7913 19.7825 38.7737
3109 1 2.3739 21.3651 40.3563
3110 1 0.7913 19.7825 41.9389
3111 1 2.3739 21.3651 43.5215
3112 1 0.7913 19.7825 45.1041
3113 1 2.3739 21.3651 46.6867
3114 1 0.7913 19.7825 48.2693
3115 1 2.3739 21.3651 49.8519
3116 1 0.7913 22.9477 0.7913
3117 1 2.3739 24.5303 2.3739
3118 1 0.7913 22.9477 3.9565
3119 1 2.3739 24.5303 5.5391
3120 1 0.7913 22.9477 7.1217
3121 1 2.3739 24.5303 8.7043
3122 1 0.7913 22.9477 10.2869
3123 1 2.3739 24.5303 11.8695
3124 1 0.7913 22.9477 13.4521
3125 1 2.3739 24.5303 15.0347
3126 1 0.7913 22.9477 16.6173
3127 1 2.3739 24.5303 18.1999
3128 1 0.7913 22.9477 19.7825
3129 1 2.3739 24.5303 21.3651
3130 1 0.7913 22.9477 22.9477
3131 1 2.3739 24.5303 24.5303
3132 1 0.7913 22.9477 26.1129
3133 1 2.3739 24.5303 27.6955
3134 1 0.7913 22.9477 29.2781
3135 1 2.3739 24.5303 30.8607
3136 1 0.7913 22.9477 32.4433
3137 1 2.3739 24.5303 34.0259
3138 1 0.7913 22.9477 35.6085
3139 1 2.3739 24.5303 37.1911
3140 1 0.7913 22.9477 38.7737
3141 1 2.3739 24.5303 40.3563
3142 1 0.7913 22.9477 41.9389
3143 1 2.3739 24.5303 43.5215
3144 1 0.7913 22.9477 45.1041
3145 1 2.3739 24.5303 46.6867
3146 1 0.7913 22.9477 48.2693
3147 1 2.3739 24.5303 49.8519
3148 1 0.7913 26.1129 0.7913
3149 1 2.3739 27.6955 2.3739
3150 1 0.7913 26.1129 3.9565
3151 1 2.3739 27.6955 5.5391
3152 1 0.7913 26.1129 7.1217
3153 1 2.3739 27.6955 8.7043
3154 1 0.7913 26.1129 10.2869
3155 1 2.3739 27.6955 11.8695
3156 1 0.7913 26.1129 13.4521
3157 1 2.3739 27.6955 15.0347
3158 1 0.7913 26.1129 16.6173
3159 1 2.3739 27.6955 18.1999
3160 1 0.7913 26.1129 19.7825
3161 1 2.3739 27.6955 21.3651
3162 1 0.7913 26.1129 22.9477
3163 1 2.3739 27.6955 24.5303
3164 1 0.7913 26.1129 26.1129
3165 1 2.3739 27.6955 27.6955
3166 1 0.7913 26.1129 29.2781
3167 1 2.3739 27.6955 30.8607
3168 1 0.7913 26.1129 32.4433
3169 1 2.3739 27.6955 34.0259
3170 1 0.7913 26.1129 35.6085
3171 1 2.3739 27.6955 37.1911
3172 1 0.7913 26.1129 38.7737
3173 1 2.3739 27.6955 40.3563
3174 1 0.7913 26.1129 41.9389
3175 1 2.3739 27.6955 43.5215
3176 1 0.7913 26.1129 45.1041
3177 1 2.3739 27.6955 46.6867
3178 1 0.7913 26.1129 48.2693
3179 1 2.3739 27.6955 49.8519
3180 1 0.7913 29.2781 0.7913
3181 1 2.3739 30.8607 2.3739
3182 1 0.7913 29.2781 3.9565
3183 1 2.3739 30.8607 5.5391
3184 1 0.7913 29.2781 7.1217
3185 1 2.3739 30.8607 8.7043
3186 1 0.7913 29.2781 10.2869
3187 1 2.3739 30.8607 11.8695
3188 1 0.7913 29.2781 13.4521
3189 1 2.3739 30.8607 15.0347
3190 1 0.7913 29.2781 16.6173
3191 1 2.3739 30.8607 18.1999
3192 1 0.7913 29.2781 19.7825
3193 1 2.3739 30.8607 21.3651
3194 1 0.7913 29.2781 22.9477
3195 1 2.3739 30.8607 24.5303
3196 1 0.7913 29.2781 26.1129
3197 1 2.3739 30.8607 27.6955
3198 1 0.7913 29.2781 29.2781
3199 1 2.3739 30.8607 30.8607
3200 1 0.7913 29.2781 32.4433
3201 1 2.3739 30.8607 34.0259
3202 1 0.7913 29.2781 35.6085
3203 1 2.3739 30.8607 37.1911
3204 1 0.7913 29.2781 38.7737
3205 1 2.3739 30.8607 40.3563
3206 1 0.7913 29.2781 41.9389
3207 1 2.3739 30.8607 43.5215
3208 1 0.7913 29.2781 45.1041
3209 1 2.3739 30.8607 46.6867
3210 1 0.7913 29.2781 48.2693
3211 1 2.3739 30.8607 49.8519
3212 1 0.7913 32.4433 0.7913
3213 1 2.3739 34.0259 2.3739
3214 1 0.7913 32.4433 3.9565
3215 1 2.3739 34.0259 5.5391
3216 1 0.7913 32.4433 7.1217
3217 1 2.3739 34.0259 8.7043
3218 1 0.7913 32.4433 10.2869
3219 1 2.3739 34.0259 11.8695
3220 1 0.7913 32.4433 13.4521
3221 1 2.3739 34.0259 15.0347
3222 1 0.7913 32.4433 16.6173
3223 1 2.3739 34.0259 18.1999
3224 1 0.7913 32.4433 19.7825
3225 1 2.3739 34.0259 21.3651
3226 1 0.7913 32.4433 22.9477
3227 1 2.3739 34.0259 24.5303
3228 1 0.7913 32.4433 26.1129
3229 1 2.3739 34.0259 27.6955
3230 1 0.7913 32.4433 29.2781
3231 1 2.3739 34.0259 30.8607
3232 1 0.7913 32.4433 32.4433
3233 1 2.3739 34.0259 34.0259
3234 1 0.7913 32.4433 35.6085
3235 1 2.3739 34.0259 37.1911
3236 1 0.7913 32.4433 38.7737
3237 1 2.3739 34.0259 40.3563
3238 1 0.7913 32.4433 41.9389
3239 1 2.3739 34.0259 43.5215
3240 1 0.7913 32.4433 45.1041
3241 1 2.3739 34.0259 46.6867
3242 1 0.7913 32.4433 48.2693
3243 1 2.3739 34.0259 49.8519
3244 1 0.7913 35.6085 0.7913
3245 1 2.3739 37.1911 2.3739
3246 1 0.7913 35.6085 3.9565
3247 1 2.3739 37.1911 5.5391
3248 1 0.7913 35.6085 7.1217
3249 1 2.3739 37.1911 8.7043
3250 1 0.7913 35.6085 10.2869
3251 1 2.3739 37.1911 11.8695
3252 1 0.7913 35.6085 13.4521
3253 1 2.3739 37.1911 15.0347
3254 1 0.7913 35.6085 16.6173
3255 1 2.3739 37.1911 18.1999
3256 1 0.7913 35.6085 19.7825
3257 1 2.3739 37.1911 21.3651
3258 1 0.7913 35.6085 22.9477
3259 1 2.3739 37.1911 24.5303
3260 1 0.7913 35.6085 26.1129
3261 1 2.3739 37.1911 27.6955
3262 1 0.7913 35.6085 29.2781
3263 1 2.3739 37.1911 30.8607
3264 1 0.7913 35.6085 32.4433
3265 1 2.3739 37.1911 34.0259
3266 1 0.7913 35.6085 35.6085
3267 1 2.3739 37.1911 37.1911
3268 1 0.7913 35.6085 38.7737
3269 1 2.3739 37.1911 40.3563
3270 1 0.7913 35.6085 41.9389
3271 1 2.3739 37.1911 43.5215
3272 1 0.7913 35.6085 45.1041
3273 1 2.3739 37.1911 46.6867
3274 1 0.7913 35.6085 48.2693
3275 1 2.3739 37.1911 49.8519
3276 1 0.7913 38.7737 0.7913
3277 1 2.3739 40.3563 2.3739
3278 1 0.7913 38.7737 3.9565
3279 1 2.3739 40.3563 5.5391
3280 1 0.7913 38.7737 7.1217
3281 1 2.3739 40.3563 8.7043
3282 1 0.7913 38.7737 10.2869
3283 1 2.3739 40.3563 11.8695
3284 1 0.7913 38.7737 13.4521
3285 1 2.3739 40.3563 15.0347
3286 1 0.7913 38.7737 16.6173
3287 1 2.3739 40.3563 18.1999
3288 1 0.7913 38.7737 19.7825
3289 1 2.3739 40.3563 21.3651
3290 1 0.7913 38.7737 22.9477
3291 1 2.3739 40.3563 24.5303
3292 1 0.7913 38.7737 26.1129
3293 1 2.3739 40.3563 27.6955
3294 1 0.7913 38.7737 29.2781
3295 1 2.3739 40.3563 30.8607
3296 1 0.7913 38.7737 32.4433
3297 1 2.3739 40.3563 34.0259
3298 1 0.7913 38.7737 35.6085
3299 1 2.3739 40.3563 37.1911
3300 1 0.7913 38.7737 38.7737
3301 1 2.3739 40.3563 40.3563
3302 1 0.7913 38.7737 41.9389
3303 1 2.3739 40.3563 43.5215
3304 1 0.7913 38.7737 45.1041
3305 1 2.3739 40.3563 46.6867
3306 1 0.7913 38.7737 48.2693
3307 1 2.3739 40.3563 49.8519
3308 1 0.7913 41.9389 0.7913
3309 1 2.3739 43.5215 2.3739
3310 1 0.7913 41.9389 3.9565
3311 1 2.3739 43.5215 5.5391
3312 1 0.7913 41.9389 7.1217
3313 1 2.3739 43.5215 8.7043
3314 1 0.7913 41.9389 10.2869
3315 1 2.3739 43.5215 11.8695
3316 1 0.7913 41.9389 13.4521
3317 1 2.3739 43.5215 15.0347
3318 1 0.7913 41.9389 16.6173
3319 1 2.3739 43.5215 18.1999
3320 1 0.7913 41.9389 19.7825
3321 1 2.3739 43.5215 21.3651
3322 1 0.7913 41.9389 22.9477
3323 1 2.3739 43.5215 24.5303
3324 1 0.7913 41.9389 26.1129
3325 1 2.3739 43.5215 27.6955
3326 1 0.7913 41.9389 29.2781
3327 1 2.3739 43.5215 30.8607
3328 1 0.7913 41.9389 32.4433
3329 1 2.3739 43.5215 34.0259
3330 1 0.7913 41.9389 35.6085
3331 1 2.3739 43.5215 37.1911
3332 1 0.7913 41.9389 38.7737
3333 1 2.3739 43.5215 40.3563
3334 1 0.7913 41.9389 41.9389
3335 1 2.3739 43.5215 43.5215
3336 1 0.7913 41.9389 45.1041
3337 1 2.3739 43.5215 46.6867
3338 1 0.7913 41.9389 48.2693
3339 1 2.3739 43.5215 49.8519
3340 1 0.7913 45.1041 0.7913
3341 1 2.3739 46.6867 2.3739
3342 1 0.7913 45.1041 3.9565
3343 1 2.3739 46.6867 5.5391
3344 1 0.7913 45.1041 7.1217
3345 1 2.3739 46.6867 8.7043
3346 1 0.7913 45.1041 10.2869
3347 1 2.3739 46.6867 11.8695
3348 1 0.7913 45.1041 13.4521
3349 1 2.3739 46.6867 15.0347
3350 1 0.7913 45.1041 16.6173
3351 1 2.3739 46.6867 18.1999
3352 1 0.7913 45.1041 19.7825
3353 1 2.3739 46.6867 21.3651
3354 1 0.7913 45.1041 22.9477
3355 1 2.3739 46.6867 24.5303
3356 1 0.7913 45.1041 26.1129
3357 1 2.3739 46.6867 27.6955
3358 1 0.7913 45.1041 29.2781
3359 1 2.3739 46.6867 30.8607
3360 1 0.7913 45.1041 32.4433
3361 1 2.3739 46.6867 34.0259
3362 1 0.7913 45.1041 35.6085
3363 1 2.3739 46.6867 37.1911
3364 1 0.7913 45.1041 38.7737
3365 1 2.3739 46.6867 40.3563
3366 1 0.7913 45.1041 41.9389
3367 1 2.3739 46.6867 43.5215
3368 1 0.7913 45.1041 45.1041
3369 1 2.3739 46.6867 46.6867
3370 1 0.7913 45.1041 48.2693
3371 1 2.3739 46.6867 49.8519
3372 1 0.7913 48.2693 0.7913
3373 1 2.3739 49.8519 2.3739
3374 1 0.7913 48.2693 3.9565
3375 1 2.3739 49.8519 5.5391
3376 1 0.7913 48.2693 7.1217
3377 1 2.3739 49.8519 8.7043
3378 1 0.7913 48.2693 10.2869
3379 1 2.3739 49.8519 11.8695
3380 1 0.7913 48.2693 13.4521
3381 1 2.3739 49.8519 15.0347
3382 1 0.7913 48.2693 16.6173
3383 1 2.3739 49.8519 18.1999
3384 1 0.7913 48.2693 19.7825
3385 1 2.3739 49.8519 21.3651
3386 1 0.7913 48.2693 22.9477
3387 1 2.3739 49.8519 24.5303
3388 1 0.7913 48.2693 26.1129
3389 1 2.3739 49.8519 27.6955
3390 1 0.7913 48.2693 29.2781
3391 1 2.3739 49.8519 30.8607
3392 1 0.7913 48.2693 32.4433
3393 1 2.3739 49.8519 34.0259
3394 1 0.7913 48.2693 35.6085
3395 1 2.3739 49.8519 37.1911
3396 1 0.7913 48.2693 38.7737
3397 1 2.3739 49.8519 40.3563
3398 1 0.7913 48.2693 41.9389
3399 1 2.3739 49.8519 43.5215
3400 1 0.7913 48.2693 45.1041
3401 1 2.3739 49.8519 46.6867
3402 1 0.7913 48.2693 48.2693
3403 1 2.3739 49.8519 49.8519
3404 1 3.9565 0.7913 0.7913
3405 1 5.5391 2.3739 2.3739
3406 1 3.9565 0.7913 3.9565
3407 1 5.5391 2.3739 5.5391
3408 1 3.9565 0.7913 7.1217
3409 1 5.5391 2.3739 8.7043
3410 1 3.9565 0.7913 10.2869
3411 1 5.5391 2.3739 11.8695
3412 1 3.9565 0.7913 13.4521
3413 1 5.5391 2.3739 15.0347
3414 1 3.9565 0.7913 16.6173
3415 1 5.5391 2.3739 18.1999
3416 1 3.9565 0.7913 19.7825
3417 1 5.5391 2.3739 21.3651
3418 1 3.9565 0.7913 22.9477
3419 1 5.5391 2.3739 24.5303
3420 1 3.9565 0.7913 26.1129
3421 1 5.5391 2.3739 27.6955
3422 1 3.9565 0.7913 29.2781
3423 1 5.5391 2.3739 30.8607
3424 1 3.9565 0.7913 32.4433
3425 1 5.5391 2.3739 34.0259
3426 1 3.9565 0.7913 35.6085
3427 1 5.5391 2.3739 37.1911
3428 1 3.9565 0.7913 38.7737
3429 1 5.5391 2.3739 40.3563
3430 1 3.9565 0.7913 41.9389
3431 1 5.5391 2.3739 43.5215
3432 1 3.9565 0.7913 45.1041
3433 1 5.5391 2.3739 46.6867
3434 1 3.9565 0.7913 48.2693
3435 1 5.5391 2.3739 49.8519
3436 1 3.9565 3.9565 0.7913
3437 1 5.5391 5.5391 2.3739
3438 1 3.9565 3.9565 3.9565
3439 1 5.5391 5.5391 5.5391
3440 1 3.9565 3.9565 7.1217
3441 1 5.5391 5.5391 8.7043
3442 1 3.9565 3.9565 10.2869
3443 1 5.5391 5.5391 11.8695
3444 1 3.9565 3.9565 13.4521
3445 1 5.5391 5.5391 15.0347
3446 1 3.9565 3.9565 16.6173
3447 1 5.5391 5.5391 18.1999
3448 1 3.9565 3.9565 19.7825
3449 1 5.5391 5.5391 21.3651
3450 1 3.9565 3.9565 22.9477
3451 1 5.5391 5.5391 24.5303
3452 1 3.9565 3.9565 26.1129
3453 1 5.5391 5.5391 27.6955
3454 1 3.9565 3.9565 29.2781
3455 1 5.5391 5.5391 30.8607
3456 1 3.9565 3.9565 32.4433
3457 1 5.5391 5.5391 34.0259
3458 1 3.9565 3.9565 35.6085
3459 1 5.5391 5.5391 37.1911
3460 1 3.9565 3.9565 38.7737
3461 1 5.5391 5.5391 40.3563
3462 1 3.9565 3.9565 41.9389
3463 1 5.5391 5.5391 43.5215
3464 1 3.9565 3.9565 45.1041
3465 1 5.5391 5.5391 46.6867
3466 1 3.9565 3.9565 48.2693
3467 1 5.5391 5.5391 49.8519
3468 1 3.9565 7.1217 0.7913
3469 1 5.5391 8.7043 2.3739
3470 1 3.9565 7.1217 3.9565
3471 1 5.5391 8.7043 5.5391
3472 1 3.9565 7.1217 7.1217
3473 1 5.5391 8.7043 8.7043
3474 1 3.9565 7.1217 10.2869
3475 1 5.5391 8.7043 11.8695
3476 1 3.9565 7.1217 13.4521
3477 1 5.5391 8.7043 15.0347
3478 1 3.9565 7.1217 16.6173
3479 1 5.5391 8.7043 18.1999
3480 1 3.9565 7.1217 19.7825
3481 1 5.5391 8.7043 21.3651
3482 1 3.9565 7.1217 22.9477
3483 1 5.5391 8.7043 24.5303
3484 1 3.9565 7.1217 26.1129
3485 1 5.5391 8.7043 27.6955
3486 1 3.9565 7.1217 29.2781
3487 1 5.5391 8.7043 30.8607
3488 1 3.9565 7.1217 32.4433
3489 1 5.5391 8.7043 34.0259
3490 1 3.9565 7.1217 35.6085
3491 1 5.5391 8.7043 37.1911
3492 1 3.9565 7.1217 38.7737
3493 1 5.5391 8.7043 40.3563
3494 1 3.9565 7.1217 41.9389
3495 1 5.5391 8.7043 43.5215
3496 1 3.9565 7.1217 45.1041
3497 1 5.5391 8.7043 46.6867
3498 1 3.9565 7.1217 48.2693
3499 1 5.5391 8.7043 49.8519
3500 1 3.9565 10.2869 0.7913
3501 1 5.5391 11.8695 2.3739
3502 1 3.9565 10.2869 3.9565
3503 1 5.5391 11.8695 5.5391
3504 1 3.9565 10.2869 7.1217
3505 1 5.5391 11.8695 8.7043
3506 1 3.9565 10.2869 10.2869
3507 1 5.5391 11.8695 11.8695
3508 1 3.9565 10.2869 13.4521
3509 1 5.5391 11.8695 15.0347
3510 1 3.9565 10.2869 16.6173
3511 1 5.5391 11.8695 18.1999
3512 1 3.9565 10.2869 19.7825
3513 1 5.5391 11.8695 21.3651
3514 1 3.9565 10.2869 22.9477
3515 1 5.5391 11.8695 24.5303
3516 1 3.9565 10.2869 26.1129
3517 1 5.5391 11.8695 27.6955
3518 1 3.9565 10.2869 29.2781
3519 1 5.5391 11.8695 30.8607
3520 1 3.9565 10.2869 32.4433
3521 1 5.5391 11.8695 34.0259
3522 1 3.9565 10.2869 35.6085
3523 1 5.5391 11.8695 37.1911
3524 1 3.9565 10.2869 38.7737
3525 1 5.5391 11.8695 40.3563
3526 1 3.9565 10.2869 41.9389
3527 1 5.5391 11.8695 43.5215
3528 1 3.9565 10.2869 45.1041
3529 1 5.5391 11.8695 46.6867
3530 1 3.9565 10.2869 48.2693
3531 1 5.5391 11.8695 49.8519
3532 1 3.9565 13.4521 0.7913
3533 1 5.5391 15.0347 2.3739
3534 1 3.9565 13.4521 3.9565
3535 1 5.5391 15.0347 5.5391
3536 1 3.9565 13.4521 7.1217
3537 1 5.5391 15.0347 8.7043
3538 1 3.9565 13.4521 10.2869
3539 1 5.5391 15.0347 11.8695
3540 1 3.9565 13.4521 13.4521
3541 1 5.5391 15.0347 15.0347
3542 1 3.9565 13.4521 16.6173
3543 1 5.5391 15.0347 18.1999
3544 1 3.9565 13.4521 19.7825
3545 1 5.5391 15.0347 21.3651
3546 1 3.9565 13.4521 22.9477
3547 1 5.5391 15.0347 24.5303
3548 1 3.9565 13.4521 26.1129
3549 1 5.5391 15.0347 27.6955
3550 1 3.9565 13.4521 29.2781
3551 1 5.5391 15.0347 30.8607
3552 1 3.9565 13.4521 32.4433
3553 1 5.5391 15.0347 34.0259
3554 1 3.9565 13.4521 35.6085
3555 1 5.5391 15.0347 37.1911
3556 1 3.9565 13.4521 38.7737
3557 1 5.5391 15.0347 40.3563
3558 1 3.9565 13.4521 41.9389
3559 1 5.5391 15.0347 43.5215
3560 1 3.9565 13.4521 45.1041
3561 1 5.5391 15.0347 46.6867
3562 1 3.9565 13.4521 48.2693
3563 1 5.5391 15.0347 49.8519
3564 1 3.9565 16.6173 0.7913
3565 1 5.5391 18.1999 2.3739
3566 1 3.9565 16.6173 3.9565
3567 1 5.5391 18.1999 5.5391
3568 1 3.9565 16.6173 7.1217
3569 1 5.5391 18.1999 8.7043
3570 1 3.9565 16.6173 10.2869
3571 1 5.5391 18.1999 11.8695
3572 1 3.9565 16.6173 13.4521
3573 1 5.5391 18.1999 15.0347
3574 1 3.9565 16.6173 16.6173
3575 1 5.5391 18.1999 18.1999
3576 1 3.9565 16.6173 19.7825
3577 1 5.5391 18.1999 21.3651
3578 1 3.9565 16.6173 22.9477
3579 1 5.5391 18.1999 24.5303
3580 1 3.9565 16.6173 26.1129
3581 1 5.5391 18.1999 27.6955
3582 1 3.9565 16.6173 29.2781
3583 1 5.5391 18.1999 30.8607
3584 1 3.9565 16.6173 32.4433
3585 1 5.5391 18.1999 34.0259
3586 1 3.9565 16.6173 35.6085
3587 1 5.5391 18.1999 37.1911
3588 1 3.9565 16.6173 38.7737
3589 1 5.5391 18.1999 40.3563
3590 1 3.9565 16.6173 41.9389
3591 1 5.5391 18.1999 43.5215
3592 1 3.9565 16.6173 45.1041
3593 1 5.5391 18.1999 46.6867
3594 1 3.9565 16.6173 48.2693
3595 1 5.5391 18.1999 49.8519
3596 1 3.9565 19.7825 0.7913
3597 1 5.5391 21.3651 2.3739
3598 1 3.9565 19.7825 3.9565
3599 1 5.5391 21.3651 5.5391
3600 1 3.9565 19.7825 7.1217
3601 1 5.5391 21.3651 8.7043
3602 1 3.9565 19.7825 10.2869
3603 1 5.5391 21.3651 11.8695
3604 1 3.9565 19.7825 13.4521
3605 1 5.5391 21.3651 15.0347
3606 1 3.9565 19.7825 16.6173
3607 1 5.5391 21.3651 18.1999
3608 1 3.9565 19.7825 19.7825
3609 1 5.5391 21.3651 21.3651
3610 1 3.9565 19.7825 22.9477
3611 1 5.5391 21.3651 24.5303
3612 1 3.9565 19.7825 26.1129
3613 1 5.5391 21.3651 27.6955
3614 1 3.9565 19.7825 29.2781
3615 1 5.5391 21.3651 30.8607
3616 1 3.9565 19.7825 32.4433
3617 1 5.5391 21.3651 34.0259
3618 1 3.9565 19.7825 35.6085
3619 1 5.5391 21.3651 37.1911
3620 1 3.9565 19.7825 38.7737
3621 1 5.5391 21.3651 40.3563
3622 1 3.9565 19.7825 41.9389
3623 1 5.5391 21.3651 43.5215
3624 1 3.9565 19.7825 45.1041
3625 1 5.5391 21.3651 46.6867
3626 1 3.9565 19.7825 48.2693
3627 1 5.5391 21.3651 49.8519
3628 1 3.9565 22.9477 0.7913
3629 1 5.5391 24.5303 2.3739
3630 1 3.9565 22.9477 3.9565
3631 1 5.5391 24.5303 5.5391
3632 1 3.9565 22.9477 7.1217
3633 1 5.5391 24.5303 8.7043
3634 1 3.9565 22.9477 10.2869
3635 1 5.5391 24.5303 11.8695
3636 1 3.9565 22.9477 13.4521
3637 1 5.5391 24.5303 15.0347
3638 1 3.9565 22.9477 16.6173
3639 1 5.5391 24.5303 18.1999
3640 1 3.9565 22.9477 19.7825
3641 1 5.5391 24.5303 21.3651
3642 1 3.9565 22.9477 22.9477
3643 1 5.5391 24.5303 24.5303
3644 1 3.9565 22.9477 26.1129
3645 1 5.5391 24.5303 27.6955
3646 1 3.9565 22.9477 29.2781
3647 1 5.5391 24.5303 30.8607
3648 1 3.9565 22.9477 32.4433
3649 1 5.5391 24.5303 34.0259
3650 1 3.9565 22.9477 35.6085
3651 1 5.5391 24.5303 37.1911
3652 1 3.9565 22.9477 38.7737
3653 1 5.5391 24.5303 40.3563
3654 1 3.9565 22.9477 41.9389
3655 1 5.5391 24.5303 43.5215
3656 1 3.9565 22.9477 45.1041
3657 1 5.5391 24.5303 46.6867
3658 1 3.9565 22.9477 48.2693
3659 1 5.5391 24.5303 49.8519
3660 1 3.9565 26.1129 0.7913
3661 1 5.5391 27.6955 2.3739
3662 1 3.9565 26.1129 3.9565
3663 1 5.5391 27.6955 5.5391
3664 1 3.9565 26.1129 7.1217
3665 1 5.5391 27.6955 8.7043
3666 1 3.9565 26.1129 10.2869
3667 1 5.5391 27.6955 11.8695
3668 1 3.9565 26.1129 13.4521
3669 1 5.5391 27.6955 15.0347
3670 1 3.9565 26.1129 16.6173
3671 1 5.5391 27.6955 18.1999
3672 1 3.9565 26.1129 19.7825
3673 1 5.5391 27.6955 21.3651
3674 1 3.9565 26.1129 22.9477
3675 1 5.5391 27.6955 24.5303
3676 1 3.9565 26.1129 26.1129
3677 1 5.5391 27.6955 27.6955
3678 1 3.9565 26.1129 29.2781
3679 1 5.5391 27.6955 30.8607
3680 1 3.9565 26.1129 32.4433
3681 1 5.5391 27.6955 34.0259
3682 1 3.9565 26.1129 35.6085
3683 1 5.5391 27.6955 37.1911
3684 1 3.9565 26.1129 38.7737
3685 1 5.5391 27.6955 40.3563
3686 1 3.9565 26.1129 41.9389
3687 1 5.5391 27.6955 43.5215
3688 1 3.9565 26.1129 45.1041
3689 1 5.5391 27.6955 46.6867
3690 1 3.9565 26.1129 48.2693
3691 1 5.5391 27.6955 49.8519
3692 1 3.9565 29.2781 0.7913
3693 1 5.5391 30.8607 2.3739
3694 1 3.9565 29.2781 3.9565
3695 1 5.5391 30.8607 5.5391
3696 1 3.9565 29.2781 7.1217
3697 1 5.5391 30.8607 8.7043
3698 1 3.9565 29.2781 10.2869
3699 1 5.5391 30.8607 11.8695
3700 1 3.9565 29.2781 13.4521
3701 1 5.5391 30.8607 15.0347
3702 1 3.9565 29.2781 16.6173
3703 1 5.5391 30.8607 18.1999
3704 1 3.9565 29.2781 19.7825
3705 1 5.5391 30.8607 21.3651
3706 1 3.9565 29.2781 22.9477
3707 1 5.5391 30.8607 24.5303
3708 1 3.9565 29.2781 26.1129
3709 1 5.5391 30.8607 27.6955
3710 1 3.9565 29.2781 29.2781
3711 1 5.5391 30.8607 30.8607
3712 1 3.9565 29.2781 32.4433
3713 1 5.5391 30.8607 34.0259
3714 1 3.9565 29.2781 35.6085
3715 1 5.5391 30.8607 37.1911
3716 1 3.9565 29.2781 38.7737
3717 1 5.5391 30.8607 40.3563
3718 1 3.9565 29.2781 41.9389
3719 1 5.5391 30.8607 43.5215
3720 1 3.9565 29.2781 45.1041
3721 1 5.5391 30.8607 46.6867
3722 1 3.9565 29.2781 48.2693
3723 1 5.5391 30.8607 49.8519
3724 1 3.9565 32.4433 0.7913
3725 1 5.5391 34.0259 2.3739
3726 1 3.9565 32.4433 3.9565
3727 1 5.5391 34.0259 5.5391
3728 1 3.9565 32.4433 7.1217
3729 1 5.5391 34.0259 8.7043
3730 1 3.9565 32.4433 10.2869
3731 1 5.5391 34.0259 11.8695
3732 1 3.9565 32.4433 13.4521
3733 1 5.5391 34.0259 15.0347
3734 1 3.9565 32.4433 16.6173
3735 1 5.5391 34.0259 18.1999
3736 1 3.9565 32.4433 19.7825
3737 1 5.5391 34.0259 21.3651
3738 1 3.9565 32.4433 22.9477
3739 1 5.5391 34.0259 24.5303
3740 1 3.9565 32.4433 26.1129
3741 1 5.5391 34.0259 27.6955
3742 1 3.9565 32.4433 29.2781
3743 1 5.5391 34.0259 30.8607
3744 1 3.9565 32.4433 32.4433
3745 1 5.5391 34.0259 34.0259
3746 1 3.9565 32.4433 35.6085
3747 1 5.5391 34.0259 37.1911
3748 1 3.9565 32.4433 38.7737
3749 1 5.5391 34.0259 40.3563
3750 1 3.9565 32.4433 41.9389
3751 1 5.5391 34.0259 43.5215
3752 1 3.9565 32.4433 45.1041
3753 1 5.5391 34.0259 46.6867
3754 1 3.9565 32.4433 48.2693
3755 1 5.5391 34.0259 49.8519
3756 1 3.9565 35.6085 0.7913
3757 1 5.5391 37.1911 2.3739
3758 1 3.9565 35.6085 3.9565
3759 1 5.5391 37.1911 5.5391
3760 1 3.9565 35.6085 7.1217
3761 1 5.5391 37.1911 8.7043
3762 1 3.9565 35.6085 10.2869
3763 1 5.5391 37.1911 11.8695
3764 1 3.9565 35.6085 13.4521
3765 1 5.5391 37.1911 15.0347
3766 1 3.9565 35.6085 16.6173
3767 1 5.5391 37.1911 18.1999
3768 1 3.9565 35.6085 19.7825
3769 1 5.5391 37.1911 21.3651
3770 1 3.9565 35.6085 22.9477
3771 1 5.5391 37.1911 24.5303
3772 1 3.9565 35.6085 26.1129
3773 1 5.5391 37.1911 27.6955
3774 1 3.9565 35.6085 29.2781
3775 1 5.5391 37.1911 30.8607
3776 1 3.9565 35.6085 32.4433
3777 1 5.5391 37.1911 34.0259
3778 1 3.9565 35.6085 35.6085
3779 1 5.5391 37.1911 37.1911
3780 1 3.9565 35.6085 38.7737
3781 1 5.5391 37.1911 40.3563
3782 1 3.9565 35.6085 41.9389
3783 1 5.5391 37.1911 43.5215
3784 1 3.9565 35.6085 45.1041
3785 1 5.5391 37.1911 46.6867
3786 1 3.9565 35.6085 48.2693
3787 1 5.5391 37.1911 49.8519
3788 1 3.9565 38.7737 0.7913
3789 1 5.5391 40.3563 2.3739
3790 1 3.9565 38.7737 3.9565
3791 1 5.5391 40.3563 5.5391
3792 1 3.9565 38.7737 7.1217
3793 1 5.5391 40.3563 8.7043
3794 1 3.9565 38.7737 10.2869
3795 1 5.5391 40.3563 11.8695
3796 1 3.9565 38.7737 13.4521
3797 1 5.5391 40.3563 15.0347
3798 1 3.9565 38.7737 16.6173
3799 1 5.5391 40.3563 18.1999
3800 1 3.9565 38.7737 19.7825
3801 1 5.5391 40.3563 21.3651
3802 1 3.9565 38.7737 22.9477
3803 1 5.5391 40.3563 24.5303
3804 1 3.9565 38.7737 26.1129
3805 1 5.5391 40.3563 27.6955
3806 1 3.9565 38.7737 29.2781
3807 1 5.5391 40.3563 30.8607
3808 1 3.9565 38.7737 32.4433
3809 1 5.5391 40.3563 34.0259
3810 1 3.9565 38.7737 35.6085
3811 1 5.5391 40.3563 37.1911
3812 1 3.9565 38.7737 38.7737
3813 1 5.5391 40.3563 40.3563
3814 1 3.9565 38.7737 41.9389
3815 1 5.5391 40.3563 43.5215
3816 1 3.9565 38.7737 45.1041
3817 1 5.5391 40.3563 46.6867
3818 1 3.9565 38.7737 48.2693
3819 1 5.5391 40.3563 49.8519
3820 1 3.9565 41.9389 0.7913
3821 1 5.5391 43.5215 2.3739
3822 1 3.9565 41.9389 3.9565
3823 1 5.5391 43.5215 5.5391
3824 1 3.9565 41.9389 7.1217
3825 1 5.5391 43.5215 8.7043
3826 1 3.9565 41.9389 10.2869
3827 1 5.5391 43.5215 11.8695
3828 1 3.9565 41.9389 13.4521
3829 1 5.5391 43.5215 15.0347
3830 1 3.9565 41.9389 16.6173
3831 1 5.5391 43.5215 18.1999
3832 1 3.9565 41.9389 19.7825
3833 1 5.5391 43.5215 21.3651
3834 1 3.9565 41.9389 22.9477
3835 1 5.5391 43.5215 24.5303
3836 1 3.9565 41.9389 26.1129
3837 1 5.5391 43.5215 27.6955
3838 1 3.9565 41.9389 29.2781
3839 1 5.5391 43.5215 30.8607
3840 1 3.9565 41.9389 32.4433
3841 1 5.5391 43.5215 34.0259
3842 1 3.9565 41.9389 35.6085
3843 1 5.5391 43.5215 37.1911
3844 1 3.9565 41.9389 38.7737
3845 1 5.5391 43.5215 40.3563
3846 1 3.9565 41.9389 41.9389
3847 1 5.5391 43.5215 43.5215
3848 1 3.9565 41.9389 45.1041
3849 1 5.5391 43.5215 46.6867
3850 1 3.9565 41.9389 48.2693
3851 1 5.5391 43.5215 49.8519
3852 1 3.9565 45.1041 0.7913
3853 1 5.5391 46.6867 2.3739
3854 1 3.9565 45.1041 3.9565
3855 1 5.5391 46.6867 5.5391
3856 1 3.9565 45.1041 7.1217
3857 1 5.5391 46.6867 8.7043
3858 1 3.9565 45.1041 10.2869
3859 1 5.5391 46.6867 11.8695
3860 1 3.9565 45.1041 13.4521
3861 1 5.5391 46.6867 15.0347
3862 1 3.9565 45.1041 16.6173
3863 1 5.5391 46.6867 18.1999
3864 1 3.9565 45.1041 19.7825
3865 1 5.5391 46.6867 21.3651
3866 1 3.9565 45.1041 22.9477
3867 1 5.5391 46.6867 24.5303
3868 1 3.9565 45.1041 26.1129
3869 1 5.5391 46.6867 27.6955
3870 1 3.9565 45.1041 29.2781
3871 1 5.5391 46.6867 30.8607
3872 1 3.9565 45.1041 32.4433
3873 1 5.5391 46.6867 34.0259
3874 1 3.9565 45.1041 35.6085
3875 1 5.5391 46.6867 37.1911
3876 1 3.9565 45.1041 38.7737
3877 1 5.5391 46.6867 40.3563
3878 1 3.9565 45.1041 41.9389
3879 1 5.5391 46.6867 43.5215
3880 1 3.9565 45.1041 45.1041
3881 1 5.5391 46.6867 46.6867
3882 1 3.9565 45.1041 48.2693
3883 1 5.5391 46.6867 49.8519
3884 1 3.9565 48.2693 0.7913
3885 1 5.5391 49.8519 2.3739
3886 1 3.9565 48.2693 3.9565
3887 1 5.5391 49.8519 5.5391
3888 1 3.9565 48.2693 7.1217
3889 1 5.5391 49.8519 8.7043
3890 1 3.9565 48.2693 10.2869
3891 1 5.5391 49.8519 11.8695
3892 1 3.9565 48.2693 13.4521
3893 1 5.5391 49.8519 15.0347
3894 1 3.9565 48.2693 16.6173
3895 1 5.5391 49.8519 18.1999
3896 1 3.9565 48.2693 19.7825
3897 1 5.5391 49.8519 21.3651
3898 1 3.9565 48.2693 22.9477
3899 1 5.5391 49.8519 24.5303
3900 1 3.9565 48.2693 26.1129
3901 1 5.5391 49.8519 27.6955
3902 1 3.9565 48.2693 29.2781
3903 1 5.5391 49.8519 30.8607
3904 1 3.9565 48.2693 32.4433
3905 1 5.5391 49.8519 34.0259
3906 1 3.9565 48.2693 35.6085
3907 1 5.5391 49.8519 37.1911
3908 1 3.9565 48.2693 38.7737
3909 1 5.5391 49.8519 40.3563
3910 1 3.9565 48.2693 41.9389
3911 1 5.5391 49.8519 43.5215
3912 1 3.9565 48.2693 45.1041
3913 1 5.5391 49.8519 46.6867
3914 1 3.9565 48.2693 48.2693
3915 1 5.5391 49.8519 49.8519
3916 1 45.1041 0.7913 0.7913
3917 1 46.6867 2.3739 2.3739
3918 1 45.1041 0.7913 3.9565
3919 1 46.6867 2.3739 5.5391
3920 1 45.1041 0.7913 7.1217
3921 1 46.6867 2.3739 8.7043
3922 1 45.1041 0.7913 10.2869
3923 1 46.6867 2.3739 11.8695
3924 1 45.1041 0.7913 13.4521
3925 1 46.6867 2.3739 15.0347
3926 1 45.1041 0.7913 16.6173
3927 1 46.6867 2.3739 18.1999
3928 1 45.1041 0.7913 19.7825
3929 1 46.6867 2.3739 21.3651
3930 1 45.1041 0.7913 22.9477
3931 1 46.6867 2.3739 24.5303
3932 1 45.1041 0.7913 26.1129
3933 1 46.6867 2.3739 27.6955
3934 1 45.1041 0.7913 29.2781
3935 1 46.6867 2.3739 30.8607
3936 1 45.1041 0.7913 32.4433
3937 1 46.6867 2.3739 34.0259
3938 1 45.1041 0.7913 35.6085
3939 1 46.6867 2.3739 37.1911
3940 1 45.1041 0.7913 38.7737
3941 1 46.6867 2.3739 40.3563
3942 1 45.1041 0.7913 41.9389
3943 1 46.6867 2.3739 43.5215
3944 1 45.1041 0.7913 45.1041
3945 1 46.6867 2.3739 46.6867
3946 1 45.1041 0.7913 48.2693
3947 1 46.6867 2.3739 49.8519
3948 1 45.1041 3.9565 0.7913
3949 1 46.6867 5.5391 2.3739
3950 1 45.1041 3.9565 3.9565
3951 1 46.6867 5.5391 5.5391
3952 1 45.1041 3.9565 7.1217
3953 1 46.6867 5.5391 8.7043
3954 1 45.1041 3.9565 10.2869
3955 1 46.6867 5.5391 11.8695
3956 1 45.1041 3.9565 13.4521
3957 1 46.6867 5.5391 15.0347
3958 1 45.1041 3.9565 16.6173
3959 1 46.6867 5.5391 18.1999
3960 1 45.1041 3.9565 19.7825
3961 1 46.6867 5.5391 21.3651
3962 1 45.1041 3.9565 22.9477
3963 1 46.6867 5.5391 24.5303
3964 1 45.1041 3.9565 26.1129
3965 1 46.6867 5.5391 27.6955
3966 1 45.1041 3.9565 29.2781
3967 1 46.6867 5.5391 30.8607
3968 1 45.1041 3.9565 32.4433
3969 1 46.6867 5.5391 34.0259
3970 1 45.1041 3.9565 35.6085
3971 1 46.6867 5.5391 37.1911
3972 1 45.1041 3.9565 38.7737
3973 1 46.6867 5.5391 40.3563
3974 1 45.1041 3.9565 41.9389
3975 1 46.6867 5.5391 43.5215
3976 1 45.1041 3.9565 45.1041
3977 1 46.6867 5.5391 46.6867
3978 1 45.1041 3.9565 48.2693
3979 1 46.6867 5.5391 49.8519
3980 1 45.1041 7.1217 0.7913
3981 1 46.6867 8.7043 2.3739
3982 1 45.1041 7.1217 3.9565
3983 1 46.6867 8.7043 5.5391
3984 1 45.1041 7.1217 7.1217
3985 1 46.6867 8.7043 8.7043
3986 1 45.1041 7.1217 10.2869
3987 1 46.6867 8.7043 11.8695
3988 1 45.1041 7.1217 13.4521
3989 1 46.6867 8.7043 15.0347
3990 1 45.1041 7.1217 16.6173
3991 1 46.6867 8.7043 18.1999
3992 1 45.1041 7.1217 19.7825
3993 1 46.6867 8.7043 21.3651
3994 1 45.1041 7.1217 22.9477
3995 1 46.6867 8.7043 24.5303
3996 1 45.1041 7.1217 26.1129
3997 1 46.6867 8.7043 27.6955
3998 1 45.1041 7.1217 29.2781
3999 1 46.6867 8.7043 30.8607
4000 1 45.1041 7.1217 32.4433
4001 1 46.6867 8.7043 34.0259
4002 1 45.1041 7.1217 35.6085
4003 1 46.6867 8.7043 37.1911
4004 1 45.1041 7.1217 38.7737
4005 1 46.6867 8.7043 40.3563
4006 1 45.1041 7.1217 41.9389
4007 1 46.6867 8.7043 43.5215
4008 1 45.1041 7.1217 45.1041
4009 1 46.6867 8.7043 46.6867
4010 1 45.1041 7.1217 48.2693
4011 1 46.6867 8.7043 49.8519
4012 1 45.1041 10.2869 0.7913
4013 1 46.6867 11.8695 2.3739
4014 1 45.1041 10.2869 3.9565
4015 1 46.6867 11.8695 5.5391
4016 1 45.1041 10.2869 7.1217
4017 1 46.6867 11.8695 8.7043
4018 1 45.1041 10.2869 10.2869
4019 1 46.6867 11.8695 11.8695
4020 1 45.1041 10.2869 13.4521
4021 1 46.6867 11.8695 15.0347
4022 1 45.1041 10.2869 16.6173
4023 1 46.6867 11.8695 18.1999
4024 1 45.1041 10.2869 19.7825
4025 1 46.6867 11.8695 21.3651
4026 1 45.1041 10.2869 22.9477
4027 1 46.6867 11.8695 24.5303
4028 1 45.1041 10.2869 26.1129
4029 1 46.6867 11.8695 27.6955
4030 1 45.1041 10.2869 29.2781
4031 1 46.6867 11.8695 30.8607
4032 1 45.1041 10.2869 32.4433
4033 1 46.6867 11.8695 34.0259
4034 1 45.1041 10.2869 35.6085
4035 1 46.6867 11.8695 37.1911
4036 1 45.1041 10.2869 38.7737
4037 1 46.6867 11.8695 40.3563
4038 1 45.1041 10.2869 41.9389
4039 1 46.6867 11.8695 43.5215
4040 1 45.1041 10.2869 45.1041
4041 1 46.6867 11.8695 46.6867
4042 1 45.1041 10.2869 48.2693
4043 1 46.6867 11.8695 49.8519
4044 1 45.1041 13.4521 0.7913
4045 1 46.6867 15.0347 2.3739
4046 1 45.1041 13.4521 3.9565
4047 1 46.6867 15.0347 5.5391
4048 1 45.1041 13.4521 7.1217
4049 1 46.6867 15.0347 8.7043
4050 1 45.1041 13.4521 10.2869
4051 1 46.6867 15.0347 11.8695
4052 1 45.1041 13.4521 13.4521
4053 1 46.6867 15.0347 15.0347
4054 1 45.1041 13.4521 16.6173
4055 1 46.6867 15.0347 18.1999
4056 1 45.1041 13.4521 19.7825
4057 1 46.6867 15.0347 21.3651
4058 1 45.1041 13.4521 22.9477
4059 1 46.6867 15.0347 24.5303
4060 1 45.1041 13.4521 26.1129
4061 1 46.6867 15.0347 27.6955
4062 1 45.1041 13.4521 29.2781
4063 1 46.6867 15.0347 30.8607
4064 1 45.1041 13.4521 32.4433
4065 1 46.6867 15.0347 34.0259
4066 1 45.1041 13.4521 35.6085
4067 1 46.6867 15.0347 37.1911
4068 1 45.1041 13.4521 38.7737
4069 1 46.6867 15.0347 40.3563
4070 1 45.1041 13.4521 41.9389
4071 1 46.6867 15.0347 43.5215
4072 1 45.1041 13.4521 45.1041
4073 1 46.6867 15.0347 46.6867
4074 1 45.1041 13.4521 48.2693
4075 1 46.6867 15.0347 49.8519
4076 1 45.1041 16.6173 0.7913
4077 1 46.6867 18.1999 2.3739
4078 1 45.1041 16.6173 3.9565
4079 1 46.6867 18.1999 5.5391
4080 1 45.1041 16.6173 7.1217
4081 1 46.6867 18.1999 8.7043
4082 1 45.1041 16.6173 10.2869
4083 1 46.6867 18.1999 11.8695
4084 1 45.1041 16.6173 13.4521
4085 1 46.6867 18.1999 15.0347
4086 1 45.1041 16.6173 16.6173
4087 1 46.6867 18.1999 18.1999
4088 1 45.1041 16.6173 19.7825
4089 1 46.6867 18.1999 21.3651
4090 1 45.1041 16.6173 22.9477
4091 1 46.6867 18.1999 24.5303
4092 1 45.1041 16.6173 26.1129
4093 1 46.6867 18.1999 27.6955
4094 1 45.1041 16.6173 29.2781
4095 1 46.6867 18.1999 30.8607
4096 1 45.1041 16.6173 32.4433
4097 1 46.6867 18.1999 34.0259
4098 1 45.1041 16.6173 35.6085
4099 1 46.6867 18.1999 37.1911
4100 1 45.1041 16.6173 38.7737
4101 1 46.6867 18.1999 40.3563
4102 1 45.1041 16.6173 41.9389
4103 1 46.6867 18.1999 43.5215
4104 1 45.1041 16.6173 45.1041
4105 1 46.6867 18.1999 46.6867
4106 1 45.1041 16.6173 48.2693
4107 1 46.6867 18.1999 49.8519
4108 1 45.1041 19.7825 0.7913
4109 1 46.6867 21.3651 2.3739
4110 1 45.1041 19.7825 3.9565
4111 1 46.6867 21.3651 5.5391
4112 1 45.1041 19.7825 7.1217
4113 1 46.6867 21.3651 8.7043
4114 1 45.1041 19.7825 10.2869
4115 1 46.6867 21.3651 11.8695
4116 1 45.1041 19.7825 13.4521
4117 1 46.6867 21.3651 15.0347
4118 1 45.1041 19.7825 16.6173
4119 1 46.6867 21.3651 18.1999
4120 1 45.1041 19.7825 19.7825
4121 1 46.6867 21.3651 21.3651
4122 1 45.1041 19.7825 22.9477
4123 1 46.6867 21.3651 24.5303
4124 1 45.1041 19.7825 26.1129
4125 1 46.6867 21.3651 27.6955
4126 1 45.1041 19.7825 29.2781
4127 1 46.6867 21.3651 30.8607
4128 1 45.1041 19.7825 32.4433
4129 1 46.6867 21.3651 34.0259
4130 1 45.1041 19.7825 35.6085
4131 1 46.6867 21.3651 37.1911
4132 1 45.1041 19.7825 38.7737
4133 1 46.6867 21.3651 40.3563
4134 1 45.1041 19.7825 41.9389
4135 1 46.6867 21.3651 43.5215
4136 1 45.1041 19.7825 45.1041
4137 1 46.6867 21.3651 46.6867
4138 1 45.1041 19.7825 48.2693
4139 1 46.6867 21.3651 49.8519
4140 1 45.1041 22.9477 0.7913
4141 1 46.6867 24.5303 2.3739
4142 1 45.1041 22.9477 3.9565
4143 1 46.6867 24.5303 5.5391
4144 1 45.1041 22.9477 7.1217
4145 1 46.6867 24.5303 8.7043
4146 1 45.1041 22.9477 10.2869
4147 1 46.6867 24.5303 11.8695
4148 1 45.1041 22.9477 13.4521
4149 1 46.6867 24.5303 15.0347
4150 1 45.1041 22.9477 16.6173
4151 1 46.6867 24.5303 18.1999
4152 1 45.1041 22.9477 19.7825
4153 1 46.6867 24.5303 21.3651
4154 1 45.1041 22.9477 22.9477
4155 1 46.6867 24.5303 24.5303
4156 1 45.1041 22.9477 26.1129
4157 1 46.6867 24.5303 27.6955
4158 1 45.1041 22.9477 29.2781
4159 1 46.6867 24.5303 30.8607
4160 1 45.1041 22.9477 32.4433
4161 1 46.6867 24.5303 34.0259
4162 1 45.1041 22.9477 35.6085
4163 1 46.6867 24.5303 37.1911
4164 1 45.1041 22.9477 38.7737
4165 1 46.6867 24.5303 40.3563
4166 1 45.1041 22.9477 41.9389
4167 1 46.6867 24.5303 43.5215
4168 1 45.1041 22.9477 45.1041
4169 1 46.6867 24.5303 46.6867
4170 1 45.1041 22.9477 48.2693
4171 1 46.6867 24.5303 49.8519
4172 1 45.1041 26.1129 0.7913
4173 1 46.6867 27.6955 2.3739
4174 1 45.1041 26.1129 3.9565
4175 1 46.6867 27.6955 5.5391
4176 1 45.1041 26.1129 7.1217
4177 1 46.6867 27.6955 8.7043
4178 1 45.1041 26.1129 10.2869
4179 1 46.6867 27.6955 11.8695
4180 1 45.1041 26.1129 13.4521
4181 1 46.6867 27.6955 15.0347
4182 1 45.1041 26.1129 16.6173
4183 1 46.6867 27.6955 18.1999
4184 1 45.1041 26.1129 19.7825
4185 1 46.6867 27.6955 21.3651
4186 1 45.1041 26.1129 22.9477
4187 1 46.6867 27.6955 24.5303
4188 1 45.1041 26.1129 26.1129
4189 1 46.6867 27.6955 27.6955
4190 1 45.1041 26.1129 29.2781
4191 1 46.6867 27.6955 30.8607
4192 1 45.1041 26.1129 32.4433
4193 1 46.6867 27.6955 34.0259
4194 1 45.1041 26.1129 35.6085
4195 1 46.6867 27.6955 37.1911
4196 1 45.1041 26.1129 38.7737
4197 1 46.6867 27.6955 40.3563
4198 1 45.1041 26.1129 41.9389
4199 1 46.6867 27.6955 43.5215
4200 1 45.1041 26.1129 45.1041
4201 1 46.6867 27.6955 46.6867
4202 1 45.1041 26.1129 48.2693
4203 1 46.6867 27.6955 49.8519
4204 1 45.1041 29.2781 0.7913
4205 1 46.6867 30.8607 2.3739
4206 1 45.1041 29.2781 3.9565
4207 1 46.6867 30.8607 5.5391
4208 1 45.1041 29.2781 7.1217
4209 1 46.6867 30.8607 8.7043
4210 1 45.1041 29.2781 10.2869
4211 1 46.6867 30.8607 11.8695
4212 1 45.1041 29.2781 13.4521
4213 1 46.6867 30.8607 15.0347
4214 1 45.1041 29.2781 16.6173
4215 1 46.6867 30.8607 18.1999
4216 1 45.1041 29.2781 19.7825
4217 1 46.6867 30.8607 21.3651
4218 1 45.1041 29.2781 22.9477
4219 1 46.6867 30.8607 24.5303
4220 1 45.1041 29.2781 26.1129
4221 1 46.6867 30.8607 27.6955
4222 1 45.1041 29.2781 29.2781
4223 1 46.6867 30.8607 30.8607
4224 1 45.1041 29.2781 32.4433
4225 1 46.6867 30.8607 34.0259
4226 1 45.1041 29.2781 35.6085
4227 1 46.6867 30.8607 37.1911
4228 1 45.1041 29.2781 38.7737
4229 1 46.6867 30.8607 40.3563
4230 1 45.1041 29.2781 41.9389
4231 1 46.6867 30.8607 43.5215
4232 1 45.1041 29.2781 45.1041
4233 1 46.6867 30.8607 46.6867
4234 1 45.1041 29.2781 48.2693
4235 1 46.6867 30.8607 49.8519
4236 1 45.1041 32.4433 0.7913
4237 1 46.6867 34.0259 2.3739
4238 1 45.1041 32.4433 3.9565
4239 1 46.6867 34.0259 5.5391
4240 1 45.1041 32.4433 7.1217
4241 1 46.6867 34.0259 8.7043
4242 1 45.1041 32.4433 10.2869
4243 1 46.6867 34.0259 11.8695
4244 1 45.1041 32.4433 13.4521
4245 1 46.6867 34.0259 15.0347
4246 1 45.1041 32.4433 16.6173
4247 1 46.6867 34.0259 18.1999
4248 1 45.1041 32.4433 19.7825
4249 1 46.6867 34.0259 21.3651
4250 1 45.1041 32.4433 22.9477
4251 1 46.6867 34.0259 24.5303
4252 1 45.1041 32.4433 26.1129
4253 1 46.6867 34.0259 27.6955
4254 1 45.1041 32.4433 29.2781
4255 1 46.6867 34.0259 30.8607
4256 1 45.1041 32.4433 32.4433
4257 1 46.6867 34.0259 34.0259
4258 1 45.1041 32.4433 35.6085
4259 1 46.6867 34.0259 37.1911
4260 1 45.1041 32.4433 38.7737
4261 1 46.6867 34.0259 40.3563
4262 1 45.1041 32.4433 41.9389
4263 1 46.6867 34.0259 43.5215
4264 1 45.1041 32.4433 45.1041
4265 1 46.6867 34.0259 46.6867
4266 1 45.1041 32.4433 48.2693
4267 1 46.6867 34.0259 49.8519
4268 1 45.1041 35.6085 0.7913
4269 1 46.6867 37.1911 2.3739
4270 1 45.1041 35.6085 3.9565
4271 1 46.6867 37.1911 5.5391
4272 1 45.1041 35.6085 7.1217
4273 1 46.6867 37.1911 8.7043
4274 1 45.1041 35.6085 10.2869
4275 1 46.6867 37.1911 11.8695
4276 1 45.1041 35.6085 13.4521
4277 1 46.6867 37.1911 15.0347
4278 1 45.1041 35.6085 16.6173
4279 1 46.6867 37.1911 18.1999
4280 1 45.1041 35.6085 19.7825
4281 1 46.6867 37.1911 21.3651
4282 1 45.1041 35.6085 22.9477
4283 1 46.6867 37.1911 24.5303
4284 1 45.1041 35.6085 26.1129
4285 1 46.6867 37.1911 27.6955
4286 1 45.1041 35.6085 29.2781
4287 1 46.6867 37.1911 30.8607
4288 1 45.1041 35.6085 32.4433
4289 1 46.6867 37.1911 34.0259
4290 1 45.1041 35.6085 35.6085
4291 1 46.6867 37.1911 37.1911
4292 1 45.1041 35.6085 38.7737
4293 1 46.6867 37.1911 40.3563
4294 1 45.1041 35.6085 41.9389
4295 1 46.6867 37.1911 43.5215
4296 1 45.1041 35.6085 45.1041
4297 1 46.6867 37.1911 46.6867
4298 1 45.1041 35.6085 48.2693
4299 1 46.6867 37.1911 49.8519
4300 1 45.1041 38.7737 0.7913
4301 1 46.6867 40.3563 2.3739
4302 1 45.1041 38.7737 3.9565
4303 1 46.6867 40.3563 5.5391
4304 1 45.1041 38.7737 7.1217
4305 1 46.6867 40.3563 8.7043
4306 1 45.1041 38.7737 10.2869
4307 1 46.6867 40.3563 11.8695
4308 1 45.1041 38.7737 13.4521
4309 1 46.6867 40.3563 15.0347
4310 1 45.1041 38.7737 16.6173
4311 1 46.6867 40.3563 18.1999
4312 1 45.1041 38.7737 19.7825
4313 1 46.6867 40.3563 21.3651
4314 1 45.1041 38.7737 22.9477
4315 1 46.6867 40.3563 24.5303
4316 1 45.1041 38.7737 26.1129
4317 1 46.6867 40.3563 27.6955
4318 1 45.1041 38.7737 29.2781
4319 1 46.6867 40.3563 30.8607
4320 1 45.1041 38.7737 32.4433
4321 1 46.6867 40.3563 34.0259
4322 1 45.1041 38.7737 35.6085
4323 1 46.6867 40.3563 37.1911
4324 1 45.1041 38.7737 38.7737
4325 1 46.6867 40.3563 40.3563
4326 1 45.1041 38.7737 41.9389
4327 1 46.6867 40.3563 43.5215
4328 1 45.1041 38.7737 45.1041
4329 1 46.6867 40.3563 46.6867
4330 1 45.1041 38.7737 48.2693
4331 1 46.6867 40.3563 49.8519
4332 1 45.1041 41.9389 0.7913
4333 1 46.6867 43.5215 2.3739
4334 1 45.1041 41.9389 3.9565
4335 1 46.6867 43.5215 5.5391
4336 1 45.1041 41.9389 7.1217
4337 1 46.6867 43.5215 8.7043
4338 1 45.1041 41.9389 10.2869
4339 1 46.6867 43.5215 11.8695
4340 1 45.1041 41.9389 13.4521
4341 1 46.6867 43.5215 15.0347
4342 1 45.1041 41.9389 16.6173
4343 1 46.6867 43.5215 18.1999
4344 1 45.1041 41.9389 19.7825
4345 1 46.6867 43.5215 21.3651
4346 1 45.1041 41.9389 22.9477
4347 1 46.6867 43.5215 24.5303
4348 1 45.1041 41.9389 26.1129
4349 1 46.6867 43.5215 27.6955
4350 1 45.1041 41.9389 29.2781
4351 1 46.6867 43.5215 30.8607
4352 1 45.1041 41.9389 32.4433
4353 1 46.6867 43.5215 34.0259
4354 1 45.1041 41.9389 35.6085
4355 1 46.6867 43.5215 37.1911
4356 1 45.1041 41.9389 38.7737
4357 1 46.6867 43.5215 40.3563
4358 1 45.1041 41.9389 41.9389
4359 1 46.6867 43.5215 43.5215
4360 1 45.1041 41.9389 45.1041
4361 1 46.6867 43.5215 46.6867
4362 1 45.1041 41.9389 48.2693
4363 1 46.6867 43.5215 49.8519
4364 1 45.1041 45.1041 0.7913
4365 1 46.6867 46.6867 2.3739
4366 1 45.1041 45.1041 3.9565
4367 1 46.6867 46.6867 5.5391
4368 1 45.1041 45.1041 7.1217
4369 1 46.6867 46.6867 8.7043
4370 1 45.1041 45.1041 10.2869
4371 1 46.6867 46.6867 11.8695
4372 1 45.1041 45.1041 13.4521
4373 1 46.6867 46.6867 15.0347
4374 1 45.1041 45.1041 16.6173
4375 1 46.6867 46.6867 18.1999
4376 1 45.1041 45.1041 19.7825
4377 1 46.6867 46.6867 21.3651
4378 1 45.1041 45.1041 22.9477
4379 1 46.6867 46.6867 24.5303
4380 1 45.1041 45.1041 26.1129
4381 1 46.6867 46.6867 27.6955
4382 1 45.1041 45.1041 29.2781
4383 1 46.6867 46.6867 30.8607
4384 1 45.1041 45.1041 32.4433
4385 1 46.6867 46.6867 34.0259
4386 1 45.1041 45.1041 35.6085
4387 1 46.6867 46.6867 37.1911
4388 1 45.1041 45.1041 38.7737
4389 1 46.6867 46.6867 40.3563
4390 1 45.1041 45.1041 41.9389
4391 1 46.6867 46.6867 43.5215
4392 1 45.1041 45.1041 45.1041
4393 1 46.6867 46.6867 46.6867
4394 1 45.1041 45.1041 48.2693
4395 1 46.6867 46.6867 49.8519
4396 1 45.1041 48.2693 0.7913
4397 1 46.6867 49.8519 2.3739
4398 1 45.1041 48.2693 3.9565
4399 1 46.6867 49.8519 5.5391
4400 1 45.1041 48.2693 7.1217
4401 1 46.6867 49.8519 8.7043
4402 1 45.1041 48.2693 10.2869
4403 1 46.6867 49.8519 11.8695
4404 1 45.1041 48.2693 13.4521
4405 1 46.6867 49.8519 15.0347
4406 1 45.1041 48.2693 16.6173
4407 1 46.6867 49.8519 18.1999
4408 1 45.1041 48.2693 19.7825
4409 1 46.6867 49.8519 21.3651
4410 1 45.1041 48.2693 22.9477
4411 1 46.6867 49.8519 24.5303
4412 1 45.1041 48.2693 26.1129
4413 1 46.6867 49.8519 27.6955
4414 1 45.1041 48.2693 29.2781
4415 1 46.6867 49.8519 30.8607
4416 1 45.1041 48.2693 32.4433
4417 1 46.6867 49.8519 34.0259
4418 1 45.1041 48.2693 35.6085
4419 1 46.6867 49.8519 37.1911
4420 1 45.1041 48.2693 38.7737
4421 1 46.6867 49.8519 40.3563
4422 1 45.1041 48.2693 41.9389
4423 1 46.6867 49.8519 43.5215
4424 1 45.1041 48.2693 45.1041
4425 1 46.6867 49.8519 46.6867
4426 1 45.1041 48.2693 48.2693
4427 1 46.6867 49.8519 49.8519
4428 1 48.2693 0.7913 0.7913
4429 1 49.8519 2.3739 2.3739
4430 1 48.2693 0.7913 3.9565
4431 1 49.8519 2.3739 5.5391
4432 1 48.2693 0.7913 7.1217
4433 1 49.8519 2.3739 8.7043
4434 1 48.2693 0.7913 10.2869
4435 1 49.8519 2.3739 11.8695
4436 1 48.2693 0.7913 13.4521
4437 1 49.8519 2.3739 15.0347
4438 1 48.2693 0.7913 16.6173
4439 1 49.8519 2.3739 18.1999
4440 1 48.2693 0.7913 19.7825
4441 1 49.8519 2.3739 21.3651
4442 1 48.2693 0.7913 22.9477
4443 1 49.8519 2.3739 24.5303
4444 1 48.2693 0.7913 26.1129
4445 1 49.8519 2.3739 27.6955
4446 1 48.2693 0.7913 29.2781
4447 1 49.8519 2.3739 30.8607
4448 1 48.2693 0.7913 32.4433
4449 1 49.8519 2.3739 34.0259
4450 1 48.2693 0.7913 35.6085
4451 1 49.8519 2.3739 37.1911
4452 1 48.2693 0.7913 38.7737
4453 1 49.8519 2.3739 40.3563
4454 1 48.2693 0.7913 41.9389
4455 1 49.8519 2.3739 43.5215
4456 1 48.2693 0.7913 45.1041
4457 1 49.8519 2.3739 46.6867
4458 1 48.2693 0.7913 48.2693
4459 1 49.8519 2.3739 49.8519
4460 1 48.2693 3.9565 0.7913
4461 1 49.8519 5.5391 2.3739
4462 1 48.2693 3.9565 3.9565
4463 1 49.8519 5.5391 5.5391
4464 1 48.2693 3.9565 7.1217
4465 1 49.8519 5.5391 8.7043
4466 1 48.2693 3.9565 10.2869
4467 1 49.8519 5.5391 11.8695
4468 1 48.2693 3.9565 13.4521
4469 1 49.8519 5.5391 15.0347
4470 1 48.2693 3.9565 16.6173
4471 1 49.8519 5.5391 18.1999
4472 1 48.2693 3.9565 19.7825
4473 1 49.8519 5.5391 21.3651
4474 1 48.2693 3.9565 22.9477
4475 1 49.8519 5.5391 24.5303
4476 1 48.2693 3.9565 26.1129
4477 1 49.8519 5.5391 27.6955
4478 1 48.2693 3.9565 29.2781
4479 1 49.8519 5.5391 30.8607
4480 1 48.2693 3.9565 32.4433
4481 1 49.8519 5.5391 34.0259
4482 1 48.2693 3.9565 35.6085
4483 1 49.8519 5.5391 37.1911
4484 1 48.2693 3.9565 38.7737
4485 1 49.8519 5.5391 40.3563
4486 1 48.2693 3.9565 41.9389
4487 1 49.8519 5.5391 43.5215
4488 1 48.2693 3.9565 45.1041
4489 1 49.8519 5.5391 46.6867
4490 1 48.2693 3.9565 48.2693
4491 1 49.8519 5.5391 49.8519
4492 1 48.2693 7.1217 0.7913
4493 1 49.8519 8.7043 2.3739
4494 1 48.2693 7.1217 3.9565
4495 1 49.8519 8.7043 5.5391
4496 1 48.2693 7.1217 7.1217
4497 1 49.8519 8.7043 8.7043
4498 1 48.2693 7.1217 10.2869
4499 1 49.8519 8.7043 11.8695
4500 1 48.2693 7.1217 13.4521
4501 1 49.8519 8.7043 15.0347
4502 1 48.2693 7.1217 16.6173
4503 1 49.8519 8.7043 18.1999
4504 1 48.2693 7.1217 19.7825
4505 1 49.8519 8.7043 21.3651
4506 1 48.2693 7.1217 22.9477
4507 1 49.8519 8.7043 24.5303
4508 1 48.2693 7.1217 26.1129
4509 1 49.8519 8.7043 27.6955
4510 1 48.2693 7.1217 29.2781
4511 1 49.8519 8.7043 30.8607
4512 1 48.2693 7.1217 32.4433
4513 1 49.8519 8.7043 34.0259
4514 1 48.2693 7.1217 35.6085
4515 1 49.8519 8.7043 37.1911
4516 1 48.2693 7.1217 38.7737
4517 1 49.8519 8.7043 40.3563
4518 1 48.2693 7.1217 41.9389
4519 1 49.8519 8.7043 43.5215
4520 1 48.2693 7.1217 45.1041
4521 1 49.8519 8.7043 46.6867
4522 1 48.2693 7.1217 48.2693
4523 1 49.8519 8.7043 49.8519
4524 1 48.2693 10.2869 0.7913
4525 1 49.8519 11.8695 2.3739
4526 1 48.2693 10.2869 3.9565
4527 1 49.8519 11.8695 5.5391
4528 1 48.2693 10.2869 7.1217
4529 1 49.8519 11.8695 8.7043
4530 1 48.2693 10.2869 10.2869
4531 1 49.8519 11.8695 11.8695
4532 1 48.2693 10.2869 13.4521
4533 1 49.8519 11.8695 15.0347
4534 1 48.2693 10.2869 16.6173
4535 1 49.8519 11.8695 18.1999
4536 1 48.2693 10.2869 19.7825
4537 1 49.8519 11.8695 21.3651
4538 1 48.2693 10.2869 22.9477
4539 1 49.8519 11.8695 24.5303
4540 1 48.2693 10.2869 26.1129
4541 1 49.8519 11.8695 27.6955
4542 1 48.2693 10.2869 29.2781
4543 1 49.8519 11.8695 30.8607
4544 1 48.2693 10.2869 32.4433
4545 1 49.8519 11.8695 34.0259
4546 1 48.2693 10.2869 35.6085
4547 1 49.8519 11.8695 37.1911
4548 1 48.2693 10.2869 38.7737
4549 1 49.8519 11.8695 40.3563
4550 1 48.2693 10.2869 41.9389
4551 1 49.8519 11.8695 43.5215
4552 1 48.2693 10.2869 45.1041
4553 1 49.8519 11.8695 46.6867
4554 1 48.2693 10.2869 48.2693
4555 1 49.8519 11.8695 49.8519
4556 1 48.2693 13.4521 0.7913
4557 1 49.8519 15.0347 2.3739
4558 1 48.2693 13.4521 3.9565
4559 1 49.8519 15.0347 5.5391
4560 1 48.2693 13.4521 7.1217
4561 1 49.8519 15.0347 8.7043
4562 1 48.2693 13.4521 10.2869
4563 1 49.8519 15.0347 11.8695
4564 1 48.2693 13.4521 13.4521
4565 1 49.8519 15.0347 15.0347
4566 1 48.2693 13.4521 16.6173
4567 1 49.8519 15.0347 18.1999
4568 1 48.2693 13.4521 19.7825
4569 1 49.8519 15.0347 21.3651
4570 1 48.2693 13.4521 22.9477
4571 1 49.8519 15.0347 24.5303
4572 1 48.2693 13.4521 26.1129
4573 1 49.8519 15.0347 27.6955
4574 1 48.2693 13.4521 29.2781
4575 1 49.8519 15.0347 30.8607
4576 1 48.2693 13.4521 32.4433
4577 1 49.8519 15.0347 34.0259
4578 1 48.2693 13.4521 35.6085
4579 1 49.8519 15.0347 37.1911
4580 1 48.2693 13.4521 38.7737
4581 1 49.8519 15.0347 40.3563
4582 1 48.2693 13.4521 41.9389
4583 1 49.8519 15.0347 43.5215
4584 1 48.2693 13.4521 45.1041
4585 1 49.8519 15.0347 46.6867
4586 1 48.2693 13.4521 48.2693
4587 1 49.8519 15.0347 49.8519
4588 1 48.2693 16.6173 0.7913
4589 1 49.8519 18.1999 2.3739
4590 1 48.2693 16.6173 3.9565
4591 1 49.8519 18.1999 5.5391
4592 1 48.2693 16.6173 7.1217
4593 1 49.8519 18.1999 8.7043
4594 1 48.2693 16.6173 10.2869
4595 1 49.8519 18.1999 11.8695
4596 1 48.2693 16.6173 13.4521
4597 1 49.8519 18.1999 15.0347
4598 1 48.2693 16.6173 16.6173
4599 1 49.8519 18.1999 18.1999
4600 1 48.2693 16.6173 19.7825
4601 1 49.8519 18.1999 21.3651
4602 1 48.2693 16.6173 22.9477
4603 1 49.8519 18.1999 24.5303
4604 1 48.2693 16.6173 26.1129
4605 1 49.8519 18.1999 27.6955
4606 1 48.2693 16.6173 29.2781
4607 1 49.8519 18.1999 30.8607
4608 1 48.2693 16.6173 32.4433
4609 1 49.8519 18.1999 34.0259
4610 1 48.2693 16.6173 35.6085
4611 1 49.8519 18.1999 37.1911
4612 1 48.2693 16.6173 38.7737
4613 1 49.8519 18.1999 40.3563
4614 1 48.2693 16.6173 41.9389
4615 1 49.8519 18.1999 43.5215
4616 1 48.2693 16.6173 45.1041
4617 1 49.8519 18.1999 46.6867
4618 1 48.2693 16.6173 48.2693
4619 1 49.8519 18.1999 49.8519
4620 1 48.2693 19.7825 0.7913
4621 1 49.8519 21.3651 2.3739
4622 1 48.2693 19.7825 3.9565
4623 1 49.8519 21.3651 5.5391
4624 1 48.2693 19.7825 7.1217
4625 1 49.8519 21.3651 8.7043
4626 1 48.2693 19.7825 10.2869
4627 1 49.8519 21.3651 11.8695
4628 1 48.2693 19.7825 13.4521
4629 1 49.8519 21.3651 15.0347
4630 1 48.2693 19.7825 16.6173
4631 1 49.8519 21.3651 18.1999
4632 1 48.2693 19.7825 19.7825
4633 1 49.8519 21.3651 21.3651
4634 1 48.2693 19.7825 22.9477
4635 1 49.8519 21.3651 24.5303
4636 1 48.2693 19.7825 26.1129
4637 1 49.8519 21.3651 27.6955
4638 1 48.2693 19.7825 29.2781
4639 1 49.8519 21.3651 30.8607
4640 1 48.2693 19.7825 32.4433
4641 1 49.8519 21.3651 34.0259
4642 1 48.2693 19.7825 35.6085
4643 1 49.8519 21.3651 37.1911
4644 1 48.2693 19.7825 38.7737
4645 1 49.8519 21.3651 40.3563
4646 1 48.2693 19.7825 41.9389
4647 1 49.8519 21.3651 43.5215
4648 1 48.2693 19.7825 45.1041
4649 1 49.8519 21.3651 46.6867
4650 1 48.2693 19.7825 48.2693
4651 1 49.8519 21.3651 49.8519
4652 1 48.2693 22.9477 0.7913
4653 1 49.8519 24.5303 2.3739
4654 1 48.2693 22.9477 3.9565
4655 1 49.8519 24.5303 5.5391
4656 1 48.2693 22.9477 7.1217
4657 1 49.8519 24.5303 8.7043
4658 1 48.2693 22.9477 10.2869
4659 1 49.8519 24.5303 11.8695
4660 1 48.2693 22.9477 13.4521
4661 1 49.8519 24.5303 15.0347
4662 1 48.2693 22.9477 16.6173
4663 1 49.8519 24.5303 18.1999
4664 1 48.2693 22.9477 19.7825
4665 1 49.8519 24.5303 21.3651
4666 1 48.2693 22.9477 22.9477
4667 1 49.8519 24.5303 24.5303
4668 1 48.2693 22.9477 26.1129
4669 1 49.8519 24.5303 27.6955
4670 1 48.2693 22.9477 29.2781
4671 1 49.8519 24.5303 30.8607
4672 1 48.2693 22.9477 32.4433
4673 1 49.8519 24.5303 34.0259
4674 1 48.2693 22.9477 35.6085
4675 1 49.8519 24.5303 37.1911
4676 1 48.2693 22.9477 38.7737
4677 1 49.8519 24.5303 40.3563
4678 1 48.2693 22.9477 41.9389
4679 1 49.8519 24.5303 43.5215
4680 1 48.2693 22.9477 45.1041
4681 1 49.8519 24.5303 46.6867
4682 1 48.2693 22.9477 48.2693
4683 1 49.8519 24.5303 49.8519
4684 1 48.2693 26.1129 0.7913
4685 1 49.8519 27.6955 2.3739
4686 1 48.2693 26.1129 3.9565
4687 1 49.8519 27.6955 5.5391
4688 1 48.2693 26.1129 7.1217
4689 1 49.8519 27.6955 8.7043
4690 1 48.2693 26.1129 10.2869
4691 1 49.8519 27.6955 11.8695
4692 1 48.2693 26.1129 13.4521
4693 1 49.8519 27.6955 15.0347
4694 1 48.2693 26.1129 16.6173
4695 1 49.8519 27.6955 18.1999
4696 1 48.2693 26.1129 19.7825
4697 1 49.8519 27.6955 21.3651
4698 1 48.2693 26.1129 22.9477
4699 1 49.8519 27.6955 24.5303
4700 1 48.2693 26.1129 26.1129
4701 1 49.8519 27.6955 27.6955
4702 1 48.2693 26.1129 29.2781
4703 1 49.8519 27.6955 30.8607
4704 1 48.2693 26.1129 32.4433
4705 1 49.8519 27.6955 34.0259
4706 1 48.2693 26.1129 35.6085
4707 1 49.8519 27.6955 37.1911
4708 1 48.2693 26.1129 38.7737
4709 1 49.8519 27.6955 40.3563
4710 1 48.2693 26.1129 41.9389
4711 1 49.8519 27.6955 43.5215
4712 1 48.2693 26.1129 45.1041
4713 1 49.8519 27.6955 46.6867
4714 1 48.2693 26.1129 48.2693
4715 1 49.8519 27.6955 49.8519
4716 1 48.2693 29.2781 0.7913
4717 1 49.8519 30.8607 2.3739
4718 1 48.2693 29.2781 3.9565
4719 1 49.8519 30.8607 5.5391
4720 1 48.2693 29.2781 7.1217
4721 1 49.8519 30.8607 8.7043
4722 1 48.2693 29.2781 10.2869
4723 1 49.8519 30.8607 11.8695
4724 1 48.2693 29.2781 13.4521
4725 1 49.8519 30.8607 15.0347
4726 1 48.2693 29.2781 16.6173
4727 1 49.8519 30.8607 18.1999
4728 1 48.2693 29.2781 19.7825
4729 1 49.8519 30.8607 21.3651
4730 1 48.2693 29.2781 22.9477
4731 1 49.8519 30.8607 24.5303
4732 1 48.2693 29.2781 26.1129
4733 1 49.8519 30.8607 27.6955
4734 1 48.2693 29.2781 29.2781
4735 1 49.8519 30.8607 30.8607
4736 1 48.2693 29.2781 32.4433
4737 1 49.8519 30.8607 34.0259
4738 1 48.2693 29.2781 35.6085
4739 1 49.8519 30.8607 37.1911
4740 1 48.2693 29.2781 38.7737
4741 1 49.8519 30.8607 40.3563
4742 1 48.2693 29.2781 41.9389
4743 1 49.8519 30.8607 43.5215
4744 1 48.2693 29.2781 45.1041
4745 1 49.8519 30.8607 46.6867
4746 1 48.2693 29.2781 48.2693
4747 1 49.8519 30.8607 49.8519
4748 1 48.2693 32.4433 0.7913
4749 1 49.8519 34.0259 2.3739
4750 1 48.2693 32.4433 3.9565
4751 1 49.8519 34.0259 5.5391
4752 1 48.2693 32.4433 7.1217
4753 1 49.8519 34.0259 8.7043
4754 1 48.2693 32.4433 10.2869
4755 1 49.8519 34.0259 11.8695
4756 1 48.2693 32.4433 13.4521
4757 1 49.8519 34.0259 15.0347
4758 1 48.2693 32.4433 16.6173
4759 1 49.8519 34.0259 18.1999
4760 1 48.2693 32.4433 19.7825
4761 1 49.8519 34.0259 21.3651
4762 1 48.2693 32.4433 22.9477
4763 1 49.8519 34.0259 24.5303
4764 1 48.2693 32.4433 26.1129
4765 1 49.8519 34.0259 27.6955
4766 1 48.2693 32.4433 29.2781
4767 1 49.8519 34.0259 30.8607
4768 1 48.2693 32.4433 32.4433
4769 1 49.8519 34.0259 34.0259
4770 1 48.2693 32.4433 35.6085
4771 1 49.8519 34.0259 37.1911
4772 1 48.2693 32.4433 38.7737
4773 1 49.8519 34.0259 40.3563
4774 1 48.2693 32.4433 41.9389
4775 1 49.8519 34.0259 43.5215
4776 1 48.2693 32.4433 45.1041
4777 1 49.8519 34.0259 46.6867
4778 1 48.2693 32.4433 48.2693
4779 1 49.8519 34.0259 49.8519
4780 1 48.2693 35.6085 0.7913
4781 1 49.8519 37.1911 2.3739
4782 1 48.2693 35.6085 3.9565
4783 1 49.8519 37.1911 5.5391
4784 1 48.2693 35.6085 7.1217
4785 1 49.8519 37.1911 8.7043
4786 1 48.2693 35.6085 10.2869
4787 1 49.8519 37.1911 11.8695
4788 1 48.2693 35.6085 13.4521
4789 1 49.8519 37.1911 15.0347
4790 1 48.2693 35.6085 16.6173
4791 1 49.8519 37.1911 18.1999
4792 1 48.2693 35.6085 19.7825
4793 1 49.8519 37.1911 21.3651
4794 1 48.2693 35.6085 22.9477
4795 1 49.8519 37.1911 24.5303
4796 1 48.2693 35.6085 26.1129
4797 1 49.8519 37.1911 27.6955
4798 1 48.2693 35.6085 29.2781
4799 1 49.8519 37.1911 30.8607
4800 1 48.2693 35.6085 32.4433
4801 1 49.8519 37.1911 34.0259
4802 1 48.2693 35.6085 35.6085
4803 1 49.8519 37.1911 37.1911
4804 1 48.2693 35.6085 38.7737
4805 1 49.8519 37.1911 40.3563
4806 1 48.2693 35.6085 41.9389
4807 1 49.8519 37.1911 43.5215
4808 1 48.2693 35.6085 45.1041
4809 1 49.8519 37.1911 46.6867
4810 1 48.2693 35.6085 48.2693
4811 1 49.8519 37.1911 49.8519
4812 1 48.2693 38.7737 0.7913
4813 1 49.8519 40.3563 2.3739
4814 1 48.2693 38.7737 3.9565
4815 1 49.8519 40.3563 5.5391
4816 1 48.2693 38.7737 7.1217
4817 1 49.8519 40.3563 8.7043
4818 1 48.2693 38.7737 10.2869
4819 1 49.8519 40.3563 11.8695
4820 1 48.2693 38.7737 13.4521
4821 1 49.8519 40.3563 15.0347
4822 1 48.2693 38.7737 16.6173
4823 1 49.8519 40.3563 18.1999
4824 1 48.2693 38.7737 19.7825
4825 1 49.8519 40.3563 21.3651
4826 1 48.2693 38.7737 22.9477
4827 1 49.8519 40.3563 24.5303
4828 1 48.2693 38.7737 26.1129
4829 1 49.8519 40.3563 27.6955
4830 1 48.2693 38.7737 29.2781
4831 1 49.8519 40.3563 30.8607
4832 1 48.2693 38.7737 32.4433
4833 1 49.8519 40.3563 34.0259
4834 1 48.2693 38.7737 35.6085
4835 1 49.8519 40.3563 37.1911
4836 1 48.2693 38.7737 38.7737
4837 1 49.8519 40.3563 40.3563
4838 1 48.2693 38.7737 41.9389
4839 1 49.8519 40.3563 43.5215
4840 1 48.2693 38.7737 45.1041
4841 1 49.8519 40.3563 46.6867
4842 1 48.2693 38.7737 48.2693
4843 1 49.8519 40.3563 49.8519
4844 1 48.2693 41.9389 0.7913
4845 1 49.8519 43.5215 2.3739
4846 1 48.2693 41.9389 3.9565
4847 1 49.8519 43.5215 5.5391
4848 1 48.2693 41.9389 7.1217
4849 1 49.8519 43.5215 8.7043
4850 1 48.2693 41.9389 10.2869
4851 1 49.8519 43.5215 11.8695
4852 1 48.2693 41.9389 13.4521
4853 1 49.8519 43.5215 15.0347
4854 1 48.2693 41.9389 16.6173
4855 1 49.8519 43.5215 18.1999
4856 1 48.2693 41.9389 19.7825
4857 1 49.8519 43.5215 21.3651
4858 1 48.2693 41.9389 22.9477
4859 1 49.8519 43.5215 24.5303
4860 1 48.2693 41.9389 26.1129
4861 1 49.8519 43.5215 27.6955
4862 1 48.2693 41.9389 29.2781
4863 1 49.8519 43.5215 30.8607
4864 1 48.2693 41.9389 32.4433
4865 1 49.8519 43.5215 34.0259
4866 1 48.2693 41.9389 35.6085
4867 1 49.8519 43.5215 37.1911
4868 1 48.2693 41.9389 38.7737
4869 1 49.8519 43.5215 40.3563
4870 1 48.2693 41.9389 41.9389
4871 1 49.8519 43.5215 43.5215
4872 1 48.2693 41.9389 45.1041
4873 1 49.8519 43.5215 46.6867
4874 1 48.2693 41.9389 48.2693
4875 1 49.8519 43.5215 49.8519
4876 1 48.2693 45.1041 0.7913
4877 1 49.8519 46.6867 2.3739
4878 1 48.2693 45.1041 3.9565
4879 1 49.8519 46.6867 5.5391
4880 1 48.2693 45.1041 7.1217
4881 1 49.8519 46.6867 8.7043
4882 1 48.2693 45.1041 10.2869
4883 1 49.8519 46.6867 11.8695
4884 1 48.2693 45.1041 13.4521
4885 1 49.8519 46.6867 15.0347
4886 1 48.2693 45.1041 16.6173
4887 1 49.8519 46.6867 18.1999
4888 1 48.2693 45.1041 19.7825
4889 1 49.8519 46.6867 21.3651
4890 1 48.2693 45.1041 22.9477
4891 1 49.8519 46.6867 24.5303
4892 1 48.2693 45.1041 26.1129
4893 1 49.8519 46.6867 27.6955
4894 1 48.2693 45.1041 29.2781
4895 1 49.8519 46.6867 30.8607
4896 1 48.2693 45.1041 32.4433
4897 1 49.8519 46.6867 34.0259
4898 1 48.2693 45.1041 35.6085
4899 1 49.8519 46.6867 37.1911
4900 1 48.2693 45.1041 38.7737
4901 1 49.8519 46.6867 40.3563
4902 1 48.2693 45.1041 41.9389
4903 1 49.8519 46.6867 43.5215
4904 1 48.2693 45.1041 45.1041
4905 1 49.8519 46.6867 46.6867
4906 1 48.2693 45.1041 48.2693
4907 1 49.8519 46.6867 49.8519
4908 1 48.2693 48.2693 0.7913
4909 1 49.8519 49.8519 2.3739
4910 1 48.2693 48.2693 3.9565
4911 1 49.8519 49.8519 5.5391
4912 1 48.2693 48.2693 7.1217
4913 1 49.8519 49.8519 8.7043
4914 1 48.2693 48.2693 10.2869
4915 1 49.8519 49.8519 11.8695
4916 1 48.2693 48.2693 13.4521
4917 1 49.8519 49.8519 15.0347
4918 1 48.2693 48.2693 16.6173
4919 1 49.8519 49.8519 18.1999
4920 1 48.2693 48.2693 19.7825
4921 1 49.8519 49.8519 21.3651
4922 1 48.2693 48.2693 22.9477
4923 1 49.8519 49.8519 24.5303
4924 1 48.2693 48.2693 26.1129
4925 1 49.8519 49.8519 27.6955
4926 1 48.2693 48.2693 29.2781
4927 1 49.8519 49.8519 30.8607
4928 1 48.2693 48.2693 32.4433
4929 1 49.8519 49.8519 34.0259
4930 1 48.2693 48.2693 35.6085
4931 1 49.8519 49.8519 37.1911
4932 1 48.2693 48.2693 38.7737
4933 1 49.8519 49.8519 40.3563
4934 1 48.2693 48.2693 41.9389
4935 1 49.8519 49.8519 43.5215
4936 1 48.2693 48.2693 45.1041
4937 1 49.8519 49.8519 46.6867
4938 1 48.2693 48.2693 48.2693
4939 1 49.8519 49.8519 49.8519
4940 1 7.1217 0.7913 0.7913
4941 1 8.7043 2.3739 2.3739
4942 1 7.1217 0.7913 3.9565
4943 1 8.7043 2.3739 5.5391
4944 1 7.1217 3.9565 0.7913
4945 1 8.7043 5.5391 2.3739
4946 1 7.1217 3.9565 3.9565
4947 1 8.7043 5.5391 5.5391
4948 1 7.1217 7.1217 0.7913
4949 1 8.7043 8.7043 2.3739
4950 1 7.1217 7.1217 3.9565
4951 1 8.7043 8.7043 5.5391
4952 1 7.1217 10.2869 0.7913
4953 1 8.7043 11.8695 2.3739
4954 1 7.1217 10.2869 3.9565
4955 1 8.7043 11.8695 5.5391
4956 1 7.1217 13.4521 0.7913
4957 1 8.7043 15.0347 2.3739
4958 1 7.1217 13.4521 3.9565
4959 1 8.7043 15.0347 5.5391
4960 1 7.1217 16.6173 0.7913
4961 1 8.7043 18.1999 2.3739
4962 1 7.1217 16.6173 3.9565
4963 1 8.7043 18.1999 5.5391
4964 1 7.1217 19.7825 0.7913
4965 1 8.7043 21.3651 2.3739
4966 1 7.1217 19.7825 3.9565
4967 1 8.7043 21.3651 5.5391
4968 1 7.1217 22.9477 0.7913
4969 1 8.7043 24.5303 2.3739
4970 1 7.1217 22.9477 3.9565
4971 1 8.7043 24.5303 5.5391
4972 1 7.1217 26.1129 0.7913
4973 1 8.7043 27.6955 2.3739
4974 1 7.1217 26.1129 3.9565
4975 1 8.7043 27.6955 5.5391
4976 1 7.1217 29.2781 0.7913
4977 1 8.7043 30.8607 2.3739
4978 1 7.1217 29.2781 3.9565
4979 1 8.7043 30.8607 5.5391
4980 1 7.1217 32.4433 0.7913
4981 1 8.7043 34.0259 2.3739
4982 1 7.1217 32.4433 3.9565
4983 1 8.7043 34.0259 5.5391
4984 1 7.1217 35.6085 0.7913
4985 1 8.7043 37.1911 2.3739
4986 1 7.1217 35.6085 3.9565
4987 1 8.7043 37.1911 5.5391
4988 1 7.1217 38.7737 0.7913
4989 1 8.7043 40.3563 2.3739
4990 1 7.1217 38.7737 3.9565
4991 1 8.7043 40.3563 5.5391
4992 1 7.1217 41.9389 0.7913
4993 1 8.7043 43.5215 2.3739
4994 1 7.1217 41.9389 3.9565
4995 1 8.7043 43.5215 5.5391
4996 1 7.1217 45.1041 0.7913
4997 1 8.7043 46.6867 2.3739
4998 1 7.1217 45.1041 3.9565
4999 1 8.7043 46.6867 5.5391
5000 1 7.1217 48.2693 0.7913
5001 1 8.7043 49.8519 2.3739
5002 1 7.1217 48.2693 3.9565
5003 1 8.7043 49.8519 5.5391
5004 1 10.2869 0.7913 0.7913
5005 1 11.8695 2.3739 2.3739
5006 1 10.2869 0.7913 3.9565
5007 1 11.8695 2.3739 5.5391
5008 1 10.2869 3.9565 0.7913
5009 1 11.8695 5.5391 2.3739
5010 1 10.2869 3.9565 3.9565
5011 1 11.8695 5.5391 5.5391
5012 1 10.2869 7.1217 0.7913
5013 1 11.8695 8.7043 2.3739
5014 1 10.2869 7.1217 3.9565
5015 1 11.8695 8.7043 5.5391
5016 1 10.2869 10.2869 0.7913
5017 1 11.8695 11.8695 2.3739
5018 1 10.2869 10.2869 3.9565
5019 1 11.8695 11.8695 5.5391
5020 1 10.2869 13.4521 0.7913
5021 1 11.8695 15.0347 2.3739
5022 1 10.2869 13.4521 3.9565
5023 1 11.8695 15.0347 5.5391
5024 1 10.2869 16.6173 0.7913
5025 1 11.8695 18.1999 2.3739
5026 1 10.2869 16.6173 3.9565
5027 1 11.8695 18.1999 5.5391
5028 1 10.2869 19.7825 0.7913
5029 1 11.8695 21.3651 2.3739
5030 1 10.2869 19.7825 3.9565
5031 1 11.8695 21.3651 5.5391
5032 1 10.2869 22.9477 0.7913
5033 1 11.8695 24.5303 2.3739
5034 1 10.2869 22.9477 3.9565
5035 1 11.8695 24.5303 5.5391
5036 1 10.2869 26.1129 0.7913
5037 1 11.8695 27.6955 2.3739
5038 1 10.2869 26.1129 3.9565
5039 1 11.8695 27.6955 5.5391
5040 1 10.2869 29.2781 0.7913
5041 1 11.8695 30.8607 2.3739
5042 1 10.2869 29.2781 3.9565
5043 1 11.8695 30.8607 5.5391
5044 1 10.2869 32.4433 0.7913
5045 1 11.8695 34.0259 2.3739
5046 1 10.2869 32.4433 3.9565
5047 1 11.8695 34.0259 5.5391
5048 1 10.2869 35.6085 0.7913
5049 1 11.8695 37.1911 2.3739
5050 1 10.2869 35.6085 3.9565
5051 1 11.8695 37.1911 5.5391
5052 1 10.2869 38.7737 0.7913
5053 1 11.8695 40.3563 2.3739
5054 1 10.2869 38.7737 3.9565
5055 1 11.8695 40.3563 5.5391
5056 1 10.2869 41.9389 0.7913
5057 1 11.8695 43.5215 2.3739
5058 1 10.2869 41.9389 3.9565
5059 1 11.8695 43.5215 5.5391
5060 1 10.2869 45.1041 0.7913
5061 1 11.8695 46.6867 2.3739
5062 1 10.2869 45.1041 3.9565
5063 1 11.8695 46.6867 5.5391
5064 1 10.2869 48.2693 0.7913
5065 1 11.8695 49.8519 2.3739
5066 1 10.2869 48.2693 3.9565
5067 1 11.8695 49.8519 5.5391
5068 1 13.4521 0.7913 0.7913
5069 1 15.0347 2.3739 2.3739
5070 1 13.4521 0.7913 3.9565
5071 1 15.0347 2.3739 5.5391
5072 1 13.4521 3.9565 0.7913
5073 1 15.0347 5.5391 2.3739
5074 1 13.4521 3.9565 3.9565
5075 1 15.0347 5.5391 5.5391
5076 1 13.4521 7.1217 0.7913
5077 1 15.0347 8.7043 2.3739
5078 1 13.4521 7.1217 3.9565
5079 1 15.0347 8.7043 5.5391
5080 1 13.4521 10.2869 0.7913
5081 1 15.0347 11.8695 2.3739
5082 1 13.4521 10.2869 3.9565
5083 1 15.0347 11.8695 5.5391
5084 1 13.4521 13.4521 0.7913
5085 1 15.0347 15.0347 2.3739
5086 1 13.4521 13.4521 3.9565
5087 1 15.0347 15.0347 5.5391
5088 1 13.4521 16.6173 0.7913
5089 1 15.0347 18.1999 2.3739
5090 1 13.4521 16.6173 3.9565
5091 1 15.0347 18.1999 5.5391
5092 1 13.4521 19.7825 0.7913
5093 1 15.0347 21.3651 2.3739
5094 1 13.4521 19.7825 3.9565
5095 1 15.0347 21.3651 5.5391
5096 1 13.4521 22.9477 0.7913
5097 1 15.0347 24.5303 2.3739
5098 1 13.4521 22.9477 3.9565
5099 1 15.0347 24.5303 5.5391
5100 1 13.4521 26.1129 0.7913
5101 1 15.0347 27.6955 2.3739
5102 1 13.4521 26.1129 3.9565
5103 1 15.0347 27.6955 5.5391
5104 1 13.4521 29.2781 0.7913
5105 1 15.0347 30.8607 2.3739
5106 1 13.4521 29.2781 3.9565
5107 1 15.0347 30.8607 5.5391
5108 1 13.4521 32.4433 0.7913
5109 1 15.0347 34.0259 2.3739
5110 1 13.4521 32.4433 3.9565
5111 1 15.0347 34.0259 5.5391
5112 1 13.4521 35.6085 0.7913
5113 1 15.0347 37.1911 2.3739
5114 1 13.4521 35.6085 3.9565
5115 1 15.0347 37.1911 5.5391
5116 1 13.4521 38.7737 0.7913
5117 1 15.0347 40.3563 2.3739
5118 1 13.4521 38.7737 3.9565
5119 1 15.0347 40.3563 5.5391
5120 1 13.4521 41.9389 0.7913
5121 1 15.0347 43.5215 2.3739
5122 1 13.4521 41.9389 3.9565
5123 1 15.0347 43.5215 5.5391
5124 1 13.4521 45.1041 0.7913
5125 1 15.0347 46.6867 2.3739
5126 1 13.4521 45.1041 3.9565
5127 1 15.0347 46.6867 5.5391
5128 1 13.4521 48.2693 0.7913
5129 1 15.0347 49.8519 2.3739
5130 1 13.4521 48.2693 3.9565
5131 1 15.0347 49.8519 5.5391
5132 1 16.6173 0.7913 0.7913
5133 1 18.1999 2.3739 2.3739
5134 1 16.6173 0.7913 3.9565
5135 1 18.1999 2.3739 5.5391
5136 1 16.6173 3.9565 0.7913
5137 1 18.1999 5.5391 2.3739
5138 1 16.6173 3.9565 3.9565
5139 1 18.1999 5.5391 5.5391
5140 1 16.6173 7.1217 0.7913
5141 1 18.1999 8.7043 2.3739
5142 1 16.6173 7.1217 3.9565
5143 1 18.1999 8.7043 5.5391
5144 1 16.6173 10.2869 0.7913
5145 1 18.1999 11.8695 2.3739
5146 1 16.6173 10.2869 3.9565
5147 1 18.1999 11.8695 5.5391
5148 1 16.6173 13.4521 0.7913
5149 1 18.1999 15.0347 2.3739
5150 1 16.6173 13.4521 3.9565
5151 1 18.1999 15.0347 5.5391
5152 1 16.6173 16.6173 0.7913
5153 1 18.1999 18.1999 2.3739
5154 1 16.6173 16.6173 3.9565
5155 1 18.1999 18.1999 5.5391
5156 1 16.6173 19.7825 0.7913
5157 1 18.1999 21.3651 2.3739
5158 1 16.6173 19.7825 3.9565
5159 1 18.1999 21.3651 5.5391
5160 1 16.6173 22.9477 0.7913
5161 1 18.1999 24.5303 2.3739
5162 1 16.6173 22.9477 3.9565
5163 1 18.1999 24.5303 5.5391
5164 1 16.6173 26.1129 0.7913
5165 1 18.1999 27.6955 2.3739
5166 1 16.6173 26.1129 3.9565
5167 1 18.1999 27.6955 5.5391
5168 1 16.6173 29.2781 0.7913
5169 1 18.1999 30.8607 2.3739
5170 1 16.6173 29.2781 3.9565
5171 1 18.1999 30.8607 5.5391
5172 1 16.6173 32.4433 0.7913
5173 1 18.1999 34.0259 2.3739
5174 1 16.6173 32.4433 3.9565
5175 1 18.1999 34.0259 5.5391
5176 1 16.6173 35.6085 0.7913
5177 1 18.1999 37.1911 2.3739
5178 1 16.6173 35.6085 3.9565
5179 1 18.1999 37.1911 5.5391
5180 1 16.6173 38.7737 0.7913
5181 1 18.1999 40.3563 2.3739
5182 1 16.6173 38.7737 3.9565
5183 1 18.1999 40.3563 5.5391
5184 1 16.6173 41.9389 0.7913
5185 1 18.1999 43.5215 2.3739
5186 1 16.6173 41.9389 3.9565
5187 1 18.1999 43.5215 5.5391
5188 1 16.6173 45.1041 0.7913
5189 1 18.1999 46.6867 2.3739
5190 1 16.6173 45.1041 3.9565
5191 1 18.1999 46.6867 5.5391
5192 1 16.6173 48.2693 0.7913
5193 1 18.1999 49.8519 2.3739
5194 1 16.6173 48.2693 3.9565
5195 1 18.1999 49.8519 5.5391
5196 1 19.7825 0.7913 0.7913
5197 1 21.3651 2.3739 2.3739
5198 1 19.7825 0.7913 3.9565
5199 1 21.3651 2.3739 5.5391
5200 1 19.7825 3.9565 0.7913
5201 1 21.3651 5.5391 2.3739
5202 1 19.7825 3.9565 3.9565
5203 1 21.3651 5.5391 5.5391
5204 1 19.7825 7.1217 0.7913
5205 1 21.3651 8.7043 2.3739
5206 1 19.7825 7.1217 3.9565
5207 1 21.3651 8.7043 5.5391
5208 1 19.7825 10.2869 0.7913
5209 1 21.3651 11.8695 2.3739
5210 1 19.7825 10.2869 3.9565
5211 1 21.3651 11.8695 5.5391
5212 1 19.7825 13.4521 0.7913
5213 1 21.3651 15.0347 2.3739
5214 1 19.7825 13.4521 3.9565
5215 1 21.3651 15.0347 5.5391
5216 1 19.7825 16.6173 0.7913
5217 1 21.3651 18.1999 2.3739
5218 1 19.7825 16.6173 3.9565
5219 1 21.3651 18.1999 5.5391
5220 1 19.7825 19.7825 0.7913
5221 1 21.3651 21.3651 2.3739
5222 1 19.7825 19.7825 3.9565
5223 1 21.3651 21.3651 5.5391
5224 1 19.7825 22.9477 0.7913
5225 1 21.3651 24.5303 2.3739
5226 1 19.7825 22.9477 3.9565
5227 1 21.3651 24.5303 5.5391
5228 1 19.7825 26.1129 0.7913
5229 1 21.3651 27.6955 2.3739
5230 1 19.7825 26.1129 3.9565
5231 1 21.3651 27.6955 5.5391
5232 1 19.7825 29.2781 0.7913
5233 1 21.3651 30.8607 2.3739
5234 1 19.7825 29.2781 3.9565
5235 1 21.3651 30.8607 5.5391
5236 1 19.7825 32.4433 0.7913
5237 1 21.3651 34.0259 2.3739
5238 1 19.7825 32.4433 3.9565
5239 1 21.3651 34.0259 5.5391
5240 1 19.7825 35.6085 0.7913
5241 1 21.3651 37.1911 2.3739
5242 1 19.7825 35.6085 3.9565
5243 1 21.3651 37.1911 5.5391
5244 1 19.7825 38.7737 0.7913
5245 1 21.3651 40.3563 2.3739
5246 1 19.7825 38.7737 3.9565
5247 1 21.3651 40.3563 5.5391
5248 1 19.7825 41.9389 0.7913
5249 1 21.3651 43.5215 2.3739
5250 1 19.7825 41.9389 3.9565
5251 1 21.3651 43.5215 5.5391
5252 1 19.7825 45.1041 0.7913
5253 1 21.3651 46.6867 2.3739
5254 1 19.7825 45.1041 3.9565
5255 1 21.3651 46.6867 5.5391
5256 1 19.7825 48.2693 0.7913
5257 1 21.3651 49.8519 2.3739
5258 1 19.7825 48.2693 3.9565
5259 1 21.3651 49.8519 5.5391
5260 1 22.9477 0.7913 0.7913
5261 1 24.5303 2.3739 2.3739
5262 1 22.9477 0.7913 3.9565
5263 1 24.5303 2.3739 5.5391
5264 1 22.9477 3.9565 0.7913
5265 1 24.5303 5.5391 2.3739
5266 1 22.9477 3.9565 3.9565
5267 1 24.5303 5.5391 5.5391
5268 1 22.9477 7.1217 0.7913
5269 1 24.5303 8.7043 2.3739
5270 1 22.9477 7.1217 3.9565
5271 1 24.5303 8.7043 5.5391
5272 1 22.9477 10.2869 0.7913
5273 1 24.5303 11.8695 2.3739
5274 1 22.9477 10.2869 3.9565
5275 1 24.5303 11.8695 5.5391
5276 1 22.9477 13.4521 0.7913
5277 1 24.5303 15.0347 2.3739
5278 1 22.9477 13.4521 3.9565
5279 1 24.5303 15.0347 5.5391
5280 1 22.9477 16.6173 0.7913
5281 1 24.5303 18.1999 2.3739
5282 1 22.9477 16.6173 3.9565
5283 1 24.5303 18.1999 5.5391
5284 1 22.9477 19.7825 0.7913
5285 1 24.5303 21.3651 2.3739
5286 1 22.9477 19.7825 3.9565
5287 1 24.5303 21.3651 5.5391
5288 1 22.9477 22.9477 0.7913
5289 1 24.5303 24.5303 2.3739
5290 1 22.9477 22.9477 3.9565
5291 1 24.5303 24.5303 5.5391
5292 1 22.9477 26.1129 0.7913
5293 1 24.5303 27.6955 2.3739
5294 1 22.9477 26.1129 3.9565
5295 1 24.5303 27.6955 5.5391
5296 1 22.9477 29.2781 0.7913
5297 1 24.5303 30.8607 2.3739
5298 1 22.9477 29.2781 3.9565
5299 1 24.5303 30.8607 5.5391
5300 1 22.9477 32.4433 0.7913
5301 1 24.5303 34.0259 2.3739
5302 1 22.9477 32.4433 3.9565
5303 1 24.5303 34.0259 5.5391
5304 1 22.9477 35.6085 0.7913
5305 1 24.5303 37.1911 2.3739
5306 1 22.9477 35.6085 3.9565
5307 1 24.5303 37.1911 5.5391
5308 1 22.9477 38.7737 0.7913
5309 1 24.5303 40.3563 2.3739
5310 1 22.9477 38.7737 3.9565
5311 1 24.5303 40.3563 5.5391
5312 1 22.9477 41.9389 0.7913
5313 1 24.5303 43.5215 2.3739
5314 1 22.9477 41.9389 3.9565
5315 1 24.5303 43.5215 5.5391
5316 1 22.9477 45.1041 0.7913
5317 1 24.5303 46.6867 2.3739
5318 1 22.9477 45.1041 3.9565
5319 1 24.5303 46.6867 5.5391
5320 1 22.9477 48.2693 0.7913
5321 1 24.5303 49.8519 2.3739
5322 1 22.9477 48.2693 3.9565
5323 1 24.5303 49.8519 5.5391
5324 1 26.1129 0.7913 0.7913
5325 1 27.6955 2.3739 2.3739
5326 1 26.1129 0.7913 3.9565
5327 1 27.6955 2.3739 5.5391
5328 1 26.1129 3.9565 0.7913
5329 1 27.6955 5.5391 2.3739
5330 1 26.1129 3.9565 3.9565
5331 1 27.6955 5.5391 5.5391
5332 1 26.1129 7.1217 0.7913
5333 1 27.6955 8.7043 2.3739
5334 1 26.1129 7.1217 3.9565
5335 1 27.6955 8.7043 5.5391
5336 1 26.1129 10.2869 0.7913
5337 1 27.6955 11.8695 2.3739
5338 1 26.1129 10.2869 3.9565
5339 1 27.6955 11.8695 5.5391
5340 1 26.1129 13.4521 0.7913
5341 1 27.6955 15.0347 2.3739
5342 1 26.1129 13.4521 3.9565
5343 1 27.6955 15.0347 5.5391
5344 1 26.1129 16.6173 0.7913
5345 1 27.6955 18.1999 2.3739
5346 1 26.1129 16.6173 3.9565
5347 1 27.6955 18.1999 5.5391
5348 1 26.1129 19.7825 0.7913
5349 1 27.6955 21.3651 2.3739
5350 1 26.1129 19.7825 3.9565
5351 1 27.6955 21.3651 5.5391
5352 1 26.1129 22.9477 0.7913
5353 1 27.6955 24.5303 2.3739
5354 1 26.1129 22.9477 3.9565
5355 1 27.6955 24.5303 5.5391
5356 1 26.1129 26.1129 0.7913
5357 1 27.6955 27.6955 2.3739
5358 1 26.1129 26.1129 3.9565
5359 1 27.6955 27.6955 5.5391
5360 1 26.1129 29.2781 0.7913
5361 1 27.6955 30.8607 2.3739
5362 1 26.1129 29.2781 3.9565
5363 1 27.6955 30.8607 5.5391
5364 1 26.1129 32.4433 0.7913
5365 1 27.6955 34.0259 2.3739
5366 1 26.1129 32.4433 3.9565
5367 1 27.6955 34.0259 5.5391
5368 1 26.1129 35.6085 0.7913
5369 1 27.6955 37.1911 2.3739
5370 1 26.1129 35.6085 3.9565
5371 1 27.6955 37.1911 5.5391
5372 1 26.1129 38.7737 0.7913
5373 1 27.6955 40.3563 2.3739
5374 1 26.1129 38.7737 3.9565
5375 1 27.6955 40.3563 5.5391
5376 1 26.1129 41.9389 0.7913
5377 1 27.6955 43.5215 2.3739
5378 1 26.1129 41.9389 3.9565
5379 1 27.6955 43.5215 5.5391
5380 1 26.1129 45.1041 0.7913
5381 1 27.6955 46.6867 2.3739
5382 1 26.1129 45.1041 3.9565
5383 1 27.6955 46.6867 5.5391
5384 1 26.1129 48.2693 0.7913
5385 1 27.6955 49.8519 2.3739
5386 1 26.1129 48.2693 3.9565
5387 1 27.6955 49.8519 5.5391
5388 1 29.2781 0.7913 0.7913
5389 1 30.8607 2.3739 2.3739
5390 1 29.2781 0.7913 3.9565
5391 1 30.8607 2.3739 5.5391
5392 1 29.2781 3.9565 0.7913
5393 1 30.8607 5.5391 2.3739
5394 1 29.2781 3.9565 3.9565
5395 1 30.8607 5.5391 5.5391
5396 1 29.2781 7.1217 0.7913
5397 1 30.8607 8.7043 2.3739
5398 1 29.2781 7.1217 3.9565
5399 1 30.8607 8.7043 5.5391
5400 1 29.2781 10.2869 0.7913
5401 1 30.8607 11.8695 2.3739
5402 1 29.2781 10.2869 3.9565
5403 1 30.8607 11.8695 5.5391
5404 1 29.2781 13.4521 0.7913
5405 1 30.8607 15.0347 2.3739
5406 1 29.2781 13.4521 3.9565
5407 1 30.8607 15.0347 5.5391
5408 1 29.2781 16.6173 0.7913
5409 1 30.8607 18.1999 2.3739
5410 1 29.2781 16.6173 3.9565
5411 1 30.8607 18.1999 5.5391
5412 1 29.2781 19.7825 0.7913
5413 1 30.8607 21.3651 2.3739
5414 1 29.2781 19.7825 3.9565
5415 1 30.8607 21.3651 5.5391
5416 1 29.2781 22.9477 0.7913
5417 1 30.8607 24.5303 2.3739
5418 1 29.2781 22.9477 3.9565
5419 1 30.8607 24.5303 5.5391
5420 1 29.2781 26.1129 0.7913
5421 1 30.8607 27.6955 2.3739
5422 1 29.2781 26.1129 3.9565
5423 1 30.8607 27.6955 5.5391
5424 1 29.2781 29.2781 0.7913
5425 1 30.8607 30.8607 2.3739
5426 1 29.2781 29.2781 3.9565
5427 1 30.8607 30.8607 5.5391
5428 1 29.2781 32.4433 0.7913
5429 1 30.8607 34.0259 2.3739
5430 1 29.2781 32.4433 3.9565
5431 1 30.8607 34.0259 5.5391
5432 1 29.2781 35.6085 0.7913
5433 1 30.8607 37.1911 2.3739
5434 1 29.2781 35.6085 3.9565
5435 1 30.8607 37.1911 5.5391
5436 1 29.2781 38.7737 0.7913
5437 1 30.8607 40.3563 2.3739
5438 1 29.2781 38.7737 3.9565
5439 1 30.8607 40.3563 5.5391
5440 1 29.2781 41.9389 0.7913
5441 1 30.8607 43.5215 2.3739
5442 1 29.2781 41.9389 3.9565
5443 1 30.8607 43.5215 5.5391
5444 1 29.2781 45.1041 0.7913
5445 1 30.8607 46.6867 2.3739
5446 1 29.2781 45.1041 3.9565
5447 1 30.8607 46.6867 5.5391
5448 1 29.2781 48.2693 0.7913
5449 1 30.8607 49.8519 2.3739
5450 1 29.2781 48.2693 3.9565
5451 1 30.8607 49.8519 5.5391
5452 1 32.4433 0.7913 0.7913
5453 1 34.0259 2.3739 2.3739
5454 1 32.4433 0.7913 3.9565
5455 1 34.0259 2.3739 5.5391
5456 1 32.4433 3.9565 0.7913
5457 1 34.0259 5.5391 2.3739
5458 1 32.4433 3.9565 3.9565
5459 1 34.0259 5.5391 5.5391
5460 1 32.4433 7.1217 0.7913
5461 1 34.0259 8.7043 2.3739
5462 1 32.4433 7.1217 3.9565
5463 1 34.0259 8.7043 5.5391
5464 1 32.4433 10.2869 0.7913
5465 1 34.0259 11.8695 2.3739
5466 1 32.4433 10.2869 3.9565
5467 1 34.0259 11.8695 5.5391
5468 1 32.4433 13.4521 0.7913
5469 1 34.0259 15.0347 2.3739
5470 1 32.4433 13.4521 3.9565
5471 1 34.0259 15.0347 5.5391
5472 1 32.4433 16.6173 0.7913
5473 1 34.0259 18.1999 2.3739
5474 1 32.4433 16.6173 3.9565
5475 1 34.0259 18.1999 5.5391
5476 1 32.4433 19.7825 0.7913
5477 1 34.0259 21.3651 2.3739
5478 1 32.4433 19.7825 3.9565
5479 1 34.0259 21.3651 5.5391
5480 1 32.4433 22.9477 0.7913
5481 1 34.0259 24.5303 2.3739
5482 1 32.4433 22.9477 3.9565
5483 1 34.0259 24.5303 5.5391
5484 1 32.4433 26.1129 0.7913
5485 1 34.0259 27.6955 2.3739
5486 1 32.4433 26.1129 3.9565
5487 1 34.0259 27.6955 5.5391
5488 1 32.4433 29.2781 0.7913
5489 1 34.0259 30.8607 2.3739
5490 1 32.4433 29.2781 3.9565
5491 1 34.0259 30.8607 5.5391
5492 1 32.4433 32.4433 0.7913
5493 1 34.0259 34.0259 2.3739
5494 1 32.4433 32.4433 3.9565
5495 1 34.0259 34.0259 5.5391
5496 1 32.4433 35.6085 0.7913
5497 1 34.0259 37.1911 2.3739
5498 1 32.4433 35.6085 3.9565
5499 1 34.0259 37.1911 5.5391
5500 1 32.4433 38.7737 0.7913
5501 1 34.0259 40.3563 2.3739
5502 1 32.4433 38.7737 3.9565
5503 1 34.0259 40.3563 5.5391
5504 1 32.4433 41.9389 0.7913
5505 1 34.0259 43.5215 2.3739
5506 1 32.4433 41.9389 3.9565
5507 1 34.0259 43.5215 5.5391
5508 1 32.4433 45.1041 0.7913
5509 1 34.0259 46.6867 2.3739
5510 1 32.4433 45.1041 3.9565
5511 1 34.0259 46.6867 5.5391
5512 1 32.4433 48.2693 0.7913
5513 1 34.0259 49.8519 2.3739
5514 1 32.4433 48.2693 3.9565
5515 1 34.0259 49.8519 5.5391
5516 1 35.6085 0.7913 0.7913
5517 1 37.1911 2.3739 2.3739
5518 1 35.6085 0.7913 3.9565
5519 1 37.1911 2.3739 5.5391
5520 1 35.6085 3.9565 0.7913
5521 1 37.1911 5.5391 2.3739
5522 1 35.6085 3.9565 3.9565
5523 1 37.1911 5.5391 5.5391
5524 1 35.6085 7.1217 0.7913
5525 1 37.1911 8.7043 2.3739
5526 1 35.6085 7.1217 3.9565
5527 1 37.1911 8.7043 5.5391
5528 1 35.6085 10.2869 0.7913
5529 1 37.1911 11.8695 2.3739
5530 1 35.6085 10.2869 3.9565
5531 1 37.1911 11.8695 5.5391
5532 1 35.6085 13.4521 0.7913
5533 1 37.1911 15.0347 2.3739
5534 1 35.6085 13.4521 3.9565
5535 1 37.1911 15.0347 5.5391
5536 1 35.6085 16.6173 0.7913
5537 1 37.1911 18.1999 2.3739
5538 1 35.6085 16.6173 3.9565
5539 1 37.1911 18.1999 5.5391
5540 1 35.6085 19.7825 0.7913
5541 1 37.1911 21.3651 2.3739
5542 1 35.6085 19.7825 3.9565
5543 1 37.1911 21.3651 5.5391
5544 1 35.6085 22.9477 0.7913
5545 1 37.1911 24.5303 2.3739
5546 1 35.6085 22.9477 3.9565
5547 1 37.1911 24.5303 5.5391
5548 1 35.6085 26.1129 0.7913
5549 1 37.1911 27.6955 2.3739
5550 1 35.6085 26.1129 3.9565
5551 1 37.1911 27.6955 5.5391
5552 1 35.6085 29.2781 0.7913
5553 1 37.1911 30.8607 2.3739
5554 1 35.6085 29.2781 3.9565
5555 1 37.1911 30.8607 5.5391
5556 1 35.6085 32.4433 0.7913
5557 1 37.1911 34.0259 2.3739
5558 1 35.6085 32.4433 3.9565
5559 1 37.1911 34.0259 5.5391
5560 1 35.6085 35.6085 0.7913
5561 1 37.1911 37.1911 2.3739
5562 1 35.6085 35.6085 3.9565
5563 1 37.1911 37.1911 5.5391
5564 1 35.6085 38.7737 0.7913
5565 1 37.1911 40.3563 2.3739
5566 1 35.6085 38.7737 3.9565
5567 1 37.1911 40.3563 5.5391
5568 1 35.6085 41.9389 0.7913
5569 1 37.1911 43.5215 2.3739
5570 1 35.6085 41.9389 3.9565
5571 1 37.1911 43.5215 5.5391
5572 1 35.6085 45.1041 0.7913
5573 1 37.1911 46.6867 2.3739
5574 1 35.6085 45.1041 3.9565
5575 1 37.1911 46.6867 5.5391
5576 1 35.6085 48.2693 0.7913
5577 1 37.1911 49.8519 2.3739
5578 1 35.6085 48.2693 3.9565
5579 1 37.1911 49.8519 5.5391
5580 1 38.7737 0.7913 0.7913
5581 1 40.3563 2.3739 2.3739
5582 1 38.7737 0.7913 3.9565
5583 1 40.3563 2.3739 5.5391
5584 1 38.7737 3.9565 0.7913
5585 1 40.3563 5.5391 2.3739
5586 1 38.7737 3.9565 3.9565
5587 1 40.3563 5.5391 5.5391
5588 1 38.7737 7.1217 0.7913
5589 1 40.3563 8.7043 2.3739
5590 1 38.7737 7.1217 3.9565
5591 1 40.3563 8.7043 5.5391
5592 1 38.7737 10.2869 0.7913
5593 1 40.3563 11.8695 2.3739
5594 1 38.7737 10.2869 3.9565
5595 1 40.3563 11.8695 5.5391
5596 1 38.7737 13.4521 0.7913
5597 1 40.3563 15.0347 2.3739
5598 1 38.7737 13.4521 3.9565
5599 1 40.3563 15.0347 5.5391
5600 1 38.7737 16.6173 0.7913
5601 1 40.3563 18.1999 2.3739
5602 1 38.7737 16.6173 3.9565
5603 1 40.3563 18.1999 5.5391
5604 1 38.7737 19.7825 0.7913
5605 1 40.3563 21.3651 2.3739
5606 1 38.7737 19.7825 3.9565
5607 1 40.3563 21.3651 5.5391
5608 1 38.7737 22.9477 0.7913
5609 1 40.3563 24.5303 2.3739
5610 1 38.7737 22.9477 3.9565
5611 1 40.3563 24.5303 5.5391
5612 1 38.7737 26.1129 0.7913
5613 1 40.3563 27.6955 2.3739
5614 1 38.7737 26.1129 3.9565
5615 1 40.3563 27.6955 5.5391
5616 1 38.7737 29.2781 0.7913
5617 1 40.3563 30.8607 2.3739
5618 1 38.7737 29.2781 3.9565
5619 1 40.3563 30.8607 5.5391
5620 1 38.7737 32.4433 0.7913
5621 1 40.3563 34.0259 2.3739
5622 1 38.7737 32.4433 3.9565
5623 1 40.3563 34.0259 5.5391
5624 1 38.7737 35.6085 0.7913
5625 1 40.3563 37.1911 2.3739
5626 1 38.7737 35.6085 3.9565
5627 1 40.3563 37.1911 5.5391
5628 1 38.7737 38.7737 0.7913
5629 1 40.3563 40.3563 2.3739
5630 1 38.7737 38.7737 3.9565
5631 1 40.3563 40.3563 5.5391
5632 1 38.7737 41.9389 0.7913
5633 1 40.3563 43.5215 2.3739
5634 1 38.7737 41.9389 3.9565
5635 1 40.3563 43.5215 5.5391
5636 1 38.7737 45.1041 0.7913
5637 1 40.3563 46.6867 2.3739
5638 1 38.7737 45.1041 3.9565
5639 1 40.3563 46.6867 5.5391
5640 1 38.7737 48.2693 0.7913
5641 1 40.3563 49.8519 2.3739
5642 1 38.7737 48.2693 3.9565
5643 1 40.3563 49.8519 5.5391
5644 1 41.9389 0.7913 0.7913
5645 1 43.5215 2.3739 2.3739
5646 1 41.9389 0.7913 3.9565
5647 1 43.5215 2.3739 5.5391
5648 1 41.9389 3.9565 0.7913
5649 1 43.5215 5.5391 2.3739
5650 1 41.9389 3.9565 3.9565
5651 1 43.5215 5.5391 5.5391
5652 1 41.9389 7.1217 0.7913
5653 1 43.5215 8.7043 2.3739
5654 1 41.9389 7.1217 3.9565
5655 1 43.5215 8.7043 5.5391
5656 1 41.9389 10.2869 0.7913
5657 1 43.5215 11.8695 2.3739
5658 1 41.9389 10.2869 3.9565
5659 1 43.5215 11.8695 5.5391
5660 1 41.9389 13.4521 0.7913
5661 1 43.5215 15.0347 2.3739
5662 1 41.9389 13.4521 3.9565
5663 1 43.5215 15.0347 5.5391
5664 1 41.9389 16.6173 0.7913
5665 1 43.5215 18.1999 2.3739
5666 1 41.9389 16.6173 3.9565
5667 1 43.5215 18.1999 5.5391
5668 1 41.9389 19.7825 0.7913
5669 1 43.5215 21.3651 2.3739
5670 1 41.9389 19.7825 3.9565
5671 1 43.5215 21.3651 5.5391
5672 1 41.9389 22.9477 0.7913
5673 1 43.5215 24.5303 2.3739
5674 1 41.9389 22.9477 3.9565
5675 1 43.5215 24.5303 5.5391
5676 1 41.9389 26.1129 0.7913
5677 1 43.5215 27.6955 2.3739
5678 1 41.9389 26.1129 3.9565
5679 1 43.5215 27.6955 5.5391
5680 1 41.9389 29.2781 0.7913
5681 1 43.5215 30.8607 2.3739
5682 1 41.9389 29.2781 3.9565
5683 1 43.5215 30.8607 5.5391
5684 1 41.9389 32.4433 0.7913
5685 1 43.5215 34.0259 2.3739
5686 1 41.9389 32.4433 3.9565
5687 1 43.5215 34.0259 5.5391
5688 1 41.9389 35.6085 0.7913
5689 1 43.5215 37.1911 2.3739
5690 1 41.9389 35.6085 3.9565
5691 1 43.5215 37.1911 5.5391
5692 1 41.9389 38.7737 0.7913
5693 1 43.5215 40.3563 2.3739
5694 1 41.9389 38.7737 3.9565
5695 1 43.5215 40.3563 5.5391
5696 1 41.9389 41.9389 0.7913
5697 1 43.5215 43.5215 2.3739
5698 1 41.9389 41.9389 3.9565
5699 1 43.5215 43.5215 5.5391
5700 1 41.9389 45.1041 0.7913
5701 1 43.5215 46.6867 2.3739
5702 1 41.9389 45.1041 3.9565
5703 1 43.5215 46.6867 5.5391
5704 1 41.9389 48.2693 0.7913
5705 1 43.5215 49.8519 2.3739
5706 1 41.9389 48.2693 3.9565
5707 1 43.5215 49.8519 5.5391
5708 1 7.1217 0.7913 45.1041
5709 1 8.7043 2.3739 46.6867
5710 1 7.1217 0.7913 48.2693
5711 1 8.7043 2.3739 49.8519
5712 1 7.1217 3.9565 45.1041
5713 1 8.7043 5.5391 46.6867
5714 1 7.1217 3.9565 48.2693
5715 1 8.7043 5.5391 49.8519
5716 1 7.1217 7.1217 45.1041
5717 1 8.7043 8.7043 46.6867
5718 1 7.1217 7.1217 48.2693
5719 1 8.7043 8.7043 49.8519
5720 1 7.1217 10.2869 45.1041
5721 1 8.7043 11.8695 46.6867
5722 1 7.1217 10.2869 48.2693
5723 1 8.7043 11.8695 49.8519
5724 1 7.1217 13.4521 45.1041
5725 1 8.7043 15.0347 46.6867
5726 1 7.1217 13.4521 48.2693
5727 1 8.7043 15.0347 49.8519
5728 1 7.1217 16.6173 45.1041
5729 1 8.7043 18.1999 46.6867
5730 1 7.1217 16.6173 48.2693
5731 1 8.7043 18.1999 49.8519
5732 1 7.1217 19.7825 45.1041
5733 1 8.7043 21.3651 46.6867
5734 1 7.1217 19.7825 48.2693
5735 1 8.7043 21.3651 49.8519
5736 1 7.1217 22.9477 45.1041
5737 1 8.7043 24.5303 46.6867
5738 1 7.1217 22.9477 48.2693
5739 1 8.7043 24.5303 49.8519
5740 1 7.1217 26.1129 45.1041
5741 1 8.7043 27.6955 46.6867
5742 1 7.1217 26.1129 48.2693
5743 1 8.7043 27.6955 49.8519
5744 1 7.1217 29.2781 45.1041
5745 1 8.7043 30.8607 46.6867
5746 1 7.1217 29.2781 48.2693
5747 1 8.7043 30.8607 49.8519
5748 1 7.1217 32.4433 45.1041
5749 1 8.7043 34.0259 46.6867
5750 1 7.1217 32.4433 48.2693
5751 1 8.7043 34.0259 49.8519
5752 1 7.1217 35.6085 45.1041
5753 1 8.7043 37.1911 46.6867
5754 1 7.1217 35.6085 48.2693
5755 1 8.7043 37.1911 49.8519
5756 1 7.1217 38.7737 45.1041
5757 1 8.7043 40.3563 46.6867
5758 1 7.1217 38.7737 48.2693
5759 1 8.7043 40.3563 49.8519
5760 1 7.1217 41.9389 45.1041
5761 1 8.7043 43.5215 46.6867
5762 1 7.1217 41.9389 48.2693
5763 1 8.7043 43.5215 49.8519
5764 1 7.1217 45.1041 45.1041
5765 1 8.7043 46.6867 46.6867
5766 1 7.1217 45.1041 48.2693
5767 1 8.7043 46.6867 49.8519
5768 1 7.1217 48.2693 45.1041
5769 1 8.7043 49.8519 46.6867
5770 1 7.1217 48.2693 48.2693
5771 1 8.7043 49.8519 49.8519
5772 1 10.2869 0.7913 45.1041
5773 1 11.8695 2.3739 46.6867
5774 1 10.2869 0.7913 48.2693
5775 1 11.8695 2.3739 49.8519
5776 1 10.2869 3.9565 45.1041
5777 1 11.8695 5.5391 46.6867
5778 1 10.2869 3.9565 48.2693
5779 1 11.8695 5.5391 49.8519
5780 1 10.2869 7.1217 45.1041
5781 1 11.8695 8.7043 46.6867
5782 1 10.2869 7.1217 48.2693
5783 1 11.8695 8.7043 49.8519
5784 1 10.2869 10.2869 45.1041
5785 1 11.8695 11.8695 46.6867
5786 1 10.2869 10.2869 48.2693
5787 1 11.8695 11.8695 49.8519
5788 1 10.2869 13.4521 45.1041
5789 1 11.8695 15.0347 46.6867
5790 1 10.2869 13.4521 48.2693
5791 1 11.8695 15.0347 49.8519
5792 1 10.2869 16.6173 45.1041
5793 1 11.8695 18.1999 46.6867
5794 1 10.2869 16.6173 48.2693
5795 1 11.8695 18.1999 49.8519
5796 1 10.2869 19.7825 45.1041
5797 1 11.8695 21.3651 46.6867
5798 1 10.2869 19.7825 48.2693
5799 1 11.8695 21.3651 49.8519
5800 1 10.2869 22.9477 45.1041
5801 1 11.8695 24.5303 46.6867
5802 1 10.2869 22.9477 48.2693
5803 1 11.8695 24.5303 49.8519
5804 1 10.2869 26.1129 45.1041
5805 1 11.8695 27.6955 46.6867
5806 1 10.2869 26.1129 48.2693
5807 1 11.8695 27.6955 49.8519
5808 1 10.2869 29.2781 45.1041
5809 1 11.8695 30.8607 46.6867
5810 1 10.2869 29.2781 48.2693
5811 1 11.8695 30.8607 49.8519
5812 1 10.2869 32.4433 45.1041
5813 1 11.8695 34.0259 46.6867
5814 1 10.2869 32.4433 48.2693
5815 1 11.8695 34.0259 49.8519
5816 1 10.2869 35.6085 45.1041
5817 1 11.8695 37.1911 46.6867
5818 1 10.2869 35.6085 48.2693
5819 1 11.8695 37.1911 49.8519
5820 1 10.2869 38.7737 45.1041
5821 1 11.8695 40.3563 46.6867
5822 1 10.2869 38.7737 48.2693
5823 1 11.8695 40.3563 49.8519
5824 1 10.2869 41.9389 45.1041
5825 1 11.8695 43.5215 46.6867
5826 1 10.2869 41.9389 48.2693
5827 1 11.8695 43.5215 49.8519
5828 1 10.2869 45.1041 45.1041
5829 1 11.8695 46.6867 46.6867
5830 1 10.2869 45.1041 48.2693
5831 1 11.8695 46.6867 49.8519
5832 1 10.2869 48.2693 45.1041
5833 1 11.8695 49.8519 46.6867
5834 1 10.2869 48.2693 48.2693
5835 1 11.8695 49.8519 49.8519
5836 1 13.4521 0.7913 45.1041
5837 1 15.0347 2.3739 46.6867
5838 1 13.4521 0.7913 48.2693
5839 1 15.0347 2.3739 49.8519
5840 1 13.4521 3.9565 45.1041
5841 1 15.0347 5.5391 46.6867
5842 1 13.4521 3.9565 48.2693
5843 1 15.0347 5.5391 49.8519
5844 1 13.4521 7.1217 45.1041
5845 1 15.0347 8.7043 46.6867
5846 1 13.4521 7.1217 48.2693
5847 1 15.0347 8.7043 49.8519
5848 1 13.4521 10.2869 45.1041
5849 1 15.0347 11.8695 46.6867
5850 1 13.4521 10.2869 48.2693
5851 1 15.0347 11.8695 49.8519
5852 1 13.4521 13.4521 45.1041
5853 1 15.0347 15.0347 46.6867
5854 1 13.4521 13.4521 48.2693
5855 1 15.0347 15.0347 49.8519
5856 1 13.4521 16.6173 45.1041
5857 1 15.0347 18.1999 46.6867
5858 1 13.4521 16.6173 48.2693
5859 1 15.0347 18.1999 49.8519
5860 1 13.4521 19.7825 45.1041
5861 1 15.0347 21.3651 46.6867
5862 1 13.4521 19.7825 48.2693
5863 1 15.0347 21.3651 49.8519
5864 1 13.4521 22.9477 45.1041
5865 1 15.0347 24.5303 46.6867
5866 1 13.4521 22.9477 48.2693
5867 1 15.0347 24.5303 49.8519
5868 1 13.4521 26.1129 45.1041
5869 1 15.0347 27.6955 46.6867
5870 1 13.4521 26.1129 48.2693
5871 1 15.0347 27.6955 49.8519
5872 1 13.4521 29.2781 45.1041
5873 1 15.0347 30.8607 46.6867
5874 1 13.4521 29.2781 48.2693
5875 1 15.0347 30.8607 49.8519
5876 1 13.4521 32.4433 45.1041
5877 1 15.0347 34.0259 46.6867
5878 1 13.4521 32.4433 48.2693
5879 1 15.0347 34.0259 49.8519
5880 1 13.4521 35.6085 45.1041
5881 1 15.0347 37.1911 46.6867
5882 1 13.4521 35.6085 48.2693
5883 1 15.0347 37.1911 49.8519
5884 1 13.4521 38.7737 45.1041
5885 1 15.0347 40.3563 46.6867
5886 1 13.4521 38.7737 48.2693
5887 1 15.0347 40.3563 49.8519
5888 1 13.4521 41.9389 45.1041
5889 1 15.0347 43.5215 46.6867
5890 1 13.4521 41.9389 48.2693
5891 1 15.0347 43.5215 49.8519
5892 1 13.4521 45.1041 45.1041
5893 1 15.0347 46.6867 46.6867
5894 1 13.4521 45.1041 48.2693
5895 1 15.0347 46.6867 49.8519
5896 1 13.4521 48.2693 45.1041
5897 1 15.0347 49.8519 46.6867
5898 1 13.4521 48.2693 48.2693
5899 1 15.0347 49.8519 49.8519
5900 1 16.6173 0.7913 45.1041
5901 1 18.1999 2.3739 46.6867
5902 1 16.6173 0.7913 48.2693
5903 1 18.1999 2.3739 49.8519
5904 1 16.6173 3.9565 45.1041
5905 1 18.1999 5.5391 46.6867
5906 1 16.6173 3.9565 48.2693
5907 1 18.1999 5.5391 49.8519
5908 1 16.6173 7.1217 45.1041
5909 1 18.1999 8.7043 46.6867
5910 1 16.6173 7.1217 48.2693
5911 1 18.1999 8.7043 49.8519
5912 1 16.6173 10.2869 45.1041
5913 1 18.1999 11.8695 46.6867
5914 1 16.6173 10.2869 48.2693
5915 1 18.1999 11.8695 49.8519
5916 1 16.6173 13.4521 45.1041
5917 1 18.1999 15.0347 46.6867
5918 1 16.6173 13.4521 48.2693
5919 1 18.1999 15.0347 49.8519
5920 1 16.6173 16.6173 45.1041
5921 1 18.1999 18.1999 46.6867
5922 1 16.6173 16.6173 48.2693
5923 1 18.1999 18.1999 49.8519
5924 1 16.6173 19.7825 45.1041
5925 1 18.1999 21.3651 46.6867
5926 1 16.6173 19.7825 48.2693
5927 1 18.1999 21.3651 49.8519
5928 1 16.6173 22.9477 45.1041
5929 1 18.1999 24.5303 46.6867
5930 1 16.6173 22.9477 48.2693
5931 1 18.1999 24.5303 49.8519
5932 1 16.6173 26.1129 45.1041
5933 1 18.1999 27.6955 46.6867
5934 1 16.6173 26.1129 48.2693
5935 1 18.1999 27.6955 49.8519
5936 1 16.6173 29.2781 45.1041
5937 1 18.1999 30.8607 46.6867
5938 1 16.6173 29.2781 48.2693
5939 1 18.1999 30.8607 49.8519
5940 1 16.6173 32.4433 45.1041
5941 1 18.1999 34.0259 46.6867
5942 1 16.6173 32.4433 48.2693
5943 1 18.1999 34.0259 49.8519
5944 1 16.6173 35.6085 45.1041
5945 1 18.1999 37.1911 46.6867
5946 1 16.6173 35.6085 48.2693
5947 1 18.1999 37.1911 49.8519
5948 1 16.6173 38.7737 45.1041
5949 1 18.1999 40.3563 46.6867
5950 1 16.6173 38.7737 48.2693
5951 1 18.1999 40.3563 49.8519
5952 1 16.6173 41.9389 45.1041
5953 1 18.1999 43.5215 46.6867
5954 1 16.6173 41.9389 48.2693
5955 1 18.1999 43.5215 49.8519
5956 1 16.6173 45.1041 45.1041
5957 1 18.1999 46.6867 46.6867
5958 1 16.6173 45.1041 48.2693
5959 1 18.1999 46.6867 49.8519
5960 1 16.6173 48.2693 45.1041
5961 1 18.1999 49.8519 46.6867
5962 1 16.6173 48.2693 48.2693
5963 1 18.1999 49.8519 49.8519
5964 1 19.7825 0.7913 45.1041
5965 1 21.3651 2.3739 46.6867
5966 1 19.7825 0.7913 48.2693
5967 1 21.3651 2.3739 49.8519
5968 1 19.7825 3.9565 45.1041
5969 1 21.3651 5.5391 46.6867
5970 1 19.7825 3.9565 48.2693
5971 1 21.3651 5.5391 49.8519
5972 1 19.7825 7.1217 45.1041
5973 1 21.3651 8.7043 46.6867
5974 1 19.7825 7.1217 48.2693
5975 1 21.3651 8.7043 49.8519
5976 1 19.7825 10.2869 45.1041
5977 1 21.3651 11.8695 46.6867
5978 1 19.7825 10.2869 48.2693
5979 1 21.3651 11.8695 49.8519
5980 1 19.7825 13.4521 45.1041
5981 1 21.3651 15.0347 46.6867
5982 1 19.7825 13.4521 48.2693
5983 1 21.3651 15.0347 49.8519
5984 1 19.7825 16.6173 45.1041
5985 1 21.3651 18.1999 46.6867
5986 1 19.7825 16.6173 48.2693
5987 1 21.3651 18.1999 49.8519
5988 1 19.7825 19.7825 45.1041
5989 1 21.3651 21.3651 46.6867
5990 1 19.7825 19.7825 48.2693
5991 1 21.3651 21.3651 49.8519
5992 1 19.7825 22.9477 45.1041
5993 1 21.3651 24.5303 46.6867
5994 1 19.7825 22.9477 48.2693
5995 1 21.3651 24.5303 49.8519
5996 1 19.7825 26.1129 45.1041
5997 1 21.3651 27.6955 46.6867
5998 1 19.7825 26.1129 48.2693
5999 1 21.3651 27.6955 49.8519
6000 1 19.7825 29.2781 45.1041
6001 1 21.3651 30.8607 46.6867
6002 1 19.7825 29.2781 48.2693
6003 1 21.3651 30.8607 49.8519
6004 1 19.7825 32.4433 45.1041
6005 1 21.3651 34.0259 46.6867
6006 1 19.7825 32.4433 48.2693
6007 1 21.3651 34.0259 49.8519
6008 1 19.7825 35.6085 45.1041
6009 1 21.3651 37.1911 46.6867
6010 1 19.7825 35.6085 48.2693
6011 1 21.3651 37.1911 49.8519
6012 1 19.7825 38.7737 45.1041
6013 1 21.3651 40.3563 46.6867
6014 1 19.7825 38.7737 48.2693
6015 1 21.3651 40.3563 49.8519
6016 1 19.7825 41.9389 45.1041
6017 1 21.3651 43.5215 46.6867
6018 1 19.7825 41.9389 48.2693
6019 1 21.3651 43.5215 49.8519
6020 1 19.7825 45.1041 45.1041
6021 1 21.3651 46.6867 46.6867
6022 1 19.7825 45.1041 48.2693
6023 1 21.3651 46.6867 49.8519
6024 1 19.7825 48.2693 45.1041
6025 1 21.3651 49.8519 46.6867
6026 1 19.7825 48.2693 48.2693
6027 1 21.3651 49.8519 49.8519
6028 1 22.9477 0.7913 45.1041
6029 1 24.5303 2.3739 46.6867
6030 1 22.9477 0.7913 48.2693
6031 1 24.5303 2.3739 49.8519
6032 1 22.9477 3.9565 45.1041
6033 1 24.5303 5.5391 46.6867
6034 1 22.9477 3.9565 48.2693
6035 1 24.5303 5.5391 49.8519
6036 1 22.9477 7.1217 45.1041
6037 1 24.5303 8.7043 46.6867
6038 1 22.9477 7.1217 48.2693
6039 1 24.5303 8.7043 49.8519
6040 1 22.9477 10.2869 45.1041
6041 1 24.5303 11.8695 46.6867
6042 1 22.9477 10.2869 48.2693
6043 1 24.5303 11.8695 49.8519
6044 1 22.9477 13.4521 45.1041
6045 1 24.5303 15.0347 46.6867
6046 1 22.9477 13.4521 48.2693
6047 1 24.5303 15.0347 49.8519
6048 1 22.9477 16.6173 45.1041
6049 1 24.5303 18.1999 46.6867
6050 1 22.9477 16.6173 48.2693
6051 1 24.5303 18.1999 49.8519
6052 1 22.9477 19.7825 45.1041
6053 1 24.5303 21.3651 46.6867
6054 1 22.9477 19.7825 48.2693
6055 1 24.5303 21.3651 49.8519
6056 1 22.9477 22.9477 45.1041
6057 1 24.5303 24.5303 46.6867
6058 1 22.9477 22.9477 48.2693
6059 1 24.5303 24.5303 49.8519
6060 1 22.9477 26.1129 45.1041
6061 1 24.5303 27.6955 46.6867
6062 1 22.9477 26.1129 48.2693
6063 1 24.5303 27.6955 49.8519
6064 1 22.9477 29.2781 45.1041
6065 1 24.5303 30.8607 46.6867
6066 1 22.9477 29.2781 48.2693
6067 1 24.5303 30.8607 49.8519
6068 1 22.9477 32.4433 45.1041
6069 1 24.5303 34.0259 46.6867
6070 1 22.9477 32.4433 48.2693
6071 1 24.5303 34.0259 49.8519
6072 1 22.9477 35.6085 45.1041
6073 1 24.5303 37.1911 46.6867
6074 1 22.9477 35.6085 48.2693
6075 1 24.5303 37.1911 49.8519
6076 1 22.9477 38.7737 45.1041
6077 1 24.5303 40.3563 46.6867
6078 1 22.9477 38.7737 48.2693
6079 1 24.5303 40.3563 49.8519
6080 1 22.9477 41.9389 45.1041
6081 1 24.5303 43.5215 46.6867
6082 1 22.9477 41.9389 48.2693
6083 1 24.5303 43.5215 49.8519
6084 1 22.9477 45.1041 45.1041
6085 1 24.5303 46.6867 46.6867
6086 1 22.9477 45.1041 48.2693
6087 1 24.5303 46.6867 49.8519
6088 1 22.9477 48.2693 45.1041
6089 1 24.5303 49.8519 46.6867
6090 1 22.9477 48.2693 48.2693
6091 1 24.5303 49.8519 49.8519
6092 1 26.1129 0.7913 45.1041
6093 1 27.6955 2.3739 46.6867
6094 1 26.1129 0.7913 48.2693
6095 1 27.6955 2.3739 49.8519
6096 1 26.1129 3.9565 45.1041
6097 1 27.6955 5.5391 46.6867
6098 1 26.1129 3.9565 48.2693
6099 1 27.6955 5.5391 49.8519
6100 1 26.1129 7.1217 45.1041
6101 1 27.6955 8.7043 46.6867
6102 1 26.1129 7.1217 48.2693
6103 1 27.6955 8.7043 49.8519
6104 1 26.1129 10.2869 45.1041
6105 1 27.6955 11.8695 46.6867
6106 1 26.1129 10.2869 48.2693
6107 1 27.6955 11.8695 49.8519
6108 1 26.1129 13.4521 45.1041
6109 1 27.6955 15.0347 46.6867
6110 1 26.1129 13.4521 48.2693
6111 1 27.6955 15.0347 49.8519
6112 1 26.1129 16.6173 45.1041
6113 1 27.6955 18.1999 46.6867
6114 1 26.1129 16.6173 48.2693
6115 1 27.6955 18.1999 49.8519
6116 1 26.1129 19.7825 45.1041
6117 1 27.6955 21.3651 46.6867
6118 1 26.1129 19.7825 48.2693
6119 1 27.6955 21.3651 49.8519
6120 1 26.1129 22.9477 45.1041
6121 1 27.6955 24.5303 46.6867
6122 1 26.1129 22.9477 48.2693
6123 1 27.6955 24.5303 49.8519
6124 1 26.1129 26.1129 45.1041
6125 1 27.6955 27.6955 46.6867
6126 1 26.1129 26.1129 48.2693
6127 1 27.6955 27.6955 49.8519
6128 1 26.1129 29.2781 45.1041
6129 1 27.6955 30.8607 46.6867
6130 1 26.1129 29.2781 48.2693
6131 1 27.6955 30.8607 49.8519
6132 1 26.1129 32.4433 45.1041
6133 1 27.6955 34.0259 46.6867
6134 1 26.1129 32.4433 48.2693
6135 1 27.6955 34.0259 49.8519
6136 1 26.1129 35.6085 45.1041
6137 1 27.6955 37.1911 46.6867
6138 1 26.1129 35.6085 48.2693
6139 1 27.6955 37.1911 49.8519
6140 1 26.1129 38.7737 45.1041
6141 1 27.6955 40.3563 46.6867
6142 1 26.1129 38.7737 48.2693
6143 1 27.6955 40.3563 49.8519
6144 1 26.1129 41.9389 45.1041
6145 1 27.6955 43.5215 46.6867
6146 1 26.1129 41.9389 48.2693
6147 1 27.6955 43.5215 49.8519
6148 1 26.1129 45.1041 45.1041
6149 1 27.6955 46.6867 46.6867
6150 1 26.1129 45.1041 48.2693
6151 1 27.6955 46.6867 49.8519
6152 1 26.1129 48.2693 45.1041
6153 1 27.6955 49.8519 46.6867
6154 1 26.1129 48.2693 48.2693
6155 1 27.6955 49.8519 49.8519
6156 1 29.2781 0.7913 45.1041
6157 1 30.8607 2.3739 46.6867
6158 1 29.2781 0.7913 48.2693
6159 1 30.8607 2.3739 49.8519
6160 1 29.2781 3.9565 45.1041
6161 1 30.8607 5.5391 46.6867
6162 1 29.2781 3.9565 48.2693
6163 1 30.8607 5.5391 49.8519
6164 1 29.2781 7.1217 45.1041
6165 1 30.8607 8.7043 46.6867
6166 1 29.2781 7.1217 48.2693
6167 1 30.8607 8.7043 49.8519
6168 1 29.2781 10.2869 45.1041
6169 1 30.8607 11.8695 46.6867
6170 1 29.2781 10.2869 48.2693
6171 1 30.8607 11.8695 49.8519
6172 1 29.2781 13.4521 45.1041
6173 1 30.8607 15.0347 46.6867
6174 1 29.2781 13.4521 48.2693
6175 1 30.8607 15.0347 49.8519
6176 1 29.2781 16.6173 45.1041
6177 1 30.8607 18.1999 46.6867
6178 1 29.2781 16.6173 48.2693
6179 1 30.8607 18.1999 49.8519
6180 1 29.2781 19.7825 45.1041
6181 1 30.8607 21.3651 46.6867
6182 1 29.2781 19.7825 48.2693
6183 1 30.8607 21.3651 49.8519
6184 1 29.2781 22.9477 45.1041
6185 1 30.8607 24.5303 46.6867
6186 1 29.2781 22.9477 48.2693
6187 1 30.8607 24.5303 49.8519
6188 1 29.2781 26.1129 45.1041
6189 1 30.8607 27.6955 46.6867
6190 1 29.2781 26.1129 48.2693
6191 1 30.8607 27.6955 49.8519
6192 1 29.2781 29.2781 45.1041
6193 1 30.8607 30.8607 46.6867
6194 1 29.2781 29.2781 48.2693
6195 1 30.8607 30.8607 49.8519
6196 1 29.2781 32.4433 45.1041
6197 1 30.8607 34.0259 46.6867
6198 1 29.2781 32.4433 48.2693
6199 1 30.8607 34.0259 49.8519
6200 1 29.2781 35.6085 45.1041
6201 1 30.8607 37.1911 46.6867
6202 1 29.2781 35.6085 48.2693
6203 1 30.8607 37.1911 49.8519
6204 1 29.2781 38.7737 45.1041
6205 1 30.8607 40.3563 46.6867
6206 1 29.2781 38.7737 48.2693
6207 1 30.8607 40.3563 49.8519
6208 1 29.2781 41.9389 45.1041
6209 1 30.8607 43.5215 46.6867
6210 1 29.2781 41.9389 48.2693
6211 1 30.8607 43.5215 49.8519
6212 1 29.2781 45.1041 45.1041
6213 1 30.8607 46.6867 46.6867
6214 1 29.2781 45.1041 48.2693
6215 1 30.8607 46.6867 49.8519
6216 1 29.2781 48.2693 45.1041
6217 1 30.8607 49.8519 46.6867
6218 1 29.2781 48.2693 48.2693
6219 1 30.8607 49.8519 49.8519
6220 1 32.4433 0.7913 45.1041
6221 1 34.0259 2.3739 46.6867
6222 1 32.4433 0.7913 48.2693
6223 1 34.0259 2.3739 49.8519
6224 1 32.4433 3.9565 45.1041
6225 1 34.0259 5.5391 46.6867
6226 1 32.4433 3.9565 48.2693
6227 1 34.0259 5.5391 49.8519
6228 1 32.4433 7.1217 45.1041
6229 1 34.0259 8.7043 46.6867
6230 1 32.4433 7.1217 48.2693
6231 1 34.0259 8.7043 49.8519
6232 1 32.4433 10.2869 45.1041
6233 1 34.0259 11.8695 46.6867
6234 1 32.4433 10.2869 48.2693
6235 1 34.0259 11.8695 49.8519
6236 1 32.4433 13.4521 45.1041
6237 1 34.0259 15.0347 46.6867
6238 1 32.4433 13.4521 48.2693
6239 1 34.0259 15.0347 49.8519
6240 1 32.4433 16.6173 45.1041
6241 1 34.0259 18.1999 46.6867
6242 1 32.4433 16.6173 48.2693
6243 1 34.0259 18.1999 49.8519
6244 1 32.4433 19.7825 45.1041
6245 1 34.0259 21.3651 46.6867
6246 1 32.4433 19.7825 48.2693
6247 1 34.0259 21.3651 49.8519
6248 1 32.4433 22.9477 45.1041
6249 1 34.0259 24.5303 46.6867
6250 1 32.4433 22.9477 48.2693
6251 1 34.0259 24.5303 49.8519
6252 1 32.4433 26.1129 45.1041
6253 1 34.0259 27.6955 46.6867
6254 1 32.4433 26.1129 48.2693
6255 1 34.0259 27.6955 49.8519
6256 1 32.4433 29.2781 45.1041
6257 1 34.0259 30.8607 46.6867
6258 1 32.4433 29.2781 48.2693
6259 1 34.0259 30.8607 49.8519
6260 1 32.4433 32.4433 45.1041
6261 1 34.0259 34.0259 46.6867
6262 1 32.4433 32.4433 48.2693
6263 1 34.0259 34.0259 49.8519
6264 1 32.4433 35.6085 45.1041
6265 1 34.0259 37.1911 46.6867
6266 1 32.4433 35.6085 48.2693
6267 1 34.0259 37.1911 49.8519
6268 1 32.4433 38.7737 45.1041
6269 1 34.0259 40.3563 46.6867
6270 1 32.4433 38.7737 48.2693
6271 1 34.0259 40.3563 49.8519
6272 1 32.4433 41.9389 45.1041
6273 1 34.0259 43.5215 46.6867
6274 1 32.4433 41.9389 48.2693
6275 1 34.0259 43.5215 49.8519
6276 1 32.4433 45.1041 45.1041
6277 1 34.0259 46.6867 46.6867
6278 1 32.4433 45.1041 48.2693
6279 1 34.0259 46.6867 49.8519
6280 1 32.4433 48.2693 45.1041
6281 1 34.0259 49.8519 46.6867
6282 1 32.4433 48.2693 48.2693
6283 1 34.0259 49.8519 49.8519
6284 1 35.6085 0.7913 45.1041
6285 1 37.1911 2.3739 46.6867
6286 1 35.6085 0.7913 48.2693
6287 1 37.1911 2.3739 49.8519
6288 1 35.6085 3.9565 45.1041
6289 1 37.1911 5.5391 46.6867
6290 1 35.6085 3.9565 48.2693
6291 1 37.1911 5.5391 49.8519
6292 1 35.6085 7.1217 45.1041
6293 1 37.1911 8.7043 46.6867
6294 1 35.6085 7.1217 48.2693
6295 1 37.1911 8.7043 49.8519
6296 1 35.6085 10.2869 45.1041
6297 1 37.1911 11.8695 46.6867
6298 1 35.6085 10.2869 48.2693
6299 1 37.1911 11.8695 49.8519
6300 1 35.6085 13.4521 45.1041
6301 1 37.1911 15.0347 46.6867
6302 1 35.6085 13.4521 48.2693
6303 1 37.1911 15.0347 49.8519
6304 1 35.6085 16.6173 45.1041
6305 1 37.1911 18.1999 46.6867
6306 1 35.6085 16.6173 48.2693
6307 1 37.1911 18.1999 49.8519
6308 1 35.6085 19.7825 45.1041
6309 1 37.1911 21.3651 46.6867
6310 1 35.6085 19.7825 48.2693
6311 1 37.1911 21.3651 49.8519
6312 1 35.6085 22.9477 45.1041
6313 1 37.1911 24.5303 46.6867
6314 1 35.6085 22.9477 48.2693
6315 1 37.1911 24.5303 49.8519
6316 1 35.6085 26.1129 45.1041
6317 1 37.1911 27.6955 46.6867
6318 1 35.6085 26.1129 48.2693
6319 1 37.1911 27.6955 49.8519
6320 1 35.6085 29.2781 45.1041
6321 1 37.1911 30.8607 46.6867
6322 1 35.6085 29.2781 48.2693
6323 1 37.1911 30.8607 49.8519
6324 1 35.6085 32.4433 45.1041
6325 1 37.1911 34.0259 46.6867
6326 1 35.6085 32.4433 48.2693
6327 1 37.1911 34.0259 49.8519
6328 1 35.6085 35.6085 45.1041
6329 1 37.1911 37.1911 46.6867
6330 1 35.6085 35.6085 48.2693
6331 1 37.1911 37.1911 49.8519
6332 1 35.6085 38.7737 45.1041
6333 1 37.1911 40.3563 46.6867
6334 1 35.6085 38.7737 48.2693
6335 1 37.1911 40.3563 49.8519
6336 1 35.6085 41.9389 45.1041
6337 1 37.1911 43.5215 46.6867
6338 1 35.6085 41.9389 48.2693
6339 1 37.1911 43.5215 49.8519
6340 1 35.6085 45.1041 45.1041
6341 1 37.1911 46.6867 46.6867
6342 1 35.6085 45.1041 48.2693
6343 1 37.1911 46.6867 49.8519
6344 1 35.6085 48.2693 45.1041
6345 1 37.1911 49.8519 46.6867
6346 1 35.6085 48.2693 48.2693
6347 1 37.1911 49.8519 49.8519
6348 1 38.7737 0.7913 45.1041
6349 1 40.3563 2.3739 46.6867
6350 1 38.7737 0.7913 48.2693
6351 1 40.3563 2.3739 49.8519
6352 1 38.7737 3.9565 45.1041
6353 1 40.3563 5.5391 46.6867
6354 1 38.7737 3.9565 48.2693
6355 1 40.3563 5.5391 49.8519
6356 1 38.7737 7.1217 45.1041
6357 1 40.3563 8.7043 46.6867
6358 1 38.7737 7.1217 48.2693
6359 1 40.3563 8.7043 49.8519
6360 1 38.7737 10.2869 45.1041
6361 1 40.3563 11.8695 46.6867
6362 1 38.7737 10.2869 48.2693
6363 1 40.3563 11.8695 49.8519
6364 1 38.7737 13.4521 45.1041
6365 1 40.3563 15.0347 46.6867
6366 1 38.7737 13.4521 48.2693
6367 1 40.3563 15.0347 49.8519
6368 1 38.7737 16.6173 45.1041
6369 1 40.3563 18.1999 46.6867
6370 1 38.7737 16.6173 48.2693
6371 1 40.3563 18.1999 49.8519
6372 1 38.7737 19.7825 45.1041
6373 1 40.3563 21.3651 46.6867
6374 1 38.7737 19.7825 48.2693
6375 1 40.3563 21.3651 49.8519
6376 1 38.7737 22.9477 45.1041
6377 1 40.3563 24.5303 46.6867
6378 1 38.7737 22.9477 48.2693
6379 1 40.3563 24.5303 49.8519
6380 1 38.7737 26.1129 45.1041
6381 1 40.3563 27.6955 46.6867
6382 1 38.7737 26.1129 48.2693
6383 1 40.3563 27.6955 49.8519
6384 1 38.7737 29.2781 45.1041
6385 1 40.3563 30.8607 46.6867
6386 1 38.7737 29.2781 48.2693
6387 1 40.3563 30.8607 49.8519
6388 1 38.7737 32.4433 45.1041
6389 1 40.3563 34.0259 46.6867
6390 1 38.7737 32.4433 48.2693
6391 1 40.3563 34.0259 49.8519
6392 1 38.7737 35.6085 45.1041
6393 1 40.3563 37.1911 46.6867
6394 1 38.7737 35.6085 48.2693
6395 1 40.3563 37.1911 49.8519
6396 1 38.7737 38.7737 45.1041
6397 1 40.3563 40.3563 46.6867
6398 1 38.7737 38.7737 48.2693
6399 1 40.3563 40.3563 49.8519
6400 1 38.7737 41.9389 45.1041
6401 1 40.3563 43.5215 46.6867
6402 1 38.7737 41.9389 48.2693
6403 1 40.3563 43.5215 49.8519
6404 1 38.7737 45.1041 45.1041
6405 1 40.3563 46.6867 46.6867
6406 1 38.7737 45.1041 48.2693
6407 1 40.3563 46.6867 49.8519
6408 1 38.7737 48.2693 45.1041
6409 1 40.3563 49.8519 46.6867
6410 1 38.7737 48.2693 48.2693
6411 1 40.3563 49.8519 49.8519
6412 1 41.9389 0.7913 45.1041
6413 1 43.5215 2.3739 46.6867
6414 1 41.9389 0.7913 48.2693
6415 1 43.5215 2.3739 49.8519
6416 1 41.9389 3.9565 45.1041
6417 1 43.5215 5.5391 46.6867
6418 1 41.9389 3.9565 48.2693
6419 1 43.5215 5.5391 49.8519
6420 1 41.9389 7.1217 45.1041
6421 1 43.5215 8.7043 46.6867
6422 1 41.9389 7.1217 48.2693
6423 1 43.5215 8.7043 49.8519
6424 1 41.9389 10.2869 45.1041
6425 1 43.5215 11.8695 46.6867
6426 1 41.9389 10.2869 48.2693
6427 1 43.5215 11.8695 49.8519
6428 1 41.9389 13.4521 45.1041
6429 1 43.5215 15.0347 46.6867
6430 1 41.9389 13.4521 48.2693
6431 1 43.5215 15.0347 49.8519
6432 1 41.9389 16.6173 45.1041
6433 1 43.5215 18.1999 46.6867
6434 1 41.9389 16.6173 48.2693
6435 1 43.5215 18.1999 49.8519
6436 1 41.9389 19.7825 45.1041
6437 1 43.5215 21.3651 46.6867
6438 1 41.9389 19.7825 48.2693
6439 1 43.5215 21.3651 49.8519
6440 1 41.9389 22.9477 45.1041
6441 1 43.5215 24.5303 46.6867
6442 1 41.9389 22.9477 48.2693
6443 1 43.5215 24.5303 49.8519
6444 1 41.9389 26.1129 45.1041
6445 1 43.5215 27.6955 46.6867
6446 1 41.9389 26.1129 48.2693
6447 1 43.5215 27.6955 49.8519
6448 1 41.9389 29.2781 45.1041
6449 1 43.5215 30.8607 46.6867
6450 1 41.9389 29.2781 48.2693
6451 1 43.5215 30.8607 49.8519
6452 1 41.9389 32.4433 45.1041
6453 1 43.5215 34.0259 46.6867
6454 1 41.9389 32.4433 48.2693
6455 1 43.5215 34.0259 49.8519
6456 1 41.9389 35.6085 45.1041
6457 1 43.5215 37.1911 46.6867
6458 1 41.9389 35.6085 48.2693
6459 1 43.5215 37.1911 49.8519
6460 1 41.9389 38.7737 45.1041
6461 1 43.5215 40.3563 46.6867
6462 1 41.9389 38.7737 48.2693
6463 1 43.5215 40.3563 49.8519
6464 1 41.9389 41.9389 45.1041
6465 1 43.5215 43.5215 46.6867
6466 1 41.9389 41.9389 48.2693
6467 1 43.5215 43.5215 49.8519
6468 1 41.9389 45.1041 45.1041
6469 1 43.5215 46.6867 46.6867
6470 1 41.9389 45.1041 48.2693
6471 1 43.5215 46.6867 49.8519
6472 1 41.9389 48.2693 45.1041
6473 1 43.5215 49.8519 46.6867
6474 1 41.9389 48.2693 48.2693
6475 1 43.5215 49.8519 49.8519
6476 1 7.1217 0.7913 7.1217
6477 1 8.7043 2.3739 8.7043
6478 1 7.1217 0.7913 10.2869
6479 1 8.7043 2.3739 11.8695
6480 1 7.1217 0.7913 13.4521
6481 1 8.7043 2.3739 15.0347
6482 1 7.1217 0.7913 16.6173
6483 1 8.7043 2.3739 18.1999
6484 1 7.1217 0.7913 19.7825
6485 1 8.7043 2.3739 21.3651
6486 1 7.1217 0.7913 22.9477
6487 1 8.7043 2.3739 24.5303
6488 1 7.1217 0.7913 26.1129
6489 1 8.7043 2.3739 27.6955
6490 1 7.1217 0.7913 29.2781
6491 1 8.7043 2.3739 30.8607
6492 1 7.1217 0.7913 32.4433
6493 1 8.7043 2.3739 34.0259
6494 1 7.1217 0.7913 35.6085
6495 1 8.7043 2.3739 37.1911
6496 1 7.1217 0.7913 38.7737
6497 1 8.7043 2.3739 40.3563
6498 1 7.1217 0.7913 41.9389
6499 1 8.7043 2.3739 43.5215
6500 1 7.1217 3.9565 7.1217
6501 1 8.7043 5.5391 8.7043
6502 1 7.1217 3.9565 10.2869
6503 1 8.7043 5.5391 11.8695
6504 1 7.1217 3.9565 13.4521
6505 1 8.7043 5.5391 15.0347
6506 1 7.1217 3.9565 16.6173
6507 1 8.7043 5.5391 18.1999
6508 1 7.1217 3.9565 19.7825
6509 1 8.7043 5.5391 21.3651
6510 1 7.1217 3.9565 22.9477
6511 1 8.7043 5.5391 24.5303
6512 1 7.1217 3.9565 26.1129
6513 1 8.7043 5.5391 27.6955
6514 1 7.1217 3.9565 29.2781
6515 1 8.7043 5.5391 30.8607
6516 1 7.1217 3.9565 32.4433
6517 1 8.7043 5.5391 34.0259
6518 1 7.1217 3.9565 35.6085
6519 1 8.7043 5.5391 37.1911
6520 1 7.1217 3.9565 38.7737
6521 1 8.7043 5.5391 40.3563
6522 1 7.1217 3.9565 41.9389
6523 1 8.7043 5.5391 43.5215
6524 1 7.1217 7.1217 7.1217
6525 1 8.7043 8.7043 8.7043
6526 1 7.1217 7.1217 10.2869
6527 1 8.7043 8.7043 11.8695
6528 1 7.1217 7.1217 13.4521
6529 1 8.7043 8.7043 15.0347
6530 1 7.1217 7.1217 16.6173
6531 1 8.7043 8.7043 18.1999
6532 1 7.1217 7.1217 19.7825
6533 1 8.7043 8.7043 21.3651
6534 1 7.1217 7.1217 22.9477
6535 1 8.7043 8.7043 24.5303
6536 1 7.1217 7.1217 26.1129
6537 1 8.7043 8.7043 27.6955
6538 1 7.1217 7.1217 29.2781
6539 1 8.7043 8.7043 30.8607
6540 1 7.1217 7.1217 32.4433
6541 1 8.7043 8.7043 34.0259
6542 1 7.1217 7.1217 35.6085
6543 1 8.7043 8.7043 37.1911
6544 1 7.1217 7.1217 38.7737
6545 1 8.7043 8.7043 40.3563
6546 1 7.1217 7.1217 41.9389
6547 1 8.7043 8.7043 43.5215
6548 1 10.2869 0.7913 7.1217
6549 1 11.8695 2.3739 8.7043
6550 1 10.2869 0.7913 10.2869
6551 1 11.8695 2.3739 11.8695
6552 1 10.2869 0.7913 13.4521
6553 1 11.8695 2.3739 15.0347
6554 1 10.2869 0.7913 16.6173
6555 1 11.8695 2.3739 18.1999
6556 1 10.2869 0.7913 19.7825
6557 1 11.8695 2.3739 21.3651
6558 1 10.2869 0.7913 22.9477
6559 1 11.8695 2.3739 24.5303
6560 1 10.2869 0.7913 26.1129
6561 1 11.8695 2.3739 27.6955
6562 1 10.2869 0.7913 29.2781
6563 1 11.8695 2.3739 30.8607
6564 1 10.2869 0.7913 32.4433
6565 1 11.8695 2.3739 34.0259
6566 1 10.2869 0.7913 35.6085
6567 1 11.8695 2.3739 37.1911
6568 1 10.2869 0.7913 38.7737
6569 1 11.8695 2.3739 40.3563
6570 1 10.2869 0.7913 41.9389
6571 1 11.8695 2.3739 43.5215
6572 1 10.2869 3.9565 7.1217
6573 1 11.8695 5.5391 8.7043
6574 1 10.2869 3.9565 10.2869
6575 1 11.8695 5.5391 11.8695
6576 1 10.2869 3.9565 13.4521
6577 1 11.8695 5.5391 15.0347
6578 1 10.2869 3.9565 16.6173
6579 1 11.8695 5.5391 18.1999
6580 1 10.2869 3.9565 19.7825
6581 1 11.8695 5.5391 21.3651
6582 1 10.2869 3.9565 22.9477
6583 1 11.8695 5.5391 24.5303
6584 1 10.2869 3.9565 26.1129
6585 1 11.8695 5.5391 27.6955
6586 1 10.2869 3.9565 29.2781
6587 1 11.8695 5.5391 30.8607
6588 1 10.2869 3.9565 32.4433
6589 1 11.8695 5.5391 34.0259
6590 1 10.2869 3.9565 35.6085
6591 1 11.8695 5.5391 37.1911
6592 1 10.2869 3.9565 38.7737
6593 1 11.8695 5.5391 40.3563
6594 1 10.2869 3.9565 41.9389
6595 1 11.8695 5.5391 43.5215
6596 1 10.2869 7.1217 7.1217
6597 1 11.8695 8.7043 8.7043
6598 1 10.2869 7.1217 10.2869
6599 1 11.8695 8.7043 11.8695
6600 1 10.2869 7.1217 13.4521
6601 1 11.8695 8.7043 15.0347
6602 1 10.2869 7.1217 16.6173
6603 1 11.8695 8.7043 18.1999
6604 1 10.2869 7.1217 19.7825
6605 1 11.8695 8.7043 21.3651
6606 1 10.2869 7.1217 22.9477
6607 1 11.8695 8.7043 24.5303
6608 1 10.2869 7.1217 26.1129
6609 1 11.8695 8.7043 27.6955
6610 1 10.2869 7.1217 29.2781
6611 1 11.8695 8.7043 30.8607
6612 1 10.2869 7.1217 32.4433
6613 1 11.8695 8.7043 34.0259
6614 1 10.2869 7.1217 35.6085
6615 1 11.8695 8.7043 37.1911
6616 1 10.2869 7.1217 38.7737
6617 1 11.8695 8.7043 40.3563
6618 1 10.2869 7.1217 41.9389
6619 1 11.8695 8.7043 43.5215
6620 1 13.4521 0.7913 7.1217
6621 1 15.0347 2.3739 8.7043
6622 1 13.4521 0.7913 10.2869
6623 1 15.0347 2.3739 11.8695
6624 1 13.4521 0.7913 13.4521
6625 1 15.0347 2.3739 15.0347
6626 1 13.4521 0.7913 16.6173
6627 1 15.0347 2.3739 18.1999
6628 1 13.4521 0.7913 19.7825
6629 1 15.0347 2.3739 21.3651
6630 1 13.4521 0.7913 22.9477
6631 1 15.0347 2.3739 24.5303
6632 1 13.4521 0.7913 26.1129
6633 1 15.0347 2.3739 27.6955
6634 1 13.4521 0.7913 29.2781
6635 1 15.0347 2.3739 30.8607
6636 1 13.4521 0.7913 32.4433
6637 1 15.0347 2.3739 34.0259
6638 1 13.4521 0.7913 35.6085
6639 1 15.0347 2.3739 37.1911
6640 1 13.4521 0.7913 38.7737
6641 1 15.0347 2.3739 40.3563
6642 1 13.4521 0.7913 41.9389
6643 1 15.0347 2.3739 43.5215
6644 1 13.4521 3.9565 7.1217
6645 1 15.0347 5.5391 8.7043
6646 1 13.4521 3.9565 10.2869
6647 1 15.0347 5.5391 11.8695
6648 1 13.4521 3.9565 13.4521
6649 1 15.0347 5.5391 15.0347
6650 1 13.4521 3.9565 16.6173
6651 1 15.0347 5.5391 18.1999
6652 1 13.4521 3.9565 19.7825
6653 1 15.0347 5.5391 21.3651
6654 1 13.4521 3.9565 22.9477
6655 1 15.0347 5.5391 24.5303
6656 1 13.4521 3.9565 26.1129
6657 1 15.0347 5.5391 27.6955
6658 1 13.4521 3.9565 29.2781
6659 1 15.0347 5.5391 30.8607
6660 1 13.4521 3.9565 32.4433
6661 1 15.0347 5.5391 34.0259
6662 1 13.4521 3.9565 35.6085
6663 1 15.0347 5.5391 37.1911
6664 1 13.4521 3.9565 38.7737
6665 1 15.0347 5.5391 40.3563
6666 1 13.4521 3.9565 41.9389
6667 1 15.0347 5.5391 43.5215
6668 1 13.4521 7.1217 7.1217
6669 1 15.0347 8.7043 8.7043
6670 1 13.4521 7.1217 10.2869
6671 1 15.0347 8.7043 11.8695
6672 1 13.4521 7.1217 13.4521
6673 1 15.0347 8.7043 15.0347
6674 1 13.4521 7.1217 16.6173
6675 1 15.0347 8.7043 18.1999
6676 1 13.4521 7.1217 19.7825
6677 1 15.0347 8.7043 21.3651
6678 1 13.4521 7.1217 22.9477
6679 1 15.0347 8.7043 24.5303
6680 1 13.4521 7.1217 26.1129
6681 1 15.0347 8.7043 27.6955
6682 1 13.4521 7.1217 29.2781
6683 1 15.0347 8.7043 30.8607
6684 1 13.4521 7.1217 32.4433
6685 1 15.0347 8.7043 34.0259
6686 1 13.4521 7.1217 35.6085
6687 1 15.0347 8.7043 37.1911
6688 1 13.4521 7.1217 38.7737
6689 1 15.0347 8.7043 40.3563
6690 1 13.4521 7.1217 41.9389
6691 1 15.0347 8.7043 43.5215
6692 1 16.6173 0.7913 7.1217
6693 1 18.1999 2.3739 8.7043
6694 1 16.6173 0.7913 10.2869
6695 1 18.1999 2.3739 11.8695
6696 1 16.6173 0.7913 13.4521
6697 1 18.1999 2.3739 15.0347
6698 1 16.6173 0.7913 16.6173
6699 1 18.1999 2.3739 18.1999
6700 1 16.6173 0.7913 19.7825
6701 1 18.1999 2.3739 21.3651
6702 1 16.6173 0.7913 22.9477
6703 1 18.1999 2.3739 24.5303
6704 1 16.6173 0.7913 26.1129
6705 1 18.1999 2.3739 27.6955
6706 1 16.6173 0.7913 29.2781
6707 1 18.1999 2.3739 30.8607
6708 1 16.6173 0.7913 32.4433
6709 1 18.1999 2.3739 34.0259
6710 1 16.6173 0.7913 35.6085
6711 1 18.1999 2.3739 37.1911
6712 1 16.6173 0.7913 38.7737
6713 1 18.1999 2.3739 40.3563
6714 1 16.6173 0.7913 41.9389
6715 1 18.1999 2.3739 43.5215
6716 1 16.6173 3.9565 7.1217
6717 1 18.1999 5.5391 8.7043
6718 1 16.6173 3.9565 10.2869
6719 1 18.1999 5.5391 11.8695
6720 1 16.6173 3.9565 13.4521
6721 1 18.1999 5.5391 15.0347
6722 1 16.6173 3.9565 16.6173
6723 1 18.1999 5.5391 18.1999
6724 1 16.6173 3.9565 19.7825
6725 1 18.1999 5.5391 21.3651
6726 1 16.6173 3.9565 22.9477
6727 1 18.1999 5.5391 24.5303
6728 1 16.6173 3.9565 26.1129
6729 1 18.1999 5.5391 27.6955
6730 1 16.6173 3.9565 29.2781
6731 1 18.1999 5.5391 30.8607
6732 1 16.6173 3.9565 32.4433
6733 1 18.1999 5.5391 34.0259
6734 1 16.6173 3.9565 35.6085
6735 1 18.1999 5.5391 37.1911
6736 1 16.6173 3.9565 38.7737
6737 1 18.1999 5.5391 40.3563
6738 1 16.6173 3.9565 41.9389
6739 1 18.1999 5.5391 43.5215
6740 1 16.6173 7.1217 7.1217
6741 1 18.1999 8.7043 8.7043
6742 1 16.6173 7.1217 10.2869
6743 1 18.1999 8.7043 11.8695
6744 1 16.6173 7.1217 13.4521
6745 1 18.1999 8.7043 15.0347
6746 1 16.6173 7.1217 16.6173
6747 1 18.1999 8.7043 18.1999
6748 1 16.6173 7.1217 19.7825
6749 1 18.1999 8.7043 21.3651
6750 1 16.6173 7.1217 22.9477
6751 1 18.1999 8.7043 24.5303
6752 1 16.6173 7.1217 26.1129
6753 1 18.1999 8.7043 27.6955
6754 1 16.6173 7.1217 29.2781
6755 1 18.1999 8.7043 30.8607
6756 1 16.6173 7.1217 32.4433
6757 1 18.1999 8.7043 34.0259
6758 1 16.6173 7.1217 35.6085
6759 1 18.1999 8.7043 37.1911
6760 1 16.6173 7.1217 38.7737
6761 1 18.1999 8.7043 40.3563
6762 1 16.6173 7.1217 41.9389
6763 1 18.1999 8.7043 43.5215
6764 1 19.7825 0.7913 7.1217
6765 1 21.3651 2.3739 8.7043
6766 1 19.7825 0.7913 10.2869
6767 1 21.3651 2.3739 11.8695
6768 1 19.7825 0.7913 13.4521
6769 1 21.3651 2.3739 15.0347
6770 1 19.7825 0.7913 16.6173
6771 1 21.3651 2.3739 18.1999
6772 1 19.7825 0.7913 19.7825
6773 1 21.3651 2.3739 21.3651
6774 1 19.7825 0.7913 22.9477
6775 1 21.3651 2.3739 24.5303
6776 1 19.7825 0.7913 26.1129
6777 1 21.3651 2.3739 27.6955
6778 1 19.7825 0.7913 29.2781
6779 1 21.3651 2.3739 30.8607
6780 1 19.7825 0.7913 32.4433
6781 1 21.3651 2.3739 34.0259
6782 1 19.7825 0.7913 35.6085
6783 1 21.3651 2.3739 37.1911
6784 1 19.7825 0.7913 38.7737
6785 1 21.3651 2.3739 40.3563
6786 1 19.7825 0.7913 41.9389
6787 1 21.3651 2.3739 43.5215
6788 1 19.7825 3.9565 7.1217
6789 1 21.3651 5.5391 8.7043
6790 1 19.7825 3.9565 10.2869
6791 1 21.3651 5.5391 11.8695
6792 1 19.7825 3.9565 13.4521
6793 1 21.3651 5.5391 15.0347
6794 1 19.7825 3.9565 16.6173
6795 1 21.3651 5.5391 18.1999
6796 1 19.7825 3.9565 19.7825
6797 1 21.3651 5.5391 21.3651
6798 1 19.7825 3.9565 22.9477
6799 1 21.3651 5.5391 24.5303
6800 1 19.7825 3.9565 26.1129
6801 1 21.3651 5.5391 27.6955
6802 1 19.7825 3.9565 29.2781
6803 1 21.3651 5.5391 30.8607
6804 1 19.7825 3.9565 32.4433
6805 1 21.3651 5.5391 34.0259
6806 1 19.7825 3.9565 35.6085
6807 1 21.3651 5.5391 37.1911
6808 1 19.7825 3.9565 38.7737
6809 1 21.3651 5.5391 40.3563
6810 1 19.7825 3.9565 41.9389
6811 1 21.3651 5.5391 43.5215
6812 1 19.7825 7.1217 7.1217
6813 1 21.3651 8.7043 8.7043
6814 1 19.7825 7.1217 10.2869
6815 1 21.3651 8.7043 11.8695
6816 1 19.7825 7.1217 13.4521
6817 1 21.3651 8.7043 15.0347
6818 1 19.7825 7.1217 16.6173
6819 1 21.3651 8.7043 18.1999
6820 1 19.7825 7.1217 19.7825
6821 1 21.3651 8.7043 21.3651
6822 1 19.7825 7.1217 22.9477
6823 1 21.3651 8.7043 24.5303
6824 1 19.7825 7.1217 26.1129
6825 1 21.3651 8.7043 27.6955
6826 1 19.7825 7.1217 29.2781
6827 1 21.3651 8.7043 30.8607
6828 1 19.7825 7.1217 32.4433
6829 1 21.3651 8.7043 34.0259
6830 1 19.7825 7.1217 35.6085
6831 1 21.3651 8.7043 37.1911
6832 1 19.7825 7.1217 38.7737
6833 1 21.3651 8.7043 40.3563
6834 1 19.7825 7.1217 41.9389
6835 1 21.3651 8.7043 43.5215
6836 1 22.9477 0.7913 7.1217
6837 1 24.5303 2.3739 8.7043
6838 1 22.9477 0.7913 10.2869
6839 1 24.5303 2.3739 11.8695
6840 1 22.9477 0.7913 13.4521
6841 1 24.5303 2.3739 15.0347
6842 1 22.9477 0.7913 16.6173
6843 1 24.5303 2.3739 18.1999
6844 1 22.9477 0.7913 19.7825
6845 1 24.5303 2.3739 21.3651
6846 1 22.9477 0.7913 22.9477
6847 1 24.5303 2.3739 24.5303
6848 1 22.9477 0.7913 26.1129
6849 1 24.5303 2.3739 27.6955
6850 1 22.9477 0.7913 29.2781
6851 1 24.5303 2.3739 30.8607
6852 1 22.9477 0.7913 32.4433
6853 1 24.5303 2.3739 34.0259
6854 1 22.9477 0.7913 35.6085
6855 1 24.5303 2.3739 37.1911
6856 1 22.9477 0.7913 38.7737
6857 1 24.5303 2.3739 40.3563
6858 1 22.9477 0.7913 41.9389
6859 1 24.5303 2.3739 43.5215
6860 1 22.9477 3.9565 7.1217
6861 1 24.5303 5.5391 8.7043
6862 1 22.9477 3.9565 10.2869
6863 1 24.5303 5.5391 11.8695
6864 1 22.9477 3.9565 13.4521
6865 1 24.5303 5.5391 15.0347
6866 1 22.9477 3.9565 16.6173
6867 1 24.5303 5.5391 18.1999
6868 1 22.9477 3.9565 19.7825
6869 1 24.5303 5.5391 21.3651
6870 1 22.9477 3.9565 22.9477
6871 1 24.5303 5.5391 24.5303
6872 1 22.9477 3.9565 26.1129
6873 1 24.5303 5.5391 27.6955
6874 1 22.9477 3.9565 29.2781
6875 1 24.5303 5.5391 30.8607
6876 1 22.9477 3.9565 32.4433
6877 1 24.5303 5.5391 34.0259
6878 1 22.9477 3.9565 35.6085
6879 1 24.5303 5.5391 37.1911
6880 1 22.9477 3.9565 38.7737
6881 1 24.5303 5.5391 40.3563
6882 1 22.9477 3.9565 41.9389
6883 1 24.5303 5.5391 43.5215
6884 1 22.9477 7.1217 7.1217
6885 1 24.5303 8.7043 8.7043
6886 1 22.9477 7.1217 10.2869
6887 1 24.5303 8.7043 11.8695
6888 1 22.9477 7.1217 13.4521
6889 1 24.5303 8.7043 15.0347
6890 1 22.9477 7.1217 16.6173
6891 1 24.5303 8.7043 18.1999
6892 1 22.9477 7.1217 19.7825
6893 1 24.5303 8.7043 21.3651
6894 1 22.9477 7.1217 22.9477
6895 1 24.5303 8.7043 24.5303
6896 1 22.9477 7.1217 26.1129
6897 1 24.5303 8.7043 27.6955
6898 1 22.9477 7.1217 29.2781
6899 1 24.5303 8.7043 30.8607
6900 1 22.9477 7.1217 32.4433
6901 1 24.5303 8.7043 34.0259
6902 1 22.9477 7.1217 35.6085
6903 1 24.5303 8.7043 37.1911
6904 1 22.9477 7.1217 38.7737
6905 1 24.5303 8.7043 40.3563
6906 1 22.9477 7.1217 41.9389
6907 1 24.5303 8.7043 43.5215
6908 1 26.1129 0.7913 7.1217
6909 1 27.6955 2.3739 8.7043
6910 1 26.1129 0.7913 10.2869
6911 1 27.6955 2.3739 11.8695
6912 1 26.1129 0.7913 13.4521
6913 1 27.6955 2.3739 15.0347
6914 1 26.1129 0.7913 16.6173
6915 1 27.6955 2.3739 18.1999
6916 1 26.1129 0.7913 19.7825
6917 1 27.6955 2.3739 21.3651
6918 1 26.1129 0.7913 22.9477
6919 1 27.6955 2.3739 24.5303
6920 1 26.1129 0.7913 26.1129
6921 1 27.6955 2.3739 27.6955
6922 1 26.1129 0.7913 29.2781
6923 1 27.6955 2.3739 30.8607
6924 1 26.1129 0.7913 32.4433
6925 1 27.6955 2.3739 34.0259
6926 1 26.1129 0.7913 35.6085
6927 1 27.6955 2.3739 37.1911
6928 1 26.1129 0.7913 38.7737
6929 1 27.6955 2.3739 40.3563
6930 1 26.1129 0.7913 41.9389
6931 1 27.6955 2.3739 43.5215
6932 1 26.1129 3.9565 7.1217
6933 1 27.6955 5.5391 8.7043
6934 1 26.1129 3.9565 10.2869
6935 1 27.6955 5.5391 11.8695
6936 1 26.1129 3.9565 13.4521
6937 1 27.6955 5.5391 15.0347
6938 1 26.1129 3.9565 16.6173
6939 1 27.6955 5.5391 18.1999
6940 1 26.1129 3.9565 19.7825
6941 1 27.6955 5.5391 21.3651
6942 1 26.1129 3.9565 22.9477
6943 1 27.6955 5.5391 24.5303
6944 1 26.1129 3.9565 26.1129
6945 1 27.6955 5.5391 27.6955
6946 1 26.1129 3.9565 29.2781
6947 1 27.6955 5.5391 30.8607
6948 1 26.1129 3.9565 32.4433
6949 1 27.6955 5.5391 34.0259
6950 1 26.1129 3.9565 35.6085
6951 1 27.6955 5.5391 37.1911
6952 1 26.1129 3.9565 38.7737
6953 1 27.6955 5.5391 40.3563
6954 1 26.1129 3.9565 41.9389
6955 1 27.6955 5.5391 43.5215
6956 1 26.1129 7.1217 7.1217
6957 1 27.6955 8.7043 8.7043
6958 1 26.1129 7.1217 10.2869
6959 1 27.6955 8.7043 11.8695
6960 1 26.1129 7.1217 13.4521
6961 1 27.6955 8.7043 15.0347
6962 1 26.1129 7.1217 16.6173
6963 1 27.6955 8.7043 18.1999
6964 1 26.1129 7.1217 19.7825
6965 1 27.6955 8.7043 21.3651
6966 1 26.1129 7.1217 22.9477
6967 1 27.6955 8.7043 24.5303
6968 1 26.1129 7.1217 26.1129
6969 1 27.6955 8.7043 27.6955
6970 1 26.1129 7.1217 29.2781
6971 1 27.6955 8.7043 30.8607
6972 1 26.1129 7.1217 32.4433
6973 1 27.6955 8.7043 34.0259
6974 1 26.1129 7.1217 35.6085
6975 1 27.6955 8.7043 37.1911
6976 1 26.1129 7.1217 38.7737
6977 1 27.6955 8.7043 40.3563
6978 1 26.1129 7.1217 41.9389
6979 1 27.6955 8.7043 43.5215
6980 1 29.2781 0.7913 7.1217
6981 1 30.8607 2.3739 8.7043
6982 1 29.2781 0.7913 10.2869
6983 1 30.8607 2.3739 11.8695
6984 1 29.2781 0.7913 13.4521
6985 1 30.8607 2.3739 15.0347
6986 1 29.2781 0.7913 16.6173
6987 1 30.8607 2.3739 18.1999
6988 1 29.2781 0.7913 19.7825
6989 1 30.8607 2.3739 21.3651
6990 1 29.2781 0.7913 22.9477
6991 1 30.8607 2.3739 24.5303
6992 1 29.2781 0.7913 26.1129
6993 1 30.8607 2.3739 27.6955
6994 1 29.2781 0.7913 29.2781
6995 1 30.8607 2.3739 30.8607
6996 1 29.2781 0.7913 32.4433
6997 1 30.8607 2.3739 34.0259
6998 1 29.2781 0.7913 35.6085
6999 1 30.8607 2.3739 37.1911
7000 1 29.2781 0.7913 38.7737
7001 1 30.8607 2.3739 40.3563
7002 1 29.2781 0.7913 41.9389
7003 1 30.8607 2.3739 43.5215
7004 1 29.2781 3.9565 7.1217
7005 1 30.8607 5.5391 8.7043
7006 1 29.2781 3.9565 10.2869
7007 1 30.8607 5.5391 11.8695
7008 1 29.2781 3.9565 13.4521
7009 1 30.8607 5.5391 15.0347
7010 1 29.2781 3.9565 16.6173
7011 1 30.8607 5.5391 18.1999
7012 1 29.2781 3.9565 19.7825
7013 1 30.8607 5.5391 21.3651
7014 1 29.2781 3.9565 22.9477
7015 1 30.8607 5.5391 24.5303
7016 1 29.2781 3.9565 26.1129
7017 1 30.8607 5.5391 27.6955
7018 1 29.2781 3.9565 29.2781
7019 1 30.8607 5.5391 30.8607
7020 1 29.2781 3.9565 32.4433
7021 1 30.8607 5.5391 34.0259
7022 1 29.2781 3.9565 35.6085
7023 1 30.8607 5.5391 37.1911
7024 1 29.2781 3.9565 38.7737
7025 1 30.8607 5.5391 40.3563
7026 1 29.2781 3.9565 41.9389
7027 1 30.8607 5.5391 43.5215
7028 1 29.2781 7.1217 7.1217
7029 1 30.8607 8.7043 8.7043
7030 1 29.2781 7.1217 10.2869
7031 1 30.8607 8.7043 11.8695
7032 1 29.2781 7.1217 13.4521
7033 1 30.8607 8.7043 15.0347
7034 1 29.2781 7.1217 16.6173
7035 1 30.8607 8.7043 18.1999
7036 1 29.2781 7.1217 19.7825
7037 1 30.8607 8.7043 21.3651
7038 1 29.2781 7.1217 22.9477
7039 1 30.8607 8.7043 24.5303
7040 1 29.2781 7.1217 26.1129
7041 1 30.8607 8.7043 27.6955
7042 1 29.2781 7.1217 29.2781
7043 1 30.8607 8.7043 30.8607
7044 1 29.2781 7.1217 32.4433
7045 1 30.8607 8.7043 34.0259
7046 1 29.2781 7.1217 35.6085
7047 1 30.8607 8.7043 37.1911
7048 1 29.2781 7.1217 38.7737
7049 1 30.8607 8.7043 40.3563
7050 1 29.2781 7.1217 41.9389
7051 1 30.8607 8.7043 43.5215
7052 1 32.4433 0.7913 7.1217
7053 1 34.0259 2.3739 8.7043
7054 1 32.4433 0.7913 10.2869
7055 1 34.0259 2.3739 11.8695
7056 1 32.4433 0.7913 13.4521
7057 1 34.0259 2.3739 15.0347
7058 1 32.4433 0.7913 16.6173
7059 1 34.0259 2.3739 18.1999
7060 1 32.4433 0.7913 19.7825
7061 1 34.0259 2.3739 21.3651
7062 1 32.4433 0.7913 22.9477
7063 1 34.0259 2.3739 24.5303
7064 1 32.4433 0.7913 26.1129
7065 1 34.0259 2.3739 27.6955
7066 1 32.4433 0.7913 29.2781
7067 1 34.0259 2.3739 30.8607
7068 1 32.4433 0.7913 32.4433
7069 1 34.0259 2.3739 34.0259
7070 1 32.4433 0.7913 35.6085
7071 1 34.0259 2.3739 37.1911
7072 1 32.4433 0.7913 38.7737
7073 1 34.0259 2.3739 40.3563
7074 1 32.4433 0.7913 41.9389
7075 1 34.0259 2.3739 43.5215
7076 1 32.4433 3.9565 7.1217
7077 1 34.0259 5.5391 8.7043
7078 1 32.4433 3.9565 10.2869
7079 1 34.0259 5.5391 11.8695
7080 1 32.4433 3.9565 13.4521
7081 1 34.0259 5.5391 15.0347
7082 1 32.4433 3.9565 16.6173
7083 1 34.0259 5.5391 18.1999
7084 1 32.4433 3.9565 19.7825
7085 1 34.0259 5.5391 21.3651
7086 1 32.4433 3.9565 22.9477
7087 1 34.0259 5.5391 24.5303
7088 1 32.4433 3.9565 26.1129
7089 1 34.0259 5.5391 27.6955
7090 1 32.4433 3.9565 29.2781
7091 1 34.0259 5.5391 30.8607
7092 1 32.4433 3.9565 32.4433
7093 1 34.0259 5.5391 34.0259
7094 1 32.4433 3.9565 35.6085
7095 1 34.0259 5.5391 37.1911
7096 1 32.4433 3.9565 38.7737
7097 1 34.0259 5.5391 40.3563
7098 1 32.4433 3.9565 41.9389
7099 1 34.0259 5.5391 43.5215
7100 1 32.4433 7.1217 7.1217
7101 1 34.0259 8.7043 8.7043
7102 1 32.4433 7.1217 10.2869
7103 1 34.0259 8.7043 11.8695
7104 1 32.4433 7.1217 13.4521
7105 1 34.0259 8.7043 15.0347
7106 1 32.4433 7.1217 16.6173
7107 1 34.0259 8.7043 18.1999
7108 1 32.4433 7.1217 19.7825
7109 1 34.0259 8.7043 21.3651
7110 1 32.4433 7.1217 22.9477
7111 1 34.0259 8.7043 24.5303
7112 1 32.4433 7.1217 26.1129
7113 1 34.0259 8.7043 27.6955
7114 1 32.4433 7.1217 29.2781
7115 1 34.0259 8.7043 30.8607
7116 1 32.4433 7.1217 32.4433
7117 1 34.0259 8.7043 34.0259
7118 1 32.4433 7.1217 35.6085
7119 1 34.0259 8.7043 37.1911
7120 1 32.4433 7.1217 38.7737
7121 1 34.0259 8.7043 40.3563
7122 1 32.4433 7.1217 41.9389
7123 1 34.0259 8.7043 43.5215
7124 1 35.6085 0.7913 7.1217
7125 1 37.1911 2.3739 8.7043
7126 1 35.6085 0.7913 10.2869
7127 1 37.1911 2.3739 11.8695
7128 1 35.6085 0.7913 13.4521
7129 1 37.1911 2.3739 15.0347
7130 1 35.6085 0.7913 16.6173
7131 1 37.1911 2.3739 18.1999
7132 1 35.6085 0.7913 19.7825
7133 1 37.1911 2.3739 21.3651
7134 1 35.6085 0.7913 22.9477
7135 1 37.1911 2.3739 24.5303
7136 1 35.6085 0.7913 26.1129
7137 1 37.1911 2.3739 27.6955
7138 1 35.6085 0.7913 29.2781
7139 1 37.1911 2.3739 30.8607
7140 1 35.6085 0.7913 32.4433
7141 1 37.1911 2.3739 34.0259
7142 1 35.6085 0.7913 35.6085
7143 1 37.1911 2.3739 37.1911
7144 1 35.6085 0.7913 38.7737
7145 1 37.1911 2.3739 40.3563
7146 1 35.6085 0.7913 41.9389
7147 1 37.1911 2.3739 43.5215
7148 1 35.6085 3.9565 7.1217
7149 1 37.1911 5.5391 8.7043
7150 1 35.6085 3.9565 10.2869
7151 1 37.1911 5.5391 11.8695
7152 1 35.6085 3.9565 13.4521
7153 1 37.1911 5.5391 15.0347
7154 1 35.6085 3.9565 16.6173
7155 1 37.1911 5.5391 18.1999
7156 1 35.6085 3.9565 19.7825
7157 1 37.1911 5.5391 21.3651
7158 1 35.6085 3.9565 22.9477
7159 1 37.1911 5.5391 24.5303
7160 1 35.6085 3.9565 26.1129
7161 1 37.1911 5.5391 27.6955
7162 1 35.6085 3.9565 29.2781
7163 1 37.1911 5.5391 30.8607
7164 1 35.6085 3.9565 32.4433
7165 1 37.1911 5.5391 34.0259
7166 1 35.6085 3.9565 35.6085
7167 1 37.1911 5.5391 37.1911
7168 1 35.6085 3.9565 38.7737
7169 1 37.1911 5.5391 40.3563
7170 1 35.6085 3.9565 41.9389
7171 1 37.1911 5.5391 43.5215
7172 1 35.6085 7.1217 7.1217
7173 1 37.1911 8.7043 8.7043
7174 1 35.6085 7.1217 10.2869
7175 1 37.1911 8.7043 11.8695
7176 1 35.6085 7.1217 13.4521
7177 1 37.1911 8.7043 15.0347
7178 1 35.6085 7.1217 16.6173
7179 1 37.1911 8.7043 18.1999
7180 1 35.6085 7.1217 19.7825
7181 1 37.1911 8.7043 21.3651
7182 1 35.6085 7.1217 22.9477
7183 1 37.1911 8.7043 24.5303
7184 1 35.6085 7.1217 26.1129
7185 1 37.1911 8.7043 27.6955
7186 1 35.6085 7.1217 29.2781
7187 1 37.1911 8.7043 30.8607
7188 1 35.6085 7.1217 32.4433
7189 1 37.1911 8.7043 34.0259
7190 1 35.6085 7.1217 35.6085
7191 1 37.1911 8.7043 37.1911
7192 1 35.6085 7.1217 38.7737
7193 1 37.1911 8.7043 40.3563
7194 1 35.6085 7.1217 41.9389
7195 1 37.1911 8.7043 43.5215
7196 1 38.7737 0.7913 7.1217
7197 1 40.3563 2.3739 8.7043
7198 1 38.7737 0.7913 10.2869
7199 1 40.3563 2.3739 11.8695
7200 1 38.7737 0.7913 13.4521
7201 1 40.3563 2.3739 15.0347
7202 1 38.7737 0.7913 16.6173
7203 1 40.3563 2.3739 18.1999
7204 1 38.7737 0.7913 19.7825
7205 1 40.3563 2.3739 21.3651
7206 1 38.7737 0.7913 22.9477
7207 1 40.3563 2.3739 24.5303
7208 1 38.7737 0.7913 26.1129
7209 1 40.3563 2.3739 27.6955
7210 1 38.7737 0.7913 29.2781
7211 1 40.3563 2.3739 30.8607
7212 1 38.7737 0.7913 32.4433
7213 1 40.3563 2.3739 34.0259
7214 1 38.7737 0.7913 35.6085
7215 1 40.3563 2.3739 37.1911
7216 1 38.7737 0.7913 38.7737
7217 1 40.3563 2.3739 40.3563
7218 1 38.7737 0.7913 41.9389
7219 1 40.3563 2.3739 43.5215
7220 1 38.7737 3.9565 7.1217
7221 1 40.3563 5.5391 8.7043
7222 1 38.7737 3.9565 10.2869
7223 1 40.3563 5.5391 11.8695
7224 1 38.7737 3.9565 13.4521
7225 1 40.3563 5.5391 15.0347
7226 1 38.7737 3.9565 16.6173
7227 1 40.3563 5.5391 18.1999
7228 1 38.7737 3.9565 19.7825
7229 1 40.3563 5.5391 21.3651
7230 1 38.7737 3.9565 22.9477
7231 1 40.3563 5.5391 24.5303
7232 1 38.7737 3.9565 26.1129
7233 1 40.3563 5.5391 27.6955
7234 1 38.7737 3.9565 29.2781
7235 1 40.3563 5.5391 30.8607
7236 1 38.7737 3.9565 32.4433
7237 1 40.3563 5.5391 34.0259
7238 1 38.7737 3.9565 35.6085
7239 1 40.3563 5.5391 37.1911
7240 1 38.7737 3.9565 38.7737
7241 1 40.3563 5.5391 40.3563
7242 1 38.7737 3.9565 41.9389
7243 1 40.3563 5.5391 43.5215
7244 1 38.7737 7.1217 7.1217
7245 1 40.3563 8.7043 8.7043
7246 1 38.7737 7.1217 10.2869
7247 1 40.3563 8.7043 11.8695
7248 1 38.7737 7.1217 13.4521
7249 1 40.3563 8.7043 15.0347
7250 1 38.7737 7.1217 16.6173
7251 1 40.3563 8.7043 18.1999
7252 1 38.7737 7.1217 19.7825
7253 1 40.3563 8.7043 21.3651
7254 1 38.7737 7.1217 22.9477
7255 1 40.3563 8.7043 24.5303
7256 1 38.7737 7.1217 26.1129
7257 1 40.3563 8.7043 27.6955
7258 1 38.7737 7.1217 29.2781
7259 1 40.3563 8.7043 30.8607
7260 1 38.7737 7.1217 32.4433
7261 1 40.3563 8.7043 34.0259
7262 1 38.7737 7.1217 35.6085
7263 1 40.3563 8.7043 37.1911
7264 1 38.7737 7.1217 38.7737
7265 1 40.3563 8.7043 40.3563
7266 1 38.7737 7.1217 41.9389
7267 1 40.3563 8.7043 43.5215
7268 1 41.9389 0.7913 7.1217
7269 1 43.5215 2.3739 8.7043
7270 1 41.9389 0.7913 10.2869
7271 1 43.5215 2.3739 11.8695
7272 1 41.9389 0.7913 13.4521
7273 1 43.5215 2.3739 15.0347
7274 1 41.9389 0.7913 16.6173
7275 1 43.5215 2.3739 18.1999
7276 1 41.9389 0.7913 19.7825
7277 1 43.5215 2.3739 21.3651
7278 1 41.9389 0.7913 22.9477
7279 1 43.5215 2.3739 24.5303
7280 1 41.9389 0.7913 26.1129
7281 1 43.5215 2.3739 27.6955
7282 1 41.9389 0.7913 29.2781
7283 1 43.5215 2.3739 30.8607
7284 1 41.9389 0.7913 32.4433
7285 1 43.5215 2.3739 34.0259
7286 1 41.9389 0.7913 35.6085
7287 1 43.5215 2.3739 37.1911
7288 1 41.9389 0.7913 38.7737
7289 1 43.5215 2.3739 40.3563
7290 1 41.9389 0.7913 41.9389
7291 1 43.5215 2.3739 43.5215
7292 1 41.9389 3.9565 7.1217
7293 1 43.5215 5.5391 8.7043
7294 1 41.9389 3.9565 10.2869
7295 1 43.5215 5.5391 11.8695
7296 1 41.9389 3.9565 13.4521
7297 1 43.5215 5.5391 15.0347
7298 1 41.9389 3.9565 16.6173
7299 1 43.5215 5.5391 18.1999
7300 1 41.9389 3.9565 19.7825
7301 1 43.5215 5.5391 21.3651
7302 1 41.9389 3.9565 22.9477
7303 1 43.5215 5.5391 24.5303
7304 1 41.9389 3.9565 26.1129
7305 1 43.5215 5.5391 27.6955
7306 1 41.9389 3.9565 29.2781
7307 1 43.5215 5.5391 30.8607
7308 1 41.9389 3.9565 32.4433
7309 1 43.5215 5.5391 34.0259
7310 1 41.9389 3.9565 35.6085
7311 1 43.5215 5.5391 37.1911
7312 1 41.9389 3.9565 38.7737
7313 1 43.5215 5.5391 40.3563
7314 1 41.9389 3.9565 41.9389
7315 1 43.5215 5.5391 43.5215
7316 1 41.9389 7.1217 7.1217
7317 1 43.5215 8.7043 8.7043
7318 1 41.9389 7.1217 10.2869
7319 1 43.5215 8.7043 11.8695
7320 1 41.9389 7.1217 13.4521
7321 1 43.5215 8.7043 15.0347
7322 1 41.9389 7.1217 16.6173
7323 1 43.5215 8.7043 18.1999
7324 1 41.9389 7.1217 19.7825
7325 1 43.5215 8.7043 21.3651
7326 1 41.9389 7.1217 22.9477
7327 1 43.5215 8.7043 24.5303
7328 1 41.9389 7.1217 26.1129
7329 1 43.5215 8.7043 27.6955
7330 1 41.9389 7.1217 29.2781
7331 1 43.5215 8.7043 30.8607
7332 1 41.9389 7.1217 32.4433
7333 1 43.5215 8.7043 34.0259
7334 1 41.9389 7.1217 35.6085
7335 1 43.5215 8.7043 37.1911
7336 1 41.9389 7.1217 38.7737
7337 1 43.5215 8.7043 40.3563
7338 1 41.9389 7.1217 41.9389
7339 1 43.5215 8.7043 43.5215
7340 1 7.1217 41.9389 7.1217
7341 1 8.7043 43.5215 8.7043
7342 1 7.1217 41.9389 10.2869
7343 1 8.7043 43.5215 11.8695
7344 1 7.1217 41.9389 13.4521
7345 1 8.7043 43.5215 15.0347
7346 1 7.1217 41.9389 16.6173
7347 1 8.7043 43.5215 18.1999
7348 1 7.1217 41.9389 19.7825
7349 1 8.7043 43.5215 21.3651
7350 1 7.1217 41.9389 22.9477
7351 1 8.7043 43.5215 24.5303
7352 1 7.1217 41.9389 26.1129
7353 1 8.7043 43.5215 27.6955
7354 1 7.1217 41.9389 29.2781
7355 1 8.7043 43.5215 30.8607
7356 1 7.1217 41.9389 32.4433
7357 1 8.7043 43.5215 34.0259
7358 1 7.1217 41.9389 35.6085
7359 1 8.7043 43.5215 37.1911
7360 1 7.1217 41.9389 38.7737
7361 1 8.7043 43.5215 40.3563
7362 1 7.1217 41.9389 41.9389
7363 1 8.7043 43.5215 43.5215
7364 1 7.1217 45.1041 7.1217
7365 1 8.7043 46.6867 8.7043
7366 1 7.1217 45.1041 10.2869
7367 1 8.7043 46.6867 11.8695
7368 1 7.1217 45.1041 13.4521
7369 1 8.7043 46.6867 15.0347
7370 1 7.1217 45.1041 16.6173
7371 1 8.7043 46.6867 18.1999
7372 1 7.1217 45.1041 19.7825
7373 1 8.7043 46.6867 21.3651
7374 1 7.1217 45.1041 22.9477
7375 1 8.7043 46.6867 24.5303
7376 1 7.1217 45.1041 26.1129
7377 1 8.7043 46.6867 27.6955
7378 1 7.1217 45.1041 29.2781
7379 1 8.7043 46.6867 30.8607
7380 1 7.1217 45.1041 32.4433
7381 1 8.7043 46.6867 34.0259
7382 1 7.1217 45.1041 35.6085
7383 1 8.7043 46.6867 37.1911
7384 1 7.1217 45.1041 38.7737
7385 1 8.7043 46.6867 40.3563
7386 1 7.1217 45.1041 41.9389
7387 1 8.7043 46.6867 43.5215
7388 1 7.1217 48.2693 7.1217
7389 1 8.7043 49.8519 8.7043
7390 1 7.1217 48.2693 10.2869
7391 1 8.7043 49.8519 11.8695
7392 1 7.1217 48.2693 13.4521
7393 1 8.7043 49.8519 15.0347
7394 1 7.1217 48.2693 16.6173
7395 1 8.7043 49.8519 18.1999
7396 1 7.1217 48.2693 19.7825
7397 1 8.7043 49.8519 21.3651
7398 1 7.1217 48.2693 22.9477
7399 1 8.7043 49.8519 24.5303
7400 1 7.1217 48.2693 26.1129
7401 1 8.7043 49.8519 27.6955
7402 1 7.1217 48.2693 29.2781
7403 1 8.7043 49.8519 30.8607
7404 1 7.1217 48.2693 32.4433
7405 1 8.7043 49.8519 34.0259
7406 1 7.1217 48.2693 35.6085
7407 1 8.7043 49.8519 37.1911
7408 1 7.1217 48.2693 38.7737
7409 1 8.7043 49.8519 40.3563
7410 1 7.1217 48.2693 41.9389
7411 1 8.7043 49.8519 43.5215
7412 1 10.2869 41.9389 7.1217
7413 1 11.8695 43.5215 8.7043
7414 1 10.2869 41.9389 10.2869
7415 1 11.8695 43.5215 11.8695
7416 1 10.2869 41.9389 13.4521
7417 1 11.8695 43.5215 15.0347
7418 1 10.2869 41.9389 16.6173
7419 1 11.8695 43.5215 18.1999
7420 1 10.2869 41.9389 19.7825
7421 1 11.8695 43.5215 21.3651
7422 1 10.2869 41.9389 22.9477
7423 1 11.8695 43.5215 24.5303
7424 1 10.2869 41.9389 26.1129
7425 1 11.8695 43.5215 27.6955
7426 1 10.2869 41.9389 29.2781
7427 1 11.8695 43.5215 30.8607
7428 1 10.2869 41.9389 32.4433
7429 1 11.8695 43.5215 34.0259
7430 1 10.2869 41.9389 35.6085
7431 1 11.8695 43.5215 37.1911
7432 1 10.2869 41.9389 38.7737
7433 1 11.8695 43.5215 40.3563
7434 1 10.2869 41.9389 41.9389
7435 1 11.8695 43.5215 43.5215
7436 1 10.2869 45.1041 7.1217
7437 1 11.8695 46.6867 8.7043
7438 1 10.2869 45.1041 10.2869
7439 1 11.8695 46.6867 11.8695
7440 1 10.2869 45.1041 13.4521
7441 1 11.8695 46.6867 15.0347
7442 1 10.2869 45.1041 16.6173
7443 1 11.8695 46.6867 18.1999
7444 1 10.2869 45.1041 19.7825
7445 1 11.8695 46.6867 21.3651
7446 1 10.2869 45.1041 22.9477
7447 1 11.8695 46.6867 24.5303
7448 1 10.2869 45.1041 26.1129
7449 1 11.8695 46.6867 27.6955
7450 1 10.2869 45.1041 29.2781
7451 1 11.8695 46.6867 30.8607
7452 1 10.2869 45.1041 32.4433
7453 1 11.8695 46.6867 34.0259
7454 1 10.2869 45.1041 35.6085
7455 1 11.8695 46.6867 37.1911
7456 1 10.2869 45.1041 38.7737
7457 1 11.8695 46.6867 40.3563
7458 1 10.2869 45.1041 41.9389
7459 1 11.8695 46.6867 43.5215
7460 1 10.2869 48.2693 7.1217
7461 1 11.8695 49.8519 8.7043
7462 1 10.2869 48.2693 10.2869
7463 1 11.8695 49.8519 11.8695
7464 1 10.2869 48.2693 13.4521
7465 1 11.8695 49.8519 15.0347
7466 1 10.2869 48.2693 16.6173
7467 1 11.8695 49.8519 18.1999
7468 1 10.2869 48.2693 19.7825
7469 1 11.8695 49.8519 21.3651
7470 1 10.2869 48.2693 22.9477
7471 1 11.8695 49.8519 24.5303
7472 1 10.2869 48.2693 26.1129
7473 1 11.8695 49.8519 27.6955
7474 1 10.2869 48.2693 29.2781
7475 1 11.8695 49.8519 30.8607
7476 1 10.2869 48.2693 32.4433
7477 1 11.8695 49.8519 34.0259
7478 1 10.2869 48.2693 35.6085
7479 1 11.8695 49.8519 37.1911
7480 1 10.2869 48.2693 38.7737
7481 1 11.8695 49.8519 40.3563
7482 1 10.2869 48.2693 41.9389
7483 1 11.8695 49.8519 43.5215
7484 1 13.4521 41.9389 7.1217
7485 1 15.0347 43.5215 8.7043
7486 1 13.4521 41.9389 10.2869
7487 1 15.0347 43.5215 11.8695
7488 1 13.4521 41.9389 13.4521
7489 1 15.0347 43.5215 15.0347
7490 1 13.4521 41.9389 16.6173
7491 1 15.0347 43.5215 18.1999
7492 1 13.4521 41.9389 19.7825
7493 1 15.0347 43.5215 21.3651
7494 1 13.4521 41.9389 22.9477
7495 1 15.0347 43.5215 24.5303
7496 1 13.4521 41.9389 26.1129
7497 1 15.0347 43.5215 27.6955
7498 1 13.4521 41.9389 29.2781
7499 1 15.0347 43.5215 30.8607
7500 1 13.4521 41.9389 32.4433
7501 1 15.0347 43.5215 34.0259
7502 1 13.4521 41.9389 35.6085
7503 1 15.0347 43.5215 37.1911
7504 1 13.4521 41.9389 38.7737
7505 1 15.0347 43.5215 40.3563
7506 1 13.4521 41.9389 41.9389
7507 1 15.0347 43.5215 43.5215
7508 1 13.4521 45.1041 7.1217
7509 1 15.0347 46.6867 8.7043
7510 1 13.4521 45.1041 10.2869
7511 1 15.0347 46.6867 11.8695
7512 1 13.4521 45.1041 13.4521
7513 1 15.0347 46.6867 15.0347
7514 1 13.4521 45.1041 16.6173
7515 1 15.0347 46.6867 18.1999
7516 1 13.4521 45.1041 19.7825
7517 1 15.0347 46.6867 21.3651
7518 1 13.4521 45.1041 22.9477
7519 1 15.0347 46.6867 24.5303
7520 1 13.4521 45.1041 26.1129
7521 1 15.0347 46.6867 27.6955
7522 1 13.4521 45.1041 29.2781
7523 1 15.0347 46.6867 30.8607
7524 1 13.4521 45.1041 32.4433
7525 1 15.0347 46.6867 34.0259
7526 1 13.4521 45.1041 35.6085
7527 1 15.0347 46.6867 37.1911
7528 1 13.4521 45.1041 38.7737
7529 1 15.0347 46.6867 40.3563
7530 1 13.4521 45.1041 41.9389
7531 1 15.0347 46.6867 43.5215
7532 1 13.4521 48.2693 7.1217
7533 1 15.0347 49.8519 8.7043
7534 1 13.4521 48.2693 10.2869
7535 1 15.0347 49.8519 11.8695
7536 1 13.4521 48.2693 13.4521
7537 1 15.0347 49.8519 15.0347
7538 1 13.4521 48.2693 16.6173
7539 1 15.0347 49.8519 18.1999
7540 1 13.4521 48.2693 19.7825
7541 1 15.0347 49.8519 21.3651
7542 1 13.4521 48.2693 22.9477
7543 1 15.0347 49.8519 24.5303
7544 1 13.4521 48.2693 26.1129
7545 1 15.0347 49.8519 27.6955
7546 1 13.4521 48.2693 29.2781
7547 1 15.0347 49.8519 30.8607
7548 1 13.4521 48.2693 32.4433
7549 1 15.0347 49.8519 34.0259
7550 1 13.4521 48.2693 35.6085
7551 1 15.0347 49.8519 37.1911
7552 1 13.4521 48.2693 38.7737
7553 1 15.0347 49.8519 40.3563
7554 1 13.4521 48.2693 41.9389
7555 1 15.0347 49.8519 43.5215
7556 1 16.6173 41.9389 7.1217
7557 1 18.1999 43.5215 8.7043
7558 1 16.6173 41.9389 10.2869
7559 1 18.1999 43.5215 11.8695
7560 1 16.6173 41.9389 13.4521
7561 1 18.1999 43.5215 15.0347
7562 1 16.6173 41.9389 16.6173
7563 1 18.1999 43.5215 18.1999
7564 1 16.6173 41.9389 19.7825
7565 1 18.1999 43.5215 21.3651
7566 1 16.6173 41.9389 22.9477
7567 1 18.1999 43.5215 24.5303
7568 1 16.6173 41.9389 26.1129
7569 1 18.1999 43.5215 27.6955
7570 1 16.6173 41.9389 29.2781
7571 1 18.1999 43.5215 30.8607
7572 1 16.6173 41.9389 32.4433
7573 1 18.1999 43.5215 34.0259
7574 1 16.6173 41.9389 35.6085
7575 1 18.1999 43.5215 37.1911
7576 1 16.6173 41.9389 38.7737
7577 1 18.1999 43.5215 40.3563
7578 1 16.6173 41.9389 41.9389
7579 1 18.1999 43.5215 43.5215
7580 1 16.6173 45.1041 7.1217
7581 1 18.1999 46.6867 8.7043
7582 1 16.6173 45.1041 10.2869
7583 1 18.1999 46.6867 11.8695
7584 1 16.6173 45.1041 13.4521
7585 1 18.1999 46.6867 15.0347
7586 1 16.6173 45.1041 16.6173
7587 1 18.1999 46.6867 18.1999
7588 1 16.6173 45.1041 19.7825
7589 1 18.1999 46.6867 21.3651
7590 1 16.6173 45.1041 22.9477
7591 1 18.1999 46.6867 24.5303
7592 1 16.6173 45.1041 26.1129
7593 1 18.1999 46.6867 27.6955
7594 1 16.6173 45.1041 29.2781
7595 1 18.1999 46.6867 30.8607
7596 1 16.6173 45.1041 32.4433
7597 1 18.1999 46.6867 34.0259
7598 1 16.6173 45.1041 35.6085
7599 1 18.1999 46.6867 37.1911
7600 1 16.6173 45.1041 38.7737
7601 1 18.1999 46.6867 40.3563
7602 1 16.6173 45.1041 41.9389
7603 1 18.1999 46.6867 43.5215
7604 1 16.6173 48.2693 7.1217
7605 1 18.1999 49.8519 8.7043
7606 1 16.6173 48.2693 10.2869
7607 1 18.1999 49.8519 11.8695
7608 1 16.6173 48.2693 13.4521
7609 1 18.1999 49.8519 15.0347
7610 1 16.6173 48.2693 16.6173
7611 1 18.1999 49.8519 18.1999
7612 1 16.6173 48.2693 19.7825
7613 1 18.1999 49.8519 21.3651
7614 1 16.6173 48.2693 22.9477
7615 1 18.1999 49.8519 24.5303
7616 1 16.6173 48.2693 26.1129
7617 1 18.1999 49.8519 27.6955
7618 1 16.6173 48.2693 29.2781
7619 1 18.1999 49.8519 30.8607
7620 1 16.6173 48.2693 32.4433
7621 1 18.1999 49.8519 34.0259
7622 1 16.6173 48.2693 35.6085
7623 1 18.1999 49.8519 37.1911
7624 1 16.6173 48.2693 38.7737
7625 1 18.1999 49.8519 40.3563
7626 1 16.6173 48.2693 41.9389
7627 1 18.1999 49.8519 43.5215
7628 1 19.7825 41.9389 7.1217
7629 1 21.3651 43.5215 8.7043
7630 1 19.7825 41.9389 10.2869
7631 1 21.3651 43.5215 11.8695
7632 1 19.7825 41.9389 13.4521
7633 1 21.3651 43.5215 15.0347
7634 1 19.7825 41.9389 16.6173
7635 1 21.3651 43.5215 18.1999
7636 1 19.7825 41.9389 19.7825
7637 1 21.3651 43.5215 21.3651
7638 1 19.7825 41.9389 22.9477
7639 1 21.3651 43.5215 24.5303
7640 1 19.7825 41.9389 26.1129
7641 1 21.3651 43.5215 27.6955
7642 1 19.7825 41.9389 29.2781
7643 1 21.3651 43.5215 30.8607
7644 1 19.7825 41.9389 32.4433
7645 1 21.3651 43.5215 34.0259
7646 1 19.7825 41.9389 35.6085
7647 1 21.3651 43.5215 37.1911
7648 1 19.7825 41.9389 38.7737
7649 1 21.3651 43.5215 40.3563
7650 1 19.7825 41.9389 41.9389
7651 1 21.3651 43.5215 43.5215
7652 1 19.7825 45.1041 7.1217
7653 1 21.3651 46.6867 8.7043
7654 1 19.7825 45.1041 10.2869
7655 1 21.3651 46.6867 11.8695
7656 1 19.7825 45.1041 13.4521
7657 1 21.3651 46.6867 15.0347
7658 1 19.7825 45.1041 16.6173
7659 1 21.3651 46.6867 18.1999
7660 1 19.7825 45.1041 19.7825
7661 1 21.3651 46.6867 21.3651
7662 1 19.7825 45.1041 22.9477
7663 1 21.3651 46.6867 24.5303
7664 1 19.7825 45.1041 26.1129
7665 1 21.3651 46.6867 27.6955
7666 1 19.7825 45.1041 29.2781
7667 1 21.3651 46.6867 30.8607
7668 1 19.7825 45.1041 32.4433
7669 1 21.3651 46.6867 34.0259
7670 1 19.7825 45.1041 35.6085
7671 1 21.3651 46.6867 37.1911
7672 1 19.7825 45.1041 38.7737
7673 1 21.3651 46.6867 40.3563
7674 1 19.7825 45.1041 41.9389
7675 1 21.3651 46.6867 43.5215
7676 1 19.7825 48.2693 7.1217
7677 1 21.3651 49.8519 8.7043
7678 1 19.7825 48.2693 10.2869
7679 1 21.3651 49.8519 11.8695
7680 1 19.7825 48.2693 13.4521
7681 1 21.3651 49.8519 15.0347
7682 1 19.7825 48.2693 16.6173
7683 1 21.3651 49.8519 18.1999
7684 1 19.7825 48.2693 19.7825
7685 1 21.3651 49.8519 21.3651
7686 1 19.7825 48.2693 22.9477
7687 1 21.3651 49.8519 24.5303
7688 1 19.7825 48.2693 26.1129
7689 1 21.3651 49.8519 27.6955
7690 1 19.7825 48.2693 29.2781
7691 1 21.3651 49.8519 30.8607
7692 1 19.7825 48.2693 32.4433
7693 1 21.3651 49.8519 34.0259
7694 1 19.7825 48.2693 35.6085
7695 1 21.3651 49.8519 37.1911
7696 1 19.7825 48.2693 38.7737
7697 1 21.3651 49.8519 40.3563
7698 1 19.7825 48.2693 41.9389
7699 1 21.3651 49.8519 43.5215
7700 1 22.9477 41.9389 7.1217
7701 1 24.5303 43.5215 8.7043
7702 1 22.9477 41.9389 10.2869
7703 1 24.5303 43.5215 11.8695
7704 1 22.9477 41.9389 13.4521
7705 1 24.5303 43.5215 15.0347
7706 1 22.9477 41.9389 16.6173
7707 1 24.5303 43.5215 18.1999
7708 1 22.9477 41.9389 19.7825
7709 1 24.5303 43.5215 21.3651
7710 1 22.9477 41.9389 22.9477
7711 1 24.5303 43.5215 24.5303
7712 1 22.9477 41.9389 26.1129
7713 1 24.5303 43.5215 27.6955
7714 1 22.9477 41.9389 29.2781
7715 1 24.5303 43.5215 30.8607
7716 1 22.9477 41.9389 32.4433
7717 1 24.5303 43.5215 34.0259
7718 1 22.9477 41.9389 35.6085
7719 1 24.5303 43.5215 37.1911
7720 1 22.9477 41.9389 38.7737
7721 1 24.5303 43.5215 40.3563
7722 1 22.9477 41.9389 41.9389
7723 1 24.5303 43.5215 43.5215
7724 1 22.9477 45.1041 7.1217
7725 1 24.5303 46.6867 8.7043
7726 1 22.9477 45.1041 10.2869
7727 1 24.5303 46.6867 11.8695
7728 1 22.9477 45.1041 13.4521
7729 1 24.5303 46.6867 15.0347
7730 1 22.9477 45.1041 16.6173
7731 1 24.5303 46.6867 18.1999
7732 1 22.9477 45.1041 19.7825
7733 1 24.5303 46.6867 21.3651
7734 1 22.9477 45.1041 22.9477
7735 1 24.5303 46.6867 24.5303
7736 1 22.9477 45.1041 26.1129
7737 1 24.5303 46.6867 27.6955
7738 1 22.9477 45.1041 29.2781
7739 1 24.5303 46.6867 30.8607
7740 1 22.9477 45.1041 32.4433
7741 1 24.5303 46.6867 34.0259
7742 1 22.9477 45.1041 35.6085
7743 1 24.5303 46.6867 37.1911
7744 1 22.9477 45.1041 38.7737
7745 1 24.5303 46.6867 40.3563
7746 1 22.9477 45.1041 41.9389
7747 1 24.5303 46.6867 43.5215
7748 1 22.9477 48.2693 7.1217
7749 1 24.5303 49.8519 8.7043
7750 1 22.9477 48.2693 10.2869
7751 1 24.5303 49.8519 11.8695
7752 1 22.9477 48.2693 13.4521
7753 1 24.5303 49.8519 15.0347
7754 1 22.9477 48.2693 16.6173
7755 1 24.5303 49.8519 18.1999
7756 1 22.9477 48.2693 19.7825
7757 1 24.5303 49.8519 21.3651
7758 1 22.9477 48.2693 22.9477
7759 1 24.5303 49.8519 24.5303
7760 1 22.9477 48.2693 26.1129
7761 1 24.5303 49.8519 27.6955
7762 1 22.9477 48.2693 29.2781
7763 1 24.5303 49.8519 30.8607
7764 1 22.9477 48.2693 32.4433
7765 1 24.5303 49.8519 34.0259
7766 1 22.9477 48.2693 35.6085
7767 1 24.5303 49.8519 37.1911
7768 1 22.9477 48.2693 38.7737
7769 1 24.5303 49.8519 40.3563
7770 1 22.9477 48.2693 41.9389
7771 1 24.5303 49.8519 43.5215
7772 1 26.1129 41.9389 7.1217
7773 1 27.6955 43.5215 8.7043
7774 1 26.1129 41.9389 10.2869
7775 1 27.6955 43.5215 11.8695
7776 1 26.1129 41.9389 13.4521
7777 1 27.6955 43.5215 15.0347
7778 1 26.1129 41.9389 16.6173
7779 1 27.6955 43.5215 18.1999
7780 1 26.1129 41.9389 19.7825
7781 1 27.6955 43.5215 21.3651
7782 1 26.1129 41.9389 22.9477
7783 1 27.6955 43.5215 24.5303
7784 1 26.1129 41.9389 26.1129
7785 1 27.6955 43.5215 27.6955
7786 1 26.1129 41.9389 29.2781
7787 1 27.6955 43.5215 30.8607
7788 1 26.1129 41.9389 32.4433
7789 1 27.6955 43.5215 34.0259
7790 1 26.1129 41.9389 35.6085
7791 1 27.6955 43.5215 37.1911
7792 1 26.1129 41.9389 38.7737
7793 1 27.6955 43.5215 40.3563
7794 1 26.1129 41.9389 41.9389
7795 1 27.6955 43.5215 43.5215
7796 1 26.1129 45.1041 7.1217
7797 1 27.6955 46.6867 8.7043
7798 1 26.1129 45.1041 10.2869
7799 1 27.6955 46.6867 11.8695
7800 1 26.1129 45.1041 13.4521
7801 1 27.6955 46.6867 15.0347
7802 1 26.1129 45.1041 16.6173
7803 1 27.6955 46.6867 18.1999
7804 1 26.1129 45.1041 19.7825
7805 1 27.6955 46.6867 21.3651
7806 1 26.1129 45.1041 22.9477
7807 1 27.6955 46.6867 24.5303
7808 1 26.1129 45.1041 26.1129
7809 1 27.6955 46.6867 27.6955
7810 1 26.1129 45.1041 29.2781
7811 1 27.6955 46.6867 30.8607
7812 1 26.1129 45.1041 32.4433
7813 1 27.6955 46.6867 34.0259
7814 1 26.1129 45.1041 35.6085
7815 1 27.6955 46.6867 37.1911
7816 1 26.1129 45.1041 38.7737
7817 1 27.6955 46.6867 40.3563
7818 1 26.1129 45.1041 41.9389
7819 1 27.6955 46.6867 43.5215
7820 1 26.1129 48.2693 7.1217
7821 1 27.6955 49.8519 8.7043
7822 1 26.1129 48.2693 10.2869
7823 1 27.6955 49.8519 11.8695
7824 1 26.1129 48.2693 13.4521
7825 1 27.6955 49.8519 15.0347
7826 1 26.1129 48.2693 16.6173
7827 1 27.6955 49.8519 18.1999
7828 1 26.1129 48.2693 19.7825
7829 1 27.6955 49.8519 21.3651
7830 1 26.1129 48.2693 22.9477
7831 1 27.6955 49.8519 24.5303
7832 1 26.1129 48.2693 26.1129
7833 1 27.6955 49.8519 27.6955
7834 1 26.1129 48.2693 29.2781
7835 1 27.6955 49.8519 30.8607
7836 1 26.1129 48.2693 32.4433
7837 1 27.6955 49.8519 34.0259
7838 1 26.1129 48.2693 35.6085
7839 1 27.6955 49.8519 37.1911
7840 1 26.1129 48.2693 38.7737
7841 1 27.6955 49.8519 40.3563
7842 1 26.1129 48.2693 41.9389
7843 1 27.6955 49.8519 43.5215
7844 1 29.2781 41.9389 7.1217
7845 1 30.8607 43.5215 8.7043
7846 1 29.2781 41.9389 10.2869
7847 1 30.8607 43.5215 11.8695
7848 1 29.2781 41.9389 13.4521
7849 1 30.8607 43.5215 15.0347
7850 1 29.2781 41.9389 16.6173
7851 1 30.8607 43.5215 18.1999
7852 1 29.2781 41.9389 19.7825
7853 1 30.8607 43.5215 21.3651
7854 1 29.2781 41.9389 22.9477
7855 1 30.8607 43.5215 24.5303
7856 1 29.2781 41.9389 26.1129
7857 1 30.8607 43.5215 27.6955
7858 1 29.2781 41.9389 29.2781
7859 1 30.8607 43.5215 30.8607
7860 1 29.2781 41.9389 32.4433
7861 1 30.8607 43.5215 34.0259
7862 1 29.2781 41.9389 35.6085
7863 1 30.8607 43.5215 37.1911
7864 1 29.2781 41.9389 38.7737
7865 1 30.8607 43.5215 40.3563
7866 1 29.2781 41.9389 41.9389
7867 1 30.8607 43.5215 43.5215
7868 1 29.2781 45.1041 7.1217
7869 1 30.8607 46.6867 8.7043
7870 1 29.2781 45.1041 10.2869
7871 1 30.8607 46.6867 11.8695
7872 1 29.2781 45.1041 13.4521
7873 1 30.8607 46.6867 15.0347
7874 1 29.2781 45.1041 16.6173
7875 1 30.8607 46.6867 18.1999
7876 1 29.2781 45.1041 19.7825
7877 1 30.8607 46.6867 21.3651
7878 1 29.2781 45.1041 22.9477
7879 1 30.8607 46.6867 24.5303
7880 1 29.2781 45.1041 26.1129
7881 1 30.8607 46.6867 27.6955
7882 1 29.2781 45.1041 29.2781
7883 1 30.8607 46.6867 30.8607
7884 1 29.2781 45.1041 32.4433
7885 1 30.8607 46.6867 34.0259
7886 1 29.2781 45.1041 35.6085
7887 1 30.8607 46.6867 37.1911
7888 1 29.2781 45.1041 38.7737
7889 1 30.8607 46.6867 40.3563
7890 1 29.2781 45.1041 41.9389
7891 1 30.8607 46.6867 43.5215
7892 1 29.2781 48.2693 7.1217
7893 1 30.8607 49.8519 8.7043
7894 1 29.2781 48.2693 10.2869
7895 1 30.8607 49.8519 11.8695
7896 1 29.2781 48.2693 13.4521
7897 1 30.8607 49.8519 15.0347
7898 1 29.2781 48.2693 16.6173
7899 1 30.8607 49.8519 18.1999
7900 1 29.2781 48.2693 19.7825
7901 1 30.8607 49.8519 21.3651
7902 1 29.2781 48.2693 22.9477
7903 1 30.8607 49.8519 24.5303
7904 1 29.2781 48.2693 26.1129
7905 1 30.8607 49.8519 27.6955
7906 1 29.2781 48.2693 29.2781
7907 1 30.8607 49.8519 30.8607
7908 1 29.2781 48.2693 32.4433
7909 1 30.8607 49.8519 34.0259
7910 1 29.2781 48.2693 35.6085
7911 1 30.8607 49.8519 37.1911
7912 1 29.2781 48.2693 38.7737
7913 1 30.8607 49.8519 40.3563
7914 1 29.2781 48.2693 41.9389
7915 1 30.8607 49.8519 43.5215
7916 1 32.4433 41.9389 7.1217
7917 1 34.0259 43.5215 8.7043
7918 1 32.4433 41.9389 10.2869
7919 1 34.0259 43.5215 11.8695
7920 1 32.4433 41.9389 13.4521
7921 1 34.0259 43.5215 15.0347
7922 1 32.4433 41.9389 16.6173
7923 1 34.0259 43.5215 18.1999
7924 1 32.4433 41.9389 19.7825
7925 1 34.0259 43.5215 21.3651
7926 1 32.4433 41.9389 22.9477
7927 1 34.0259 43.5215 24.5303
7928 1 32.4433 41.9389 26.1129
7929 1 34.0259 43.5215 27.6955
7930 1 32.4433 41.9389 29.2781
7931 1 34.0259 43.5215 30.8607
7932 1 32.4433 41.9389 32.4433
7933 1 34.0259 43.5215 34.0259
7934 1 32.4433 41.9389 35.6085
7935 1 34.0259 43.5215 37.1911
7936 1 32.4433 41.9389 38.7737
7937 1 34.0259 43.5215 40.3563
7938 1 32.4433 41.9389 41.9389
7939 1 34.0259 43.5215 43.5215
7940 1 32.4433 45.1041 7.1217
7941 1 34.0259 46.6867 8.7043
7942 1 32.4433 45.1041 10.2869
7943 1 34.0259 46.6867 11.8695
7944 1 32.4433 45.1041 13.4521
7945 1 34.0259 46.6867 15.0347
7946 1 32.4433 45.1041 16.6173
7947 1 34.0259 46.6867 18.1999
7948 1 32.4433 45.1041 19.7825
7949 1 34.0259 46.6867 21.3651
7950 1 32.4433 45.1041 22.9477
7951 1 34.0259 46.6867 24.5303
7952 1 32.4433 45.1041 26.1129
7953 1 34.0259 46.6867 27.6955
7954 1 32.4433 45.1041 29.2781
7955 1 34.0259 46.6867 30.8607
7956 1 32.4433 45.1041 32.4433
7957 1 34.0259 46.6867 34.0259
7958 1 32.4433 45.1041 35.6085
7959 1 34.0259 46.6867 37.1911
7960 1 32.4433 45.1041 38.7737
7961 1 34.0259 46.6867 40.3563
7962 1 32.4433 45.1041 41.9389
7963 1 34.0259 46.6867 43.5215
7964 1 32.4433 48.2693 7.1217
7965 1 34.0259 49.8519 8.7043
7966 1 32.4433 48.2693 10.2869
7967 1 34.0259 49.8519 11.8695
7968 1 32.4433 48.2693 13.4521
7969 1 34.0259 49.8519 15.0347
7970 1 32.4433 48.2693 16.6173
7971 1 34.0259 49.8519 18.1999
7972 1 32.4433 48.2693 19.7825
7973 1 34.0259 49.8519 21.3651
7974 1 32.4433 48.2693 22.9477
7975 1 34.0259 49.8519 24.5303
7976 1 32.4433 48.2693 26.1129
7977 1 34.0259 49.8519 27.6955
7978 1 32.4433 48.2693 29.2781
7979 1 34.0259 49.8519 30.8607
7980 1 32.4433 48.2693 32.4433
7981 1 34.0259 49.8519 34.0259
7982 1 32.4433 48.2693 35.6085
7983 1 34.0259 49.8519 37.1911
7984 1 32.4433 48.2693 38.7737
7985 1 34.0259 49.8519 40.3563
7986 1 32.4433 48.2693 41.9389
7987 1 34.0259 49.8519 43.5215
7988 1 35.6085 41.9389 7.1217
7989 1 37.1911 43.5215 8.7043
7990 1 35.6085 41.9389 10.2869
7991 1 37.1911 43.5215 11.8695
7992 1 35.6085 41.9389 13.4521
7993 1 37.1911 43.5215 15.0347
7994 1 35.6085 41.9389 16.6173
7995 1 37.1911 43.5215 18.1999
7996 1 35.6085 41.9389 19.7825
7997 1 37.1911 43.5215 21.3651
7998 1 35.6085 41.9389 22.9477
7999 1 37.1911 43.5215 24.5303
8000 1 35.6085 41.9389 26.1129
8001 1 37.1911 43.5215 27.6955
8002 1 35.6085 41.9389 29.2781
8003 1 37.1911 43.5215 30.8607
8004 1 35.6085 41.9389 32.4433
8005 1 37.1911 43.5215 34.0259
8006 1 35.6085 41.9389 35.6085
8007 1 37.1911 43.5215 37.1911
8008 1 35.6085 41.9389 38.7737
8009 1 37.1911 43.5215 40.3563
8010 1 35.6085 41.9389 41.9389
8011 1 37.1911 43.5215 43.5215
8012 1 35.6085 45.1041 7.1217
8013 1 37.1911 46.6867 8.7043
8014 1 35.6085 45.1041 10.2869
8015 1 37.1911 46.6867 11.8695
8016 1 35.6085 45.1041 13.4521
8017 1 37.1911 46.6867 15.0347
8018 1 35.6085 45.1041 16.6173
8019 1 37.1911 46.6867 18.1999
8020 1 35.6085 45.1041 19.7825
8021 1 37.1911 46.6867 21.3651
8022 1 35.6085 45.1041 22.9477
8023 1 37.1911 46.6867 24.5303
8024 1 35.6085 45.1041 26.1129
8025 1 37.1911 46.6867 27.6955
8026 1 35.6085 45.1041 29.2781
8027 1 37.1911 46.6867 30.8607
8028 1 35.6085 45.1041 32.4433
8029 1 37.1911 46.6867 34.0259
8030 1 35.6085 45.1041 35.6085
8031 1 37.1911 46.6867 37.1911
8032 1 35.6085 45.1041 38.7737
8033 1 37.1911 46.6867 40.3563
8034 1 35.6085 45.1041 41.9389
8035 1 37.1911 46.6867 43.5215
8036 1 35.6085 48.2693 7.1217
8037 1 37.1911 49.8519 8.7043
8038 1 35.6085 48.2693 10.2869
8039 1 37.1911 49.8519 11.8695
8040 1 35.6085 48.2693 13.4521
8041 1 37.1911 49.8519 15.0347
8042 1 35.6085 48.2693 16.6173
8043 1 37.1911 49.8519 18.1999
8044 1 35.6085 48.2693 19.7825
8045 1 37.1911 49.8519 21.3651
8046 1 35.6085 48.2693 22.9477
8047 1 37.1911 49.8519 24.5303
8048 1 35.6085 48.2693 26.1129
8049 1 37.1911 49.8519 27.6955
8050 1 35.6085 48.2693 29.2781
8051 1 37.1911 49.8519 30.8607
8052 1 35.6085 48.2693 32.4433
8053 1 37.1911 49.8519 34.0259
8054 1 35.6085 48.2693 35.6085
8055 1 37.1911 49.8519 37.1911
8056 1 35.6085 48.2693 38.7737
8057 1 37.1911 49.8519 40.3563
8058 1 35.6085 48.2693 41.9389
8059 1 37.1911 49.8519 43.5215
8060 1 38.7737 41.9389 7.1217
8061 1 40.3563 43.5215 8.7043
8062 1 38.7737 41.9389 10.2869
8063 1 40.3563 43.5215 11.8695
8064 1 38.7737 41.9389 13.4521
8065 1 40.3563 43.5215 15.0347
8066 1 38.7737 41.9389 16.6173
8067 1 40.3563 43.5215 18.1999
8068 1 38.7737 41.9389 19.7825
8069 1 40.3563 43.5215 21.3651
8070 1 38.7737 41.9389 22.9477
8071 1 40.3563 43.5215 24.5303
8072 1 38.7737 41.9389 26.1129
8073 1 40.3563 43.5215 27.6955
8074 1 38.7737 41.9389 29.2781
8075 1 40.3563 43.5215 30.8607
8076 1 38.7737 41.9389 32.4433
8077 1 40.3563 43.5215 34.0259
8078 1 38.7737 41.9389 35.6085
8079 1 40.3563 43.5215 37.1911
8080 1 38.7737 41.9389 38.7737
8081 1 40.3563 43.5215 40.3563
8082 1 38.7737 41.9389 41.9389
8083 1 40.3563 43.5215 43.5215
8084 1 38.7737 45.1041 7.1217
8085 1 40.3563 46.6867 8.7043
8086 1 38.7737 45.1041 10.2869
8087 1 40.3563 46.6867 11.8695
8088 1 38.7737 45.1041 13.4521
8089 1 40.3563 46.6867 15.0347
8090 1 38.7737 45.1041 16.6173
8091 1 40.3563 46.6867 18.1999
8092 1 38.7737 45.1041 19.7825
8093 1 40.3563 46.6867 21.3651
8094 1 38.7737 45.1041 22.9477
8095 1 40.3563 46.6867 24.5303
8096 1 38.7737 45.1041 26.1129
8097 1 40.3563 46.6867 27.6955
8098 1 38.7737 45.1041 29.2781
8099 1 40.3563 46.6867 30.8607
8100 1 38.7737 45.1041 32.4433
8101 1 40.3563 46.6867 34.0259
8102 1 38.7737 45.1041 35.6085
8103 1 40.3563 46.6867 37.1911
8104 1 38.7737 45.1041 38.7737
8105 1 40.3563 46.6867 40.3563
8106 1 38.7737 45.1041 41.9389
8107 1 40.3563 46.6867 43.5215
8108 1 38.7737 48.2693 7.1217
8109 1 40.3563 49.8519 8.7043
8110 1 38.7737 48.2693 10.2869
8111 1 40.3563 49.8519 11.8695
8112 1 38.7737 48.2693 13.4521
8113 1 40.3563 49.8519 15.0347
8114 1 38.7737 48.2693 16.6173
8115 1 40.3563 49.8519 18.1999
8116 1 38.7737 48.2693 19.7825
8117 1 40.3563 49.8519 21.3651
8118 1 38.7737 48.2693 22.9477
8119 1 40.3563 49.8519 24.5303
8120 1 38.7737 48.2693 26.1129
8121 1 40.3563 49.8519 27.6955
8122 1 38.7737 48.2693 29.2781
8123 1 40.3563 49.8519 30.8607
8124 1 38.7737 48.2693 32.4433
8125 1 40.3563 49.8519 34.0259
8126 1 38.7737 48.2693 35.6085
8127 1 40.3563 49.8519 37.1911
8128 1 38.7737 48.2693 38.7737
8129 1 40.3563 49.8519 40.3563
8130 1 38.7737 48.2693 41.9389
8131 1 40.3563 49.8519 43.5215
8132 1 41.9389 41.9389 7.1217
8133 1 43.5215 43.5215 8.7043
8134 1 41.9389 41.9389 10.2869
8135 1 43.5215 43.5215 11.8695
8136 1 41.9389 41.9389 13.4521
8137 1 43.5215 43.5215 15.0347
8138 1 41.9389 41.9389 16.6173
8139 1 43.5215 43.5215 18.1999
8140 1 41.9389 41.9389 19.7825
8141 1 43.5215 43.5215 21.3651
8142 1 41.9389 41.9389 22.9477
8143 1 43.5215 43.5215 24.5303
8144 1 41.9389 41.9389 26.1129
8145 1 43.5215 43.5215 27.6955
8146 1 41.9389 41.9389 29.2781
8147 1 43.5215 43.5215 30.8607
8148 1 41.9389 41.9389 32.4433
8149 1 43.5215 43.5215 34.0259
8150 1 41.9389 41.9389 35.6085
8151 1 43.5215 43.5215 37.1911
8152 1 41.9389 41.9389 38.7737
8153 1 43.5215 43.5215 40.3563
8154 1 41.9389 41.9389 41.9389
8155 1 43.5215 43.5215 43.5215
8156 1 41.9389 45.1041 7.1217
8157 1 43.5215 46.6867 8.7043
8158 1 41.9389 45.1041 10.2869
8159 1 43.5215 46.6867 11.8695
8160 1 41.9389 45.1041 13.4521
8161 1 43.5215 46.6867 15.0347
8162 1 41.9389 45.1041 16.6173
8163 1 43.5215 46.6867 18.1999
8164 1 41.9389 45.1041 19.7825
8165 1 43.5215 46.6867 21.3651
8166 1 41.9389 45.1041 22.9477
8167 1 43.5215 46.6867 24.5303
8168 1 41.9389 45.1041 26.1129
8169 1 43.5215 46.6867 27.6955
8170 1 41.9389 45.1041 29.2781
8171 1 43.5215 46.6867 30.8607
8172 1 41.9389 45.1041 32.4433
8173 1 43.5215 46.6867 34.0259
8174 1 41.9389 45.1041 35.6085
8175 1 43.5215 46.6867 37.1911
8176 1 41.9389 45.1041 38.7737
8177 1 43.5215 46.6867 40.3563
8178 1 41.9389 45.1041 41.9389
8179 1 43.5215 46.6867 43.5215
8180 1 41.9389 48.2693 7.1217
8181 1 43.5215 49.8519 8.7043
8182 1 41.9389 48.2693 10.2869
8183 1 43.5215 49.8519 11.8695
8184 1 41.9389 48.2693 13.4521
8185 1 43.5215 49.8519 15.0347
8186 1 41.9389 48.2693 16.6173
8187 1 43.5215 49.8519 18.1999
8188 1 41.9389 48.2693 19.7825
8189 1 43.5215 49.8519 21.3651
8190 1 41.9389 48.2693 22.9477
8191 1 43.5215 49.8519 24.5303
8192 1 41.9389 48.2693 26.1129
8193 1 43.5215 49.8519 27.6955
8194 1 41.9389 48.2693 29.2781
8195 1 43.5215 49.8519 30.8607
8196 1 41.9389 48.2693 32.4433
8197 1 43.5215 49.8519 34.0259
8198 1 41.9389 48.2693 35.6085
8199 1 43.5215 49.8519 37.1911
8200 1 41.9389 48.2693 38.7737
8201 1 43.5215 49.8519 40.3563
8202 1 41.9389 48.2693 41.9389
8203 1 43.5215 49.8519 43.5215
