./desired/DD-Bjorkas/18_17/185_106/cluster.dat


16021 atoms
0 bonds
0 angles
0 dihedrals
0 impropers

2 atom types
0 bond types
0 angle types
0 dihedral types
0 improper types


0.000      63.304 xlo xhi
0.000      63.304 ylo yhi
0.000      63.304 zlo zhi


Atoms

1 1 16.8517 35.6228 23.1577
2 1 16.9193 35.5753 29.5329
3 1 16.8639 35.6347 32.7231
4 1 16.7955 35.6617 35.9117
5 1 16.8355 38.7667 23.1677
6 1 16.8686 38.7538 26.3707
7 1 16.8666 38.752 29.5386
8 1 16.8302 38.7773 32.6941
9 1 16.7649 38.8031 35.8993
10 1 18.3246 40.429 37.5211
11 1 18.4897 37.1857 31.1374
12 1 18.345 40.4202 34.3138
13 1 18.3678 37.2496 34.352
14 1 18.4098 40.3444 31.1212
15 1 18.3494 37.289 37.5396
16 1 16.9095 35.5699 26.3709
17 1 18.428 40.3314 27.9679
18 1 18.4452 37.2023 24.7659
19 1 18.4979 37.1688 27.9753
20 1 18.4172 40.3595 24.7715
21 1 19.971 35.6701 23.0946
22 1 21.5777 37.2453 24.7155
23 1 20.061 35.6355 26.3331
24 1 21.6799 37.1812 27.944
25 1 20.1746 35.6018 29.5552
26 1 21.7397 37.1875 31.2263
27 1 19.9986 35.711 32.8317
28 1 21.5066 37.3762 34.4848
29 1 21.5158 37.3707 37.6456
30 1 19.9713 38.8191 23.149
31 1 21.5774 40.4005 24.7585
32 1 20.0373 38.7719 26.371
33 1 21.6206 40.3664 28.0155
34 1 21.5986 40.4033 31.1806
35 1 20.0004 38.8246 32.7447
36 1 21.4891 40.4743 34.3746
37 1 19.914 38.8957 35.9918
38 1 21.4631 40.4749 37.5946
39 1 23.0876 35.6748 23.0514
40 1 24.78 37.2599 24.6274
41 1 23.1959 35.6691 26.1461
42 1 24.8395 37.2063 27.8459
43 1 24.6166 37.2797 31.4394
44 1 24.7449 37.4757 34.6386
45 1 26.26 39.1439 36.1661
46 1 24.6792 37.4667 37.7006
47 1 23.1337 38.8379 23.1304
48 1 24.4375 40.6567 24.875
49 1 23.1807 38.8067 26.3417
50 1 24.5079 40.4834 28.0677
51 1 23.2122 38.7731 29.5934
52 1 24.5533 40.4947 31.257
53 1 23.0823 38.9188 32.9167
54 1 24.6514 40.6041 34.4554
55 1 23.0855 38.9824 36.0465
56 1 24.6563 40.6511 37.6864
57 1 26.2355 35.5406 22.8867
58 1 27.5658 37.7958 24.9253
59 1 27.6188 37.6354 28.1215
60 2 26.4226 35.7126 30.5145
61 1 27.8073 37.6558 31.4984
62 1 26.321 35.8594 33.1599
63 1 23.1045 35.8409 36.1051
64 1 27.8925 37.5224 37.7862
65 1 25.9085 39.3802 23.5104
66 1 27.828 40.596 24.8409
67 1 26.0246 39.1564 26.4329
68 1 27.7468 40.448 28.0746
69 1 26.06 38.8878 29.7375
70 1 27.7922 40.4395 31.2538
71 1 26.187 39.0591 32.9802
72 1 27.8653 40.4903 34.495
73 1 27.8859 37.6017 34.6723
74 1 27.8967 40.7276 37.757
75 1 28.7151 36.2305 23.5549
76 1 29.0035 36.2952 26.6659
77 1 30.9247 37.4842 28.0682
78 1 29.2269 36.2357 29.8399
79 1 29.4573 36.1611 33.1293
80 1 31.1165 37.6059 34.6241
81 1 26.3435 35.924 36.3395
82 1 32.7592 35.9123 36.1671
83 1 29.3976 38.9039 23.1629
84 1 31.0056 40.4281 24.8086
85 1 29.349 39.036 26.4328
86 1 31.0381 40.3694 28.0228
87 1 29.3828 39.0273 29.6674
88 1 31.0699 40.3874 31.22
89 1 29.461 39.035 32.935
90 1 31.1231 40.4608 34.4243
91 1 29.5173 39.1544 36.2048
92 1 31.1527 40.7338 37.6641
93 1 30.8802 37.3264 24.8068
94 1 31.0279 37.5225 31.3242
95 1 32.6197 38.8212 23.1999
96 1 32.6014 38.7841 26.3767
97 1 32.6504 38.8256 29.6167
98 1 32.7348 38.8703 32.8565
99 1 32.752 39.0927 36.0449
100 1 29.5419 35.9816 36.3043
101 1 23.4263 35.6365 29.4844
102 1 32.6976 35.9367 32.951
103 1 32.5348 35.8541 26.4441
104 1 23.1997 35.8014 33.2366
105 1 31.1789 37.5252 37.7115
106 1 19.9184 35.7457 36.0136
107 1 20.0569 38.7552 29.5781
108 1 32.6182 35.9304 29.6609
109 1 32.6424 35.7037 23.2502
110 1 26.4341 35.4918 25.6513
111 2 26.4927 35.1872 28.1483
112 1 38.9025 35.5485 23.1815
113 1 37.3443 37.1822 24.7731
114 1 37.4094 37.2723 31.1242
115 1 35.7796 35.6544 26.3769
116 1 37.4569 37.3027 34.2825
117 1 39.1094 35.7026 35.8066
118 1 37.6047 37.3614 37.4114
119 1 35.7531 38.7772 23.1907
120 1 35.7865 38.8196 26.3491
121 1 37.3704 40.3867 27.9206
122 1 35.8231 38.8484 29.5505
123 1 37.4204 40.4183 31.0748
124 1 35.8686 38.8852 32.7283
125 1 37.4585 40.4836 34.2271
126 1 35.9079 38.9745 35.9022
127 1 37.5177 40.5533 37.3866
128 1 40.5173 37.1544 24.7579
129 1 42.1342 38.7657 29.4857
130 1 40.552 37.2177 31.0432
131 1 38.9762 35.6732 32.6713
132 1 40.6023 37.2549 34.2172
133 1 40.5346 37.296 37.4094
134 1 38.9393 38.7278 23.1745
135 1 40.53 40.3222 24.7378
136 1 38.9444 38.7737 26.3223
137 1 40.5495 40.3478 27.9006
138 1 38.9767 38.8136 29.508
139 1 40.5692 40.3799 31.0458
140 1 38.9851 38.8422 32.6499
141 1 40.6138 40.4228 34.2127
142 1 39.0657 38.9203 35.8099
143 1 40.6209 40.4461 37.3948
144 1 37.3605 40.3519 24.7467
145 1 42.065 35.5337 23.1693
146 1 43.6698 37.1293 24.7478
147 1 40.5267 37.1735 27.9014
148 1 43.6945 37.1579 27.8926
149 1 37.3782 37.2035 27.927
150 1 43.704 37.1584 31.0497
151 1 42.1225 35.6156 32.6524
152 1 43.709 37.1866 34.2238
153 1 43.6966 37.2111 37.3877
154 1 42.0966 38.7047 23.1551
155 1 43.6952 40.3071 24.7328
156 1 42.115 38.7327 26.3179
157 1 43.7185 40.3287 27.8948
158 1 43.732 40.341 31.0426
159 1 42.1753 38.7847 32.6447
160 1 43.727 40.378 34.2263
161 1 42.1512 38.8144 35.8082
162 1 43.7454 40.3799 37.3781
163 1 38.9498 35.6361 29.5173
164 1 35.7588 35.5855 23.2221
165 1 42.1081 35.5809 29.4924
166 1 42.0551 35.6417 35.8169
167 1 35.8551 35.7739 32.8367
168 1 42.0748 35.5446 26.3077
169 1 38.9253 35.5822 26.3357
170 1 35.7904 35.7202 29.5682
171 1 35.9338 35.7959 36.0183
172 1 34.3106 40.4856 34.3072
173 1 34.3733 40.5984 37.5385
174 1 34.4051 37.455 37.5899
175 1 34.2965 37.4064 34.4555
176 1 34.2442 40.4387 31.1387
177 1 34.186 40.3643 24.7826
178 1 34.2528 37.2914 31.2443
179 1 34.1919 37.2454 24.7735
180 1 34.2104 37.2968 28.0025
181 1 34.1953 40.3911 27.9488
182 1 16.6666 19.7903 32.6043
183 1 18.4791 24.6225 34.3232
184 1 16.7654 29.2572 23.0091
185 1 16.1434 28.6458 25.5516
186 1 17.5934 29.8509 26.9605
187 1 16.965 32.4871 23.1126
188 1 16.9648 23.0643 35.9354
189 1 16.8824 29.3511 35.9388
190 1 18.4397 24.6152 27.9909
191 1 16.7708 26.0253 22.921
192 1 16.5626 22.6678 22.8078
193 1 18.497 24.6211 31.1278
194 1 16.8462 32.524 35.9446
195 1 18.5063 27.751 34.3887
196 1 16.9432 32.475 32.7254
197 1 17.0012 29.2751 29.5777
198 1 16.9038 32.41 29.5617
199 1 16.9612 26.2738 32.6989
200 1 16.9852 32.4344 26.3516
201 1 18.1339 27.3109 27.506
202 1 16.8522 26.0653 25.6848
203 1 16.8567 23.006 26.3849
204 1 18.1325 24.1448 24.283
205 1 16.7637 23.0985 29.5022
206 1 18.5644 30.8193 31.1863
207 1 18.424 27.7543 37.5439
208 1 18.4125 30.9352 37.5625
209 1 18.4207 24.5908 37.5249
210 1 16.9023 26.2175 35.9522
211 1 16.9135 23.1047 32.7273
212 1 17.0227 26.4009 29.7967
213 1 18.4673 30.9795 34.396
214 1 18.5278 34.0286 24.7336
215 1 18.3651 34.133 37.5727
216 1 18.6108 33.9816 27.9999
217 1 18.53 34.0529 31.1802
218 1 18.1544 21.3004 24.6144
219 1 18.6019 27.9144 24.7178
220 1 18.4702 30.7828 24.6046
221 1 16.726 19.7342 35.8172
222 1 18.4852 34.0896 34.345
223 1 16.9421 29.3845 32.8149
224 1 18.3234 21.4508 31.0978
225 1 18.3212 21.353 34.2461
226 1 16.6173 19.7825 22.9477
227 1 16.9273 19.7591 29.5339
228 1 18.2959 21.3319 37.4721
229 1 18.2602 21.3377 27.8934
230 1 16.6515 19.7269 26.222
231 1 18.72 27.9121 31.2643
232 1 19.0943 31.2703 28.4445
233 1 21.3355 21.2629 24.56
234 1 21.6705 24.5114 31.0546
235 1 21.5931 31.0401 34.7636
236 1 24.6151 30.6996 24.3196
237 1 22.9604 25.9633 29.0426
238 1 21.8556 31.2214 28.1162
239 1 23.7644 32.9488 29.3049
240 2 22.5299 31.8501 31.2887
241 1 23.3096 32.6994 33.545
242 2 21.099 30.127 30.665
243 1 24.6729 33.9622 24.3454
244 1 24.7509 24.3364 34.6043
245 1 23.011 22.6056 22.9321
246 1 26.1893 19.5385 22.9927
247 1 22.9596 22.6675 26.1131
248 1 26.2135 22.5987 22.9252
249 1 26.2979 25.837 28.6826
250 1 26.1769 22.7277 29.2101
251 1 27.9957 27.7261 35.1352
252 1 26.2977 23.1669 32.5477
253 1 31.0612 21.4438 34.2099
254 1 24.7417 27.6814 37.743
255 1 22.9835 25.8375 22.9915
256 1 24.592 27.4317 24.3704
257 1 24.5259 24.3627 30.737
258 1 24.534 24.2711 27.5416
259 1 21.9088 27.5834 31.165
260 1 27.8949 21.5094 34.208
261 1 21.7917 27.6698 34.4355
262 2 24.727 28.1247 32.3317
263 1 23.1363 32.6349 36.3125
264 1 24.7327 30.9808 37.8133
265 1 26.2533 29.022 22.8077
266 1 24.5239 30.7041 27.1615
267 1 27.845 24.2713 30.478
268 1 22.9009 29.0561 25.8633
269 2 22.5415 28.7323 28.6754
270 1 24.6738 27.7903 34.9376
271 1 24.7759 31.0116 34.9861
272 1 26.3719 32.6468 36.3812
273 1 21.51 30.9599 37.6188
274 2 24.9448 30.9992 32.2993
275 1 29.4538 19.635 26.2039
276 1 31.0749 24.0101 24.3331
277 1 21.3435 21.2807 27.7953
278 1 31.0887 24.1842 30.4462
279 1 27.7908 21.026 24.5403
280 1 26.1533 22.5521 26.0443
281 1 27.9086 27.4023 27.0573
282 1 31.083 21.1267 27.7199
283 1 27.7876 21.1301 27.7043
284 1 24.6926 24.368 37.6996
285 2 26.2792 26.1607 31.3152
286 1 24.6739 21.1876 37.5443
287 1 26.3215 25.958 36.3111
288 1 29.5391 25.8698 36.3613
289 1 20.0213 29.301 35.9469
290 1 26.2293 25.765 22.96
291 1 27.8163 24.101 24.4771
292 1 24.573 24.1669 24.3946
293 1 27.8693 27.3517 24.2661
294 1 26.19 25.7594 25.8265
295 1 27.8288 24.1202 27.388
296 2 28.0386 27.8393 32.4383
297 1 27.8386 21.4737 31.0072
298 1 23.106 29.3573 36.2455
299 1 27.8977 24.2693 34.6516
300 2 26.373 26.1975 33.6856
301 1 27.9924 30.9867 37.865
302 1 27.9165 24.3143 37.7967
303 1 24.5556 27.4454 27.184
304 1 26.2559 32.2675 22.7749
305 2 26.3049 32.3273 28.2602
306 2 27.9683 27.5735 29.7528
307 2 26.5093 29.4145 30.9472
308 1 22.7629 29.6158 32.9176
309 2 26.4889 29.4417 33.7647
310 1 29.597 29.3473 36.4718
311 1 21.5247 27.7025 37.5824
312 2 28.127 31.0006 32.2781
313 1 31.2157 27.2207 27.0013
314 1 29.4299 25.6792 22.9254
315 1 29.4445 22.4962 26.0049
316 1 29.51 25.6319 25.7966
317 1 32.664 19.7797 29.4588
318 1 31.2089 27.1918 24.2158
319 1 26.2508 29.0423 25.6458
320 1 29.5032 25.7214 28.6147
321 2 29.6487 29.0203 28.2894
322 1 29.4791 23.1559 32.5273
323 1 29.417 22.6444 29.1718
324 1 29.6274 32.7024 36.3656
325 2 29.5592 26.1288 33.7
326 1 27.9755 27.6319 37.8487
327 1 31.2714 30.4028 24.0296
328 1 33.2781 31.636 22.7254
329 1 29.595 28.9052 25.509
330 2 24.7393 27.6657 29.8074
331 1 31.0352 21.3934 31.0038
332 1 32.6214 23.0163 32.5793
333 1 26.3549 29.3513 36.4485
334 1 32.7124 32.8253 36.2361
335 1 31.1336 24.2545 37.8061
336 1 26.2448 32.2615 25.6107
337 2 29.7006 29.2736 30.9598
338 1 29.3999 22.4956 22.9229
339 1 29.488 22.6919 36.1557
340 1 32.8672 28.7492 22.6826
341 2 26.3879 29.1603 28.3278
342 1 32.7359 22.5741 29.2493
343 1 31.072 21.0872 37.638
344 1 29.5313 28.9205 22.7058
345 1 31.0684 24.015 27.4772
346 2 31.2549 27.7805 32.4088
347 1 31.3438 30.9422 34.9987
348 1 31.0893 24.1974 34.6539
349 1 21.3237 27.4874 24.3933
350 1 22.9949 29.095 22.9615
351 2 28.0428 30.6302 26.8495
352 1 27.9242 30.5806 24.1215
353 2 33.0356 29.0644 30.9336
354 2 29.6777 29.3831 33.7697
355 2 29.9415 32.1962 28.087
356 1 19.6937 25.94 22.9738
357 1 28.0616 31.0703 35.0778
358 2 24.2879 30.3476 29.864
359 1 26.2934 22.7592 36.1257
360 1 21.362 30.7582 24.322
361 2 31.4369 30.7458 32.3111
362 1 29.4513 19.8757 32.6195
363 1 29.7625 32.1152 25.3688
364 1 22.9642 25.7709 25.8126
365 1 23.1575 26.0055 36.1501
366 2 28.1899 30.8807 29.5358
367 1 32.471 33.0763 32.9555
368 1 29.5707 32.1634 22.6244
369 2 31.4056 30.4577 26.8211
370 1 27.8721 21.137 37.6162
371 2 26.4364 32.5263 30.8242
372 1 23.1384 23.0009 32.6999
373 1 31.1979 27.6557 35.1117
374 2 31.2171 27.4654 29.7387
375 1 26.4841 32.6604 33.5795
376 2 32.9681 28.8531 28.2676
377 2 29.977 32.3572 30.8936
378 1 21.5045 21.3954 34.2622
379 1 29.7546 32.6226 33.5715
380 2 32.7188 25.9662 33.5811
381 1 20.115 32.384 26.2271
382 1 24.7331 21.4802 34.2371
383 1 26.2636 19.9037 32.6276
384 2 31.4721 30.633 29.5383
385 1 32.8141 25.5044 22.7128
386 2 29.5722 26.0763 31.3052
387 1 24.6485 21.484 31.0367
388 1 23.0162 32.3765 22.992
389 1 19.8482 32.4619 23.0051
390 1 23.0959 22.8001 35.9836
391 1 32.7318 25.4954 25.8601
392 1 29.4349 19.6008 22.9759
393 1 23.3415 25.8498 32.8319
394 1 32.7135 19.713 26.1649
395 1 21.3785 24.179 24.3731
396 1 31.1179 21.0886 24.5019
397 1 19.7984 19.7332 22.9889
398 1 22.943 22.7844 29.2851
399 1 32.7235 22.6613 22.7827
400 1 31.2227 30.9909 37.7849
401 1 20.2166 29.5631 26.4716
402 1 20.2131 32.4963 32.7609
403 1 21.4742 21.312 37.484
404 1 31.8527 33.1645 23.8977
405 1 21.2484 27.1884 27.1892
406 1 32.9095 28.7695 25.5309
407 1 22.9319 19.69 22.9741
408 2 33.0411 29.2152 33.7071
409 1 24.5719 21.1584 27.7657
410 1 32.7128 22.573 26.0016
411 1 32.7213 19.5371 22.9986
412 1 21.4703 21.3877 31.0774
413 1 32.8942 29.2238 36.3963
414 1 31.1816 27.5931 37.8144
415 1 19.8766 29.205 22.7744
416 1 21.6207 24.4841 34.3979
417 1 21.3251 24.4253 27.6341
418 1 24.5898 21.0664 24.5431
419 1 19.948 32.589 36.0613
420 1 21.4939 24.4367 37.5275
421 1 20.5087 32.8342 29.8592
422 1 19.7052 22.857 26.1837
423 1 32.0793 33.1512 26.6732
424 2 32.7806 25.9647 31.2686
425 1 19.9888 22.9898 32.6779
426 1 32.7418 25.7917 36.3119
427 1 22.9629 32.3109 25.8384
428 1 32.4343 33.1191 29.7681
429 1 27.9365 33.7576 24.1308
430 1 20.12 29.3631 33.0694
431 1 21.519 34.2031 37.6529
432 1 19.9044 19.8019 32.6671
433 1 19.8605 22.9496 35.8816
434 1 21.4439 34.09 24.5822
435 2 28.2008 33.7455 26.7553
436 1 29.4343 19.8176 29.4456
437 1 21.7801 34.0325 27.7821
438 1 21.833 34.4168 31.4346
439 1 19.89 19.783 35.8244
440 2 28.3741 33.7966 29.4448
441 1 19.8152 19.7788 29.4846
442 1 29.4607 19.8562 35.8123
443 1 23.0719 19.8474 32.6418
444 1 32.7303 25.663 28.6148
445 1 20.0336 26.1167 35.9353
446 1 20.163 26.1726 32.7483
447 1 26.2278 19.8516 29.4616
448 1 26.1775 19.6364 26.2075
449 1 22.9328 19.7676 26.2061
450 1 32.6541 19.798 35.8322
451 1 23.0975 19.8721 35.8186
452 1 22.9994 19.832 29.4704
453 1 32.6234 19.8053 32.6388
454 1 28.1903 34.1662 32.0366
455 1 31.1579 34.3195 37.7819
456 1 27.9716 34.2795 37.7902
457 1 32.6666 22.6493 36.1256
458 1 26.2698 19.8768 35.8347
459 1 24.7266 34.2582 37.709
460 1 28.0409 34.3692 34.8783
461 1 21.5036 34.1992 34.5854
462 1 19.7747 22.6624 22.8957
463 1 24.5407 33.9547 27.0426
464 1 19.6758 25.6781 25.7721
465 1 19.7644 28.7643 28.962
466 1 20.1658 26.1451 29.5401
467 1 24.5834 34.1774 31.6833
468 1 19.7664 19.7471 26.2082
469 1 19.96 22.9406 29.4605
470 1 33.5158 31.4169 25.394
471 1 24.8384 34.3185 34.8704
472 1 30.8777 34.7263 31.4191
473 1 31.0987 34.5108 34.715
474 1 33.8401 31.3697 28.1255
475 1 30.301 34.71 25.1726
476 1 30.7076 34.7402 28.2521
477 1 36.0139 25.4417 26.0214
478 1 37.558 21.1769 24.5221
479 1 37.6336 24.0343 24.5611
480 1 40.7419 21.1133 24.6511
481 1 34.4943 27.1492 27.0438
482 1 37.6315 24.023 27.7444
483 1 40.4466 27.6345 37.397
484 1 37.5665 24.2353 37.5079
485 1 35.7611 32.4301 23.2643
486 1 34.9365 29.8973 23.9459
487 1 38.7208 26.0277 32.6424
488 1 37.316 30.7241 24.7861
489 1 39.1243 22.6285 35.9183
490 1 40.4076 24.4431 37.4588
491 1 38.886 25.9467 23.1352
492 1 39.2089 22.664 22.9772
493 1 42.0033 26.0358 26.3117
494 1 40.3731 27.6061 24.7638
495 1 39.1731 22.7104 29.4467
496 1 40.6826 21.1934 34.2401
497 1 38.7439 26.0245 29.4455
498 1 39.2005 22.5725 26.2219
499 1 38.7631 26.0034 26.29
500 1 37.0656 27.8349 25.0403
501 1 37.0704 27.6719 31.0494
502 1 38.8134 29.1257 23.1669
503 1 40.3966 24.4551 31.0566
504 1 40.3251 27.6157 31.0687
505 1 37.5234 30.8897 37.335
506 1 42.0769 32.4036 32.659
507 1 36.1805 28.4526 22.6046
508 1 40.4266 30.7558 24.7508
509 1 38.7573 29.2325 29.5271
510 1 40.4286 30.7966 27.9559
511 1 35.7642 32.4426 26.4457
512 1 40.3697 27.6242 27.9171
513 1 40.4309 30.8093 31.0956
514 1 42.0098 29.2163 35.8146
515 1 38.8739 32.3455 23.1839
516 1 43.6133 30.8011 34.2442
517 1 35.909 32.6327 36.0433
518 1 42.0878 22.8455 23.0853
519 1 43.6042 21.2447 24.7021
520 1 40.4739 24.4038 24.6948
521 1 43.6151 24.4323 24.7192
522 1 43.596 21.292 27.8819
523 1 41.991 29.2083 32.6499
524 1 38.8815 29.2189 35.787
525 1 43.5568 21.322 34.2482
526 1 43.5572 24.4716 34.2375
527 1 42.0129 26.0256 23.1412
528 1 43.5977 27.5912 24.7366
529 1 41.9944 29.198 26.3526
530 1 35.5097 29.7123 29.7561
531 1 41.9904 22.8965 32.6594
532 1 37.5346 24.1439 31.0337
533 1 43.5797 24.4665 31.0817
534 1 43.5788 27.6239 34.2389
535 1 41.9988 29.1765 23.1462
536 1 43.6138 30.7593 24.7409
537 1 38.8217 29.2478 26.4154
538 1 37.2753 30.9072 28.0384
539 1 43.5336 21.3049 37.4904
540 1 40.4675 30.8229 34.2404
541 1 42.026 32.3454 23.1763
542 1 42.0118 22.8933 29.4778
543 1 42.0556 22.8587 26.2888
544 1 43.6112 30.7809 27.9163
545 1 43.599 24.4413 27.8937
546 1 43.5642 24.4675 37.4542
547 1 43.5887 27.6062 27.9249
548 1 41.9903 29.2019 29.512
549 1 43.5895 27.6079 31.0587
550 1 43.623 30.7759 31.0689
551 1 41.9754 26.0488 29.4826
552 1 40.3891 24.4618 34.2407
553 1 40.3887 27.6185 34.1999
554 1 39.0881 32.4953 35.8282
555 1 37.2698 27.655 37.3573
556 1 38.7715 29.2393 32.6719
557 1 41.9896 26.0687 35.8363
558 1 40.4171 24.4388 27.8542
559 1 43.5976 27.6448 37.3998
560 1 43.6157 30.8283 37.3905
561 1 37.2942 30.9473 31.1977
562 1 43.5826 21.2866 31.0834
563 1 36.0173 25.4665 29.173
564 1 41.9691 26.0544 32.648
565 1 35.9243 22.6386 29.3616
566 1 38.8038 26.0255 35.8054
567 1 36.0437 25.6367 22.8792
568 1 35.6572 29.4765 35.8252
569 1 37.1166 27.7028 27.8809
570 1 42.0305 32.3722 26.3265
571 1 38.9053 32.4579 29.5561
572 1 38.894 32.3993 26.3598
573 1 35.9757 22.5593 26.0958
574 1 35.8024 32.6478 32.8203
575 1 37.4978 21.0757 37.5367
576 1 42.0561 32.3853 29.4976
577 1 38.9276 32.4966 32.6956
578 1 40.6847 21.0977 37.5242
579 1 40.4299 30.8238 37.4223
580 1 42.0144 32.4105 35.8069
581 1 35.9172 19.6024 23.0199
582 1 37.3901 30.9755 34.4278
583 1 35.7035 32.5832 29.6522
584 1 35.9719 22.7404 22.8109
585 1 37.5811 21.1836 27.8147
586 1 37.1396 27.6902 34.2186
587 1 35.4623 29.6199 26.5567
588 1 39.1114 22.7392 32.6498
589 1 35.9134 25.5793 32.7273
590 1 36.0006 25.6989 35.9656
591 1 41.9678 22.8594 35.8855
592 1 35.9074 22.5979 35.9919
593 1 35.9267 19.7072 26.1949
594 1 37.5277 24.1468 34.3043
595 1 37.468 21.2793 34.2643
596 1 42.2676 19.5737 26.279
597 1 35.8901 19.7447 29.4557
598 1 34.4863 27.102 24.2974
599 1 43.6672 33.9887 34.2077
600 1 43.6368 33.9284 24.7316
601 1 43.6527 33.9432 27.9088
602 1 37.4882 21.2697 31.0684
603 1 40.4768 33.9448 24.754
604 1 35.6044 29.7564 32.9489
605 1 40.5596 34.0587 34.2181
606 1 43.6438 34.0187 37.3942
607 1 40.7225 21.1618 27.8871
608 1 42.2607 19.555 23.0725
609 1 39.0571 19.7183 35.8525
610 1 40.5228 34.023 31.057
611 1 40.4912 33.9925 27.9157
612 1 37.3266 34.0714 27.972
613 1 37.3253 33.9936 24.7822
614 1 35.8645 22.7579 32.6689
615 1 43.6728 33.9744 31.0576
616 1 37.3618 34.1098 31.1613
617 1 40.4911 34.0728 37.4504
618 1 39.0732 19.6293 29.4618
619 1 37.6202 34.1337 37.3963
620 1 37.4387 34.152 34.3445
621 1 40.6799 21.1949 31.0781
622 1 34.3944 34.2439 37.617
623 1 35.8538 19.7598 32.6568
624 1 42.2333 19.6162 32.6559
625 1 39.0503 19.6748 32.6465
626 1 39.1085 19.5723 23.0419
627 1 39.099 19.657 26.242
628 1 42.2474 19.575 29.488
629 2 34.5619 27.2571 29.7358
630 2 34.5815 27.4909 32.3081
631 1 34.3866 24.005 24.4141
632 1 34.2783 34.2761 34.4931
633 1 34.1343 34.0659 24.8798
634 1 34.2021 34.3296 31.2744
635 1 34.4343 27.4106 34.9233
636 1 42.2221 19.6451 35.787
637 1 35.8554 19.7536 35.8425
638 1 34.3735 24.1419 30.7996
639 1 34.3691 24.2428 37.6946
640 1 34.3585 31.0081 37.619
641 1 34.4702 27.5086 37.6341
642 1 34.3813 23.9828 27.5965
643 1 34.3346 21.1846 24.495
644 1 34.285 21.0723 37.5924
645 1 34.3337 21.1299 27.7494
646 1 34.2456 21.3276 31.0451
647 1 34.3235 24.1553 34.5222
648 1 34.187 21.3502 34.2505
649 1 34.1597 34.1764 28.0405
650 1 34.1163 31.4497 34.5059
651 1 34.0139 31.4539 31.3601
652 1 0.7913 0.7913 0.7913
653 1 2.3739 2.3739 2.3739
654 1 0.7913 0.7913 3.9565
655 1 2.3739 2.3739 5.5391
656 1 0.7913 0.7913 7.1217
657 1 2.3739 2.3739 8.7043
658 1 0.7913 0.7913 10.2869
659 1 2.3739 2.3739 11.8695
660 1 0.7913 0.7913 13.4521
661 1 2.3739 2.3739 15.0347
662 1 0.7913 0.7913 16.6173
663 1 2.3739 2.3739 18.1999
664 1 0.7913 0.7913 19.7825
665 1 2.3739 2.3739 21.3651
666 1 0.7913 0.7913 22.9477
667 1 2.3739 2.3739 24.5303
668 1 0.7913 0.7913 26.1129
669 1 2.3739 2.3739 27.6955
670 1 0.7913 0.7913 29.2781
671 1 2.3739 2.3739 30.8607
672 1 0.7913 0.7913 32.4433
673 1 2.3739 2.3739 34.0259
674 1 0.7913 0.7913 35.6085
675 1 2.3739 2.3739 37.1911
676 1 0.7913 0.7913 38.7737
677 1 2.3739 2.3739 40.3563
678 1 0.7913 0.7913 41.9389
679 1 2.3739 2.3739 43.5215
680 1 0.7913 0.7913 45.1041
681 1 2.3739 2.3739 46.6867
682 1 0.7913 0.7913 48.2693
683 1 2.3739 2.3739 49.8519
684 1 0.7913 0.7913 51.4345
685 1 2.3739 2.3739 53.0171
686 1 0.7913 0.7913 54.5997
687 1 2.3739 2.3739 56.1823
688 1 0.7913 0.7913 57.7649
689 1 2.3739 2.3739 59.3475
690 1 0.7913 0.7913 60.9301
691 1 2.3739 2.3739 62.5127
692 1 0.7913 3.9565 0.7913
693 1 2.3739 5.5391 2.3739
694 1 0.7913 3.9565 3.9565
695 1 2.3739 5.5391 5.5391
696 1 0.7913 3.9565 7.1217
697 1 2.3739 5.5391 8.7043
698 1 0.7913 3.9565 10.2869
699 1 2.3739 5.5391 11.8695
700 1 0.7913 3.9565 13.4521
701 1 2.3739 5.5391 15.0347
702 1 0.7913 3.9565 16.6173
703 1 2.3739 5.5391 18.1999
704 1 0.7913 3.9565 19.7825
705 1 2.3739 5.5391 21.3651
706 1 0.7913 3.9565 22.9477
707 1 2.3739 5.5391 24.5303
708 1 0.7913 3.9565 26.1129
709 1 2.3739 5.5391 27.6955
710 1 0.7913 3.9565 29.2781
711 1 2.3739 5.5391 30.8607
712 1 0.7913 3.9565 32.4433
713 1 2.3739 5.5391 34.0259
714 1 0.7913 3.9565 35.6085
715 1 2.3739 5.5391 37.1911
716 1 0.7913 3.9565 38.7737
717 1 2.3739 5.5391 40.3563
718 1 0.7913 3.9565 41.9389
719 1 2.3739 5.5391 43.5215
720 1 0.7913 3.9565 45.1041
721 1 2.3739 5.5391 46.6867
722 1 0.7913 3.9565 48.2693
723 1 2.3739 5.5391 49.8519
724 1 0.7913 3.9565 51.4345
725 1 2.3739 5.5391 53.0171
726 1 0.7913 3.9565 54.5997
727 1 2.3739 5.5391 56.1823
728 1 0.7913 3.9565 57.7649
729 1 2.3739 5.5391 59.3475
730 1 0.7913 3.9565 60.9301
731 1 2.3739 5.5391 62.5127
732 1 0.7913 7.1217 0.7913
733 1 2.3739 8.7043 2.3739
734 1 0.7913 7.1217 3.9565
735 1 2.3739 8.7043 5.5391
736 1 0.7913 7.1217 7.1217
737 1 2.3739 8.7043 8.7043
738 1 0.7913 7.1217 10.2869
739 1 2.3739 8.7043 11.8695
740 1 0.7913 7.1217 13.4521
741 1 2.3739 8.7043 15.0347
742 1 0.7913 7.1217 16.6173
743 1 2.3739 8.7043 18.1999
744 1 0.7913 7.1217 19.7825
745 1 2.3739 8.7043 21.3651
746 1 0.7913 7.1217 22.9477
747 1 2.3739 8.7043 24.5303
748 1 0.7913 7.1217 26.1129
749 1 2.3739 8.7043 27.6955
750 1 0.7913 7.1217 29.2781
751 1 2.3739 8.7043 30.8607
752 1 0.7913 7.1217 32.4433
753 1 2.3739 8.7043 34.0259
754 1 0.7913 7.1217 35.6085
755 1 2.3739 8.7043 37.1911
756 1 0.7913 7.1217 38.7737
757 1 2.3739 8.7043 40.3563
758 1 0.7913 7.1217 41.9389
759 1 2.3739 8.7043 43.5215
760 1 0.7913 7.1217 45.1041
761 1 2.3739 8.7043 46.6867
762 1 0.7913 7.1217 48.2693
763 1 2.3739 8.7043 49.8519
764 1 0.7913 7.1217 51.4345
765 1 2.3739 8.7043 53.0171
766 1 0.7913 7.1217 54.5997
767 1 2.3739 8.7043 56.1823
768 1 0.7913 7.1217 57.7649
769 1 2.3739 8.7043 59.3475
770 1 0.7913 7.1217 60.9301
771 1 2.3739 8.7043 62.5127
772 1 0.7913 10.2869 0.7913
773 1 2.3739 11.8695 2.3739
774 1 0.7913 10.2869 3.9565
775 1 2.3739 11.8695 5.5391
776 1 0.7913 10.2869 7.1217
777 1 2.3739 11.8695 8.7043
778 1 0.7913 10.2869 10.2869
779 1 2.3739 11.8695 11.8695
780 1 0.7913 10.2869 13.4521
781 1 2.3739 11.8695 15.0347
782 1 0.7913 10.2869 16.6173
783 1 2.3739 11.8695 18.1999
784 1 0.7913 10.2869 19.7825
785 1 2.3739 11.8695 21.3651
786 1 0.7913 10.2869 22.9477
787 1 2.3739 11.8695 24.5303
788 1 0.7913 10.2869 26.1129
789 1 2.3739 11.8695 27.6955
790 1 0.7913 10.2869 29.2781
791 1 2.3739 11.8695 30.8607
792 1 0.7913 10.2869 32.4433
793 1 2.3739 11.8695 34.0259
794 1 0.7913 10.2869 35.6085
795 1 2.3739 11.8695 37.1911
796 1 0.7913 10.2869 38.7737
797 1 2.3739 11.8695 40.3563
798 1 0.7913 10.2869 41.9389
799 1 2.3739 11.8695 43.5215
800 1 0.7913 10.2869 45.1041
801 1 2.3739 11.8695 46.6867
802 1 0.7913 10.2869 48.2693
803 1 2.3739 11.8695 49.8519
804 1 0.7913 10.2869 51.4345
805 1 2.3739 11.8695 53.0171
806 1 0.7913 10.2869 54.5997
807 1 2.3739 11.8695 56.1823
808 1 0.7913 10.2869 57.7649
809 1 2.3739 11.8695 59.3475
810 1 0.7913 10.2869 60.9301
811 1 2.3739 11.8695 62.5127
812 1 0.7913 13.4521 0.7913
813 1 2.3739 15.0347 2.3739
814 1 0.7913 13.4521 3.9565
815 1 2.3739 15.0347 5.5391
816 1 0.7913 13.4521 7.1217
817 1 2.3739 15.0347 8.7043
818 1 0.7913 13.4521 10.2869
819 1 2.3739 15.0347 11.8695
820 1 0.7913 13.4521 13.4521
821 1 2.3739 15.0347 15.0347
822 1 0.7913 13.4521 16.6173
823 1 2.3739 15.0347 18.1999
824 1 0.7913 13.4521 19.7825
825 1 2.3739 15.0347 21.3651
826 1 0.7913 13.4521 22.9477
827 1 2.3739 15.0347 24.5303
828 1 0.7913 13.4521 26.1129
829 1 2.3739 15.0347 27.6955
830 1 0.7913 13.4521 29.2781
831 1 2.3739 15.0347 30.8607
832 1 0.7913 13.4521 32.4433
833 1 2.3739 15.0347 34.0259
834 1 0.7913 13.4521 35.6085
835 1 2.3739 15.0347 37.1911
836 1 0.7913 13.4521 38.7737
837 1 2.3739 15.0347 40.3563
838 1 0.7913 13.4521 41.9389
839 1 2.3739 15.0347 43.5215
840 1 0.7913 13.4521 45.1041
841 1 2.3739 15.0347 46.6867
842 1 0.7913 13.4521 48.2693
843 1 2.3739 15.0347 49.8519
844 1 0.7913 13.4521 51.4345
845 1 2.3739 15.0347 53.0171
846 1 0.7913 13.4521 54.5997
847 1 2.3739 15.0347 56.1823
848 1 0.7913 13.4521 57.7649
849 1 2.3739 15.0347 59.3475
850 1 0.7913 13.4521 60.9301
851 1 2.3739 15.0347 62.5127
852 1 0.7913 16.6173 0.7913
853 1 2.3739 18.1999 2.3739
854 1 0.7913 16.6173 3.9565
855 1 2.3739 18.1999 5.5391
856 1 0.7913 16.6173 7.1217
857 1 2.3739 18.1999 8.7043
858 1 0.7913 16.6173 10.2869
859 1 2.3739 18.1999 11.8695
860 1 0.7913 16.6173 13.4521
861 1 2.3739 18.1999 15.0347
862 1 0.7913 16.6173 16.6173
863 1 2.3739 18.1999 18.1999
864 1 0.7913 16.6173 19.7825
865 1 2.3739 18.1999 21.3651
866 1 0.7913 16.6173 22.9477
867 1 2.3739 18.1999 24.5303
868 1 0.7913 16.6173 26.1129
869 1 2.3739 18.1999 27.6955
870 1 0.7913 16.6173 29.2781
871 1 2.3739 18.1999 30.8607
872 1 0.7913 16.6173 32.4433
873 1 2.3739 18.1999 34.0259
874 1 0.7913 16.6173 35.6085
875 1 2.3739 18.1999 37.1911
876 1 0.7913 16.6173 38.7737
877 1 2.3739 18.1999 40.3563
878 1 0.7913 16.6173 41.9389
879 1 2.3739 18.1999 43.5215
880 1 0.7913 16.6173 45.1041
881 1 2.3739 18.1999 46.6867
882 1 0.7913 16.6173 48.2693
883 1 2.3739 18.1999 49.8519
884 1 0.7913 16.6173 51.4345
885 1 2.3739 18.1999 53.0171
886 1 0.7913 16.6173 54.5997
887 1 2.3739 18.1999 56.1823
888 1 0.7913 16.6173 57.7649
889 1 2.3739 18.1999 59.3475
890 1 0.7913 16.6173 60.9301
891 1 2.3739 18.1999 62.5127
892 1 0.7913 19.7825 0.7913
893 1 2.3739 21.3651 2.3739
894 1 0.7913 19.7825 3.9565
895 1 2.3739 21.3651 5.5391
896 1 0.7913 19.7825 7.1217
897 1 2.3739 21.3651 8.7043
898 1 0.7913 19.7825 10.2869
899 1 2.3739 21.3651 11.8695
900 1 0.7913 19.7825 13.4521
901 1 2.3739 21.3651 15.0347
902 1 0.7913 19.7825 16.6173
903 1 2.3739 21.3651 18.1999
904 1 0.7913 19.7825 19.7825
905 1 2.3739 21.3651 21.3651
906 1 0.7913 19.7825 22.9477
907 1 2.3739 21.3651 24.5303
908 1 0.7913 19.7825 26.1129
909 1 2.3739 21.3651 27.6955
910 1 0.7913 19.7825 29.2781
911 1 2.3739 21.3651 30.8607
912 1 0.7913 19.7825 32.4433
913 1 2.3739 21.3651 34.0259
914 1 0.7913 19.7825 35.6085
915 1 2.3739 21.3651 37.1911
916 1 0.7913 19.7825 38.7737
917 1 2.3739 21.3651 40.3563
918 1 0.7913 19.7825 41.9389
919 1 2.3739 21.3651 43.5215
920 1 0.7913 19.7825 45.1041
921 1 2.3739 21.3651 46.6867
922 1 0.7913 19.7825 48.2693
923 1 2.3739 21.3651 49.8519
924 1 0.7913 19.7825 51.4345
925 1 2.3739 21.3651 53.0171
926 1 0.7913 19.7825 54.5997
927 1 2.3739 21.3651 56.1823
928 1 0.7913 19.7825 57.7649
929 1 2.3739 21.3651 59.3475
930 1 0.7913 19.7825 60.9301
931 1 2.3739 21.3651 62.5127
932 1 0.7913 22.9477 0.7913
933 1 2.3739 24.5303 2.3739
934 1 0.7913 22.9477 3.9565
935 1 2.3739 24.5303 5.5391
936 1 0.7913 22.9477 7.1217
937 1 2.3739 24.5303 8.7043
938 1 0.7913 22.9477 10.2869
939 1 2.3739 24.5303 11.8695
940 1 0.7913 22.9477 13.4521
941 1 2.3739 24.5303 15.0347
942 1 0.7913 22.9477 16.6173
943 1 2.3739 24.5303 18.1999
944 1 0.7913 22.9477 19.7825
945 1 2.3739 24.5303 21.3651
946 1 0.7913 22.9477 22.9477
947 1 2.3739 24.5303 24.5303
948 1 0.7913 22.9477 26.1129
949 1 2.3739 24.5303 27.6955
950 1 0.7913 22.9477 29.2781
951 1 2.3739 24.5303 30.8607
952 1 0.7913 22.9477 32.4433
953 1 2.3739 24.5303 34.0259
954 1 0.7913 22.9477 35.6085
955 1 2.3739 24.5303 37.1911
956 1 0.7913 22.9477 38.7737
957 1 2.3739 24.5303 40.3563
958 1 0.7913 22.9477 41.9389
959 1 2.3739 24.5303 43.5215
960 1 0.7913 22.9477 45.1041
961 1 2.3739 24.5303 46.6867
962 1 0.7913 22.9477 48.2693
963 1 2.3739 24.5303 49.8519
964 1 0.7913 22.9477 51.4345
965 1 2.3739 24.5303 53.0171
966 1 0.7913 22.9477 54.5997
967 1 2.3739 24.5303 56.1823
968 1 0.7913 22.9477 57.7649
969 1 2.3739 24.5303 59.3475
970 1 0.7913 22.9477 60.9301
971 1 2.3739 24.5303 62.5127
972 1 0.7913 26.1129 0.7913
973 1 2.3739 27.6955 2.3739
974 1 0.7913 26.1129 3.9565
975 1 2.3739 27.6955 5.5391
976 1 0.7913 26.1129 7.1217
977 1 2.3739 27.6955 8.7043
978 1 0.7913 26.1129 10.2869
979 1 2.3739 27.6955 11.8695
980 1 0.7913 26.1129 13.4521
981 1 2.3739 27.6955 15.0347
982 1 0.7913 26.1129 16.6173
983 1 2.3739 27.6955 18.1999
984 1 0.7913 26.1129 19.7825
985 1 2.3739 27.6955 21.3651
986 1 0.7913 26.1129 22.9477
987 1 2.3739 27.6955 24.5303
988 1 0.7913 26.1129 26.1129
989 1 2.3739 27.6955 27.6955
990 1 0.7913 26.1129 29.2781
991 1 2.3739 27.6955 30.8607
992 1 0.7913 26.1129 32.4433
993 1 2.3739 27.6955 34.0259
994 1 0.7913 26.1129 35.6085
995 1 2.3739 27.6955 37.1911
996 1 0.7913 26.1129 38.7737
997 1 2.3739 27.6955 40.3563
998 1 0.7913 26.1129 41.9389
999 1 2.3739 27.6955 43.5215
1000 1 0.7913 26.1129 45.1041
1001 1 2.3739 27.6955 46.6867
1002 1 0.7913 26.1129 48.2693
1003 1 2.3739 27.6955 49.8519
1004 1 0.7913 26.1129 51.4345
1005 1 2.3739 27.6955 53.0171
1006 1 0.7913 26.1129 54.5997
1007 1 2.3739 27.6955 56.1823
1008 1 0.7913 26.1129 57.7649
1009 1 2.3739 27.6955 59.3475
1010 1 0.7913 26.1129 60.9301
1011 1 2.3739 27.6955 62.5127
1012 1 0.7913 29.2781 0.7913
1013 1 2.3739 30.8607 2.3739
1014 1 0.7913 29.2781 3.9565
1015 1 2.3739 30.8607 5.5391
1016 1 0.7913 29.2781 7.1217
1017 1 2.3739 30.8607 8.7043
1018 1 0.7913 29.2781 10.2869
1019 1 2.3739 30.8607 11.8695
1020 1 0.7913 29.2781 13.4521
1021 1 2.3739 30.8607 15.0347
1022 1 0.7913 29.2781 16.6173
1023 1 2.3739 30.8607 18.1999
1024 1 0.7913 29.2781 19.7825
1025 1 2.3739 30.8607 21.3651
1026 1 0.7913 29.2781 22.9477
1027 1 2.3739 30.8607 24.5303
1028 1 0.7913 29.2781 26.1129
1029 1 2.3739 30.8607 27.6955
1030 1 0.7913 29.2781 29.2781
1031 1 2.3739 30.8607 30.8607
1032 1 0.7913 29.2781 32.4433
1033 1 2.3739 30.8607 34.0259
1034 1 0.7913 29.2781 35.6085
1035 1 2.3739 30.8607 37.1911
1036 1 0.7913 29.2781 38.7737
1037 1 2.3739 30.8607 40.3563
1038 1 0.7913 29.2781 41.9389
1039 1 2.3739 30.8607 43.5215
1040 1 0.7913 29.2781 45.1041
1041 1 2.3739 30.8607 46.6867
1042 1 0.7913 29.2781 48.2693
1043 1 2.3739 30.8607 49.8519
1044 1 0.7913 29.2781 51.4345
1045 1 2.3739 30.8607 53.0171
1046 1 0.7913 29.2781 54.5997
1047 1 2.3739 30.8607 56.1823
1048 1 0.7913 29.2781 57.7649
1049 1 2.3739 30.8607 59.3475
1050 1 0.7913 29.2781 60.9301
1051 1 2.3739 30.8607 62.5127
1052 1 0.7913 32.4433 0.7913
1053 1 2.3739 34.0259 2.3739
1054 1 0.7913 32.4433 3.9565
1055 1 2.3739 34.0259 5.5391
1056 1 0.7913 32.4433 7.1217
1057 1 2.3739 34.0259 8.7043
1058 1 0.7913 32.4433 10.2869
1059 1 2.3739 34.0259 11.8695
1060 1 0.7913 32.4433 13.4521
1061 1 2.3739 34.0259 15.0347
1062 1 0.7913 32.4433 16.6173
1063 1 2.3739 34.0259 18.1999
1064 1 0.7913 32.4433 19.7825
1065 1 2.3739 34.0259 21.3651
1066 1 0.7913 32.4433 22.9477
1067 1 2.3739 34.0259 24.5303
1068 1 0.7913 32.4433 26.1129
1069 1 2.3739 34.0259 27.6955
1070 1 0.7913 32.4433 29.2781
1071 1 2.3739 34.0259 30.8607
1072 1 0.7913 32.4433 32.4433
1073 1 2.3739 34.0259 34.0259
1074 1 0.7913 32.4433 35.6085
1075 1 2.3739 34.0259 37.1911
1076 1 0.7913 32.4433 38.7737
1077 1 2.3739 34.0259 40.3563
1078 1 0.7913 32.4433 41.9389
1079 1 2.3739 34.0259 43.5215
1080 1 0.7913 32.4433 45.1041
1081 1 2.3739 34.0259 46.6867
1082 1 0.7913 32.4433 48.2693
1083 1 2.3739 34.0259 49.8519
1084 1 0.7913 32.4433 51.4345
1085 1 2.3739 34.0259 53.0171
1086 1 0.7913 32.4433 54.5997
1087 1 2.3739 34.0259 56.1823
1088 1 0.7913 32.4433 57.7649
1089 1 2.3739 34.0259 59.3475
1090 1 0.7913 32.4433 60.9301
1091 1 2.3739 34.0259 62.5127
1092 1 0.7913 35.6085 0.7913
1093 1 2.3739 37.1911 2.3739
1094 1 0.7913 35.6085 3.9565
1095 1 2.3739 37.1911 5.5391
1096 1 0.7913 35.6085 7.1217
1097 1 2.3739 37.1911 8.7043
1098 1 0.7913 35.6085 10.2869
1099 1 2.3739 37.1911 11.8695
1100 1 0.7913 35.6085 13.4521
1101 1 2.3739 37.1911 15.0347
1102 1 0.7913 35.6085 16.6173
1103 1 2.3739 37.1911 18.1999
1104 1 0.7913 35.6085 19.7825
1105 1 2.3739 37.1911 21.3651
1106 1 0.7913 35.6085 22.9477
1107 1 2.3739 37.1911 24.5303
1108 1 0.7913 35.6085 26.1129
1109 1 2.3739 37.1911 27.6955
1110 1 0.7913 35.6085 29.2781
1111 1 2.3739 37.1911 30.8607
1112 1 0.7913 35.6085 32.4433
1113 1 2.3739 37.1911 34.0259
1114 1 0.7913 35.6085 35.6085
1115 1 2.3739 37.1911 37.1911
1116 1 0.7913 35.6085 38.7737
1117 1 2.3739 37.1911 40.3563
1118 1 0.7913 35.6085 41.9389
1119 1 2.3739 37.1911 43.5215
1120 1 0.7913 35.6085 45.1041
1121 1 2.3739 37.1911 46.6867
1122 1 0.7913 35.6085 48.2693
1123 1 2.3739 37.1911 49.8519
1124 1 0.7913 35.6085 51.4345
1125 1 2.3739 37.1911 53.0171
1126 1 0.7913 35.6085 54.5997
1127 1 2.3739 37.1911 56.1823
1128 1 0.7913 35.6085 57.7649
1129 1 2.3739 37.1911 59.3475
1130 1 0.7913 35.6085 60.9301
1131 1 2.3739 37.1911 62.5127
1132 1 0.7913 38.7737 0.7913
1133 1 2.3739 40.3563 2.3739
1134 1 0.7913 38.7737 3.9565
1135 1 2.3739 40.3563 5.5391
1136 1 0.7913 38.7737 7.1217
1137 1 2.3739 40.3563 8.7043
1138 1 0.7913 38.7737 10.2869
1139 1 2.3739 40.3563 11.8695
1140 1 0.7913 38.7737 13.4521
1141 1 2.3739 40.3563 15.0347
1142 1 0.7913 38.7737 16.6173
1143 1 2.3739 40.3563 18.1999
1144 1 0.7913 38.7737 19.7825
1145 1 2.3739 40.3563 21.3651
1146 1 0.7913 38.7737 22.9477
1147 1 2.3739 40.3563 24.5303
1148 1 0.7913 38.7737 26.1129
1149 1 2.3739 40.3563 27.6955
1150 1 0.7913 38.7737 29.2781
1151 1 2.3739 40.3563 30.8607
1152 1 0.7913 38.7737 32.4433
1153 1 2.3739 40.3563 34.0259
1154 1 0.7913 38.7737 35.6085
1155 1 2.3739 40.3563 37.1911
1156 1 0.7913 38.7737 38.7737
1157 1 2.3739 40.3563 40.3563
1158 1 0.7913 38.7737 41.9389
1159 1 2.3739 40.3563 43.5215
1160 1 0.7913 38.7737 45.1041
1161 1 2.3739 40.3563 46.6867
1162 1 0.7913 38.7737 48.2693
1163 1 2.3739 40.3563 49.8519
1164 1 0.7913 38.7737 51.4345
1165 1 2.3739 40.3563 53.0171
1166 1 0.7913 38.7737 54.5997
1167 1 2.3739 40.3563 56.1823
1168 1 0.7913 38.7737 57.7649
1169 1 2.3739 40.3563 59.3475
1170 1 0.7913 38.7737 60.9301
1171 1 2.3739 40.3563 62.5127
1172 1 0.7913 41.9389 0.7913
1173 1 2.3739 43.5215 2.3739
1174 1 0.7913 41.9389 3.9565
1175 1 2.3739 43.5215 5.5391
1176 1 0.7913 41.9389 7.1217
1177 1 2.3739 43.5215 8.7043
1178 1 0.7913 41.9389 10.2869
1179 1 2.3739 43.5215 11.8695
1180 1 0.7913 41.9389 13.4521
1181 1 2.3739 43.5215 15.0347
1182 1 0.7913 41.9389 16.6173
1183 1 2.3739 43.5215 18.1999
1184 1 0.7913 41.9389 19.7825
1185 1 2.3739 43.5215 21.3651
1186 1 0.7913 41.9389 22.9477
1187 1 2.3739 43.5215 24.5303
1188 1 0.7913 41.9389 26.1129
1189 1 2.3739 43.5215 27.6955
1190 1 0.7913 41.9389 29.2781
1191 1 2.3739 43.5215 30.8607
1192 1 0.7913 41.9389 32.4433
1193 1 2.3739 43.5215 34.0259
1194 1 0.7913 41.9389 35.6085
1195 1 2.3739 43.5215 37.1911
1196 1 0.7913 41.9389 38.7737
1197 1 2.3739 43.5215 40.3563
1198 1 0.7913 41.9389 41.9389
1199 1 2.3739 43.5215 43.5215
1200 1 0.7913 41.9389 45.1041
1201 1 2.3739 43.5215 46.6867
1202 1 0.7913 41.9389 48.2693
1203 1 2.3739 43.5215 49.8519
1204 1 0.7913 41.9389 51.4345
1205 1 2.3739 43.5215 53.0171
1206 1 0.7913 41.9389 54.5997
1207 1 2.3739 43.5215 56.1823
1208 1 0.7913 41.9389 57.7649
1209 1 2.3739 43.5215 59.3475
1210 1 0.7913 41.9389 60.9301
1211 1 2.3739 43.5215 62.5127
1212 1 0.7913 45.1041 0.7913
1213 1 2.3739 46.6867 2.3739
1214 1 0.7913 45.1041 3.9565
1215 1 2.3739 46.6867 5.5391
1216 1 0.7913 45.1041 7.1217
1217 1 2.3739 46.6867 8.7043
1218 1 0.7913 45.1041 10.2869
1219 1 2.3739 46.6867 11.8695
1220 1 0.7913 45.1041 13.4521
1221 1 2.3739 46.6867 15.0347
1222 1 0.7913 45.1041 16.6173
1223 1 2.3739 46.6867 18.1999
1224 1 0.7913 45.1041 19.7825
1225 1 2.3739 46.6867 21.3651
1226 1 0.7913 45.1041 22.9477
1227 1 2.3739 46.6867 24.5303
1228 1 0.7913 45.1041 26.1129
1229 1 2.3739 46.6867 27.6955
1230 1 0.7913 45.1041 29.2781
1231 1 2.3739 46.6867 30.8607
1232 1 0.7913 45.1041 32.4433
1233 1 2.3739 46.6867 34.0259
1234 1 0.7913 45.1041 35.6085
1235 1 2.3739 46.6867 37.1911
1236 1 0.7913 45.1041 38.7737
1237 1 2.3739 46.6867 40.3563
1238 1 0.7913 45.1041 41.9389
1239 1 2.3739 46.6867 43.5215
1240 1 0.7913 45.1041 45.1041
1241 1 2.3739 46.6867 46.6867
1242 1 0.7913 45.1041 48.2693
1243 1 2.3739 46.6867 49.8519
1244 1 0.7913 45.1041 51.4345
1245 1 2.3739 46.6867 53.0171
1246 1 0.7913 45.1041 54.5997
1247 1 2.3739 46.6867 56.1823
1248 1 0.7913 45.1041 57.7649
1249 1 2.3739 46.6867 59.3475
1250 1 0.7913 45.1041 60.9301
1251 1 2.3739 46.6867 62.5127
1252 1 0.7913 48.2693 0.7913
1253 1 2.3739 49.8519 2.3739
1254 1 0.7913 48.2693 3.9565
1255 1 2.3739 49.8519 5.5391
1256 1 0.7913 48.2693 7.1217
1257 1 2.3739 49.8519 8.7043
1258 1 0.7913 48.2693 10.2869
1259 1 2.3739 49.8519 11.8695
1260 1 0.7913 48.2693 13.4521
1261 1 2.3739 49.8519 15.0347
1262 1 0.7913 48.2693 16.6173
1263 1 2.3739 49.8519 18.1999
1264 1 0.7913 48.2693 19.7825
1265 1 2.3739 49.8519 21.3651
1266 1 0.7913 48.2693 22.9477
1267 1 2.3739 49.8519 24.5303
1268 1 0.7913 48.2693 26.1129
1269 1 2.3739 49.8519 27.6955
1270 1 0.7913 48.2693 29.2781
1271 1 2.3739 49.8519 30.8607
1272 1 0.7913 48.2693 32.4433
1273 1 2.3739 49.8519 34.0259
1274 1 0.7913 48.2693 35.6085
1275 1 2.3739 49.8519 37.1911
1276 1 0.7913 48.2693 38.7737
1277 1 2.3739 49.8519 40.3563
1278 1 0.7913 48.2693 41.9389
1279 1 2.3739 49.8519 43.5215
1280 1 0.7913 48.2693 45.1041
1281 1 2.3739 49.8519 46.6867
1282 1 0.7913 48.2693 48.2693
1283 1 2.3739 49.8519 49.8519
1284 1 0.7913 48.2693 51.4345
1285 1 2.3739 49.8519 53.0171
1286 1 0.7913 48.2693 54.5997
1287 1 2.3739 49.8519 56.1823
1288 1 0.7913 48.2693 57.7649
1289 1 2.3739 49.8519 59.3475
1290 1 0.7913 48.2693 60.9301
1291 1 2.3739 49.8519 62.5127
1292 1 0.7913 51.4345 0.7913
1293 1 2.3739 53.0171 2.3739
1294 1 0.7913 51.4345 3.9565
1295 1 2.3739 53.0171 5.5391
1296 1 0.7913 51.4345 7.1217
1297 1 2.3739 53.0171 8.7043
1298 1 0.7913 51.4345 10.2869
1299 1 2.3739 53.0171 11.8695
1300 1 0.7913 51.4345 13.4521
1301 1 2.3739 53.0171 15.0347
1302 1 0.7913 51.4345 16.6173
1303 1 2.3739 53.0171 18.1999
1304 1 0.7913 51.4345 19.7825
1305 1 2.3739 53.0171 21.3651
1306 1 0.7913 51.4345 22.9477
1307 1 2.3739 53.0171 24.5303
1308 1 0.7913 51.4345 26.1129
1309 1 2.3739 53.0171 27.6955
1310 1 0.7913 51.4345 29.2781
1311 1 2.3739 53.0171 30.8607
1312 1 0.7913 51.4345 32.4433
1313 1 2.3739 53.0171 34.0259
1314 1 0.7913 51.4345 35.6085
1315 1 2.3739 53.0171 37.1911
1316 1 0.7913 51.4345 38.7737
1317 1 2.3739 53.0171 40.3563
1318 1 0.7913 51.4345 41.9389
1319 1 2.3739 53.0171 43.5215
1320 1 0.7913 51.4345 45.1041
1321 1 2.3739 53.0171 46.6867
1322 1 0.7913 51.4345 48.2693
1323 1 2.3739 53.0171 49.8519
1324 1 0.7913 51.4345 51.4345
1325 1 2.3739 53.0171 53.0171
1326 1 0.7913 51.4345 54.5997
1327 1 2.3739 53.0171 56.1823
1328 1 0.7913 51.4345 57.7649
1329 1 2.3739 53.0171 59.3475
1330 1 0.7913 51.4345 60.9301
1331 1 2.3739 53.0171 62.5127
1332 1 0.7913 54.5997 0.7913
1333 1 2.3739 56.1823 2.3739
1334 1 0.7913 54.5997 3.9565
1335 1 2.3739 56.1823 5.5391
1336 1 0.7913 54.5997 7.1217
1337 1 2.3739 56.1823 8.7043
1338 1 0.7913 54.5997 10.2869
1339 1 2.3739 56.1823 11.8695
1340 1 0.7913 54.5997 13.4521
1341 1 2.3739 56.1823 15.0347
1342 1 0.7913 54.5997 16.6173
1343 1 2.3739 56.1823 18.1999
1344 1 0.7913 54.5997 19.7825
1345 1 2.3739 56.1823 21.3651
1346 1 0.7913 54.5997 22.9477
1347 1 2.3739 56.1823 24.5303
1348 1 0.7913 54.5997 26.1129
1349 1 2.3739 56.1823 27.6955
1350 1 0.7913 54.5997 29.2781
1351 1 2.3739 56.1823 30.8607
1352 1 0.7913 54.5997 32.4433
1353 1 2.3739 56.1823 34.0259
1354 1 0.7913 54.5997 35.6085
1355 1 2.3739 56.1823 37.1911
1356 1 0.7913 54.5997 38.7737
1357 1 2.3739 56.1823 40.3563
1358 1 0.7913 54.5997 41.9389
1359 1 2.3739 56.1823 43.5215
1360 1 0.7913 54.5997 45.1041
1361 1 2.3739 56.1823 46.6867
1362 1 0.7913 54.5997 48.2693
1363 1 2.3739 56.1823 49.8519
1364 1 0.7913 54.5997 51.4345
1365 1 2.3739 56.1823 53.0171
1366 1 0.7913 54.5997 54.5997
1367 1 2.3739 56.1823 56.1823
1368 1 0.7913 54.5997 57.7649
1369 1 2.3739 56.1823 59.3475
1370 1 0.7913 54.5997 60.9301
1371 1 2.3739 56.1823 62.5127
1372 1 0.7913 57.7649 0.7913
1373 1 2.3739 59.3475 2.3739
1374 1 0.7913 57.7649 3.9565
1375 1 2.3739 59.3475 5.5391
1376 1 0.7913 57.7649 7.1217
1377 1 2.3739 59.3475 8.7043
1378 1 0.7913 57.7649 10.2869
1379 1 2.3739 59.3475 11.8695
1380 1 0.7913 57.7649 13.4521
1381 1 2.3739 59.3475 15.0347
1382 1 0.7913 57.7649 16.6173
1383 1 2.3739 59.3475 18.1999
1384 1 0.7913 57.7649 19.7825
1385 1 2.3739 59.3475 21.3651
1386 1 0.7913 57.7649 22.9477
1387 1 2.3739 59.3475 24.5303
1388 1 0.7913 57.7649 26.1129
1389 1 2.3739 59.3475 27.6955
1390 1 0.7913 57.7649 29.2781
1391 1 2.3739 59.3475 30.8607
1392 1 0.7913 57.7649 32.4433
1393 1 2.3739 59.3475 34.0259
1394 1 0.7913 57.7649 35.6085
1395 1 2.3739 59.3475 37.1911
1396 1 0.7913 57.7649 38.7737
1397 1 2.3739 59.3475 40.3563
1398 1 0.7913 57.7649 41.9389
1399 1 2.3739 59.3475 43.5215
1400 1 0.7913 57.7649 45.1041
1401 1 2.3739 59.3475 46.6867
1402 1 0.7913 57.7649 48.2693
1403 1 2.3739 59.3475 49.8519
1404 1 0.7913 57.7649 51.4345
1405 1 2.3739 59.3475 53.0171
1406 1 0.7913 57.7649 54.5997
1407 1 2.3739 59.3475 56.1823
1408 1 0.7913 57.7649 57.7649
1409 1 2.3739 59.3475 59.3475
1410 1 0.7913 57.7649 60.9301
1411 1 2.3739 59.3475 62.5127
1412 1 0.7913 60.9301 0.7913
1413 1 2.3739 62.5127 2.3739
1414 1 0.7913 60.9301 3.9565
1415 1 2.3739 62.5127 5.5391
1416 1 0.7913 60.9301 7.1217
1417 1 2.3739 62.5127 8.7043
1418 1 0.7913 60.9301 10.2869
1419 1 2.3739 62.5127 11.8695
1420 1 0.7913 60.9301 13.4521
1421 1 2.3739 62.5127 15.0347
1422 1 0.7913 60.9301 16.6173
1423 1 2.3739 62.5127 18.1999
1424 1 0.7913 60.9301 19.7825
1425 1 2.3739 62.5127 21.3651
1426 1 0.7913 60.9301 22.9477
1427 1 2.3739 62.5127 24.5303
1428 1 0.7913 60.9301 26.1129
1429 1 2.3739 62.5127 27.6955
1430 1 0.7913 60.9301 29.2781
1431 1 2.3739 62.5127 30.8607
1432 1 0.7913 60.9301 32.4433
1433 1 2.3739 62.5127 34.0259
1434 1 0.7913 60.9301 35.6085
1435 1 2.3739 62.5127 37.1911
1436 1 0.7913 60.9301 38.7737
1437 1 2.3739 62.5127 40.3563
1438 1 0.7913 60.9301 41.9389
1439 1 2.3739 62.5127 43.5215
1440 1 0.7913 60.9301 45.1041
1441 1 2.3739 62.5127 46.6867
1442 1 0.7913 60.9301 48.2693
1443 1 2.3739 62.5127 49.8519
1444 1 0.7913 60.9301 51.4345
1445 1 2.3739 62.5127 53.0171
1446 1 0.7913 60.9301 54.5997
1447 1 2.3739 62.5127 56.1823
1448 1 0.7913 60.9301 57.7649
1449 1 2.3739 62.5127 59.3475
1450 1 0.7913 60.9301 60.9301
1451 1 2.3739 62.5127 62.5127
1452 1 3.9565 0.7913 0.7913
1453 1 5.5391 2.3739 2.3739
1454 1 3.9565 0.7913 3.9565
1455 1 5.5391 2.3739 5.5391
1456 1 3.9565 0.7913 7.1217
1457 1 5.5391 2.3739 8.7043
1458 1 3.9565 0.7913 10.2869
1459 1 5.5391 2.3739 11.8695
1460 1 3.9565 0.7913 13.4521
1461 1 5.5391 2.3739 15.0347
1462 1 3.9565 0.7913 16.6173
1463 1 5.5391 2.3739 18.1999
1464 1 3.9565 0.7913 19.7825
1465 1 5.5391 2.3739 21.3651
1466 1 3.9565 0.7913 22.9477
1467 1 5.5391 2.3739 24.5303
1468 1 3.9565 0.7913 26.1129
1469 1 5.5391 2.3739 27.6955
1470 1 3.9565 0.7913 29.2781
1471 1 5.5391 2.3739 30.8607
1472 1 3.9565 0.7913 32.4433
1473 1 5.5391 2.3739 34.0259
1474 1 3.9565 0.7913 35.6085
1475 1 5.5391 2.3739 37.1911
1476 1 3.9565 0.7913 38.7737
1477 1 5.5391 2.3739 40.3563
1478 1 3.9565 0.7913 41.9389
1479 1 5.5391 2.3739 43.5215
1480 1 3.9565 0.7913 45.1041
1481 1 5.5391 2.3739 46.6867
1482 1 3.9565 0.7913 48.2693
1483 1 5.5391 2.3739 49.8519
1484 1 3.9565 0.7913 51.4345
1485 1 5.5391 2.3739 53.0171
1486 1 3.9565 0.7913 54.5997
1487 1 5.5391 2.3739 56.1823
1488 1 3.9565 0.7913 57.7649
1489 1 5.5391 2.3739 59.3475
1490 1 3.9565 0.7913 60.9301
1491 1 5.5391 2.3739 62.5127
1492 1 3.9565 3.9565 0.7913
1493 1 5.5391 5.5391 2.3739
1494 1 3.9565 3.9565 3.9565
1495 1 5.5391 5.5391 5.5391
1496 1 3.9565 3.9565 7.1217
1497 1 5.5391 5.5391 8.7043
1498 1 3.9565 3.9565 10.2869
1499 1 5.5391 5.5391 11.8695
1500 1 3.9565 3.9565 13.4521
1501 1 5.5391 5.5391 15.0347
1502 1 3.9565 3.9565 16.6173
1503 1 5.5391 5.5391 18.1999
1504 1 3.9565 3.9565 19.7825
1505 1 5.5391 5.5391 21.3651
1506 1 3.9565 3.9565 22.9477
1507 1 5.5391 5.5391 24.5303
1508 1 3.9565 3.9565 26.1129
1509 1 5.5391 5.5391 27.6955
1510 1 3.9565 3.9565 29.2781
1511 1 5.5391 5.5391 30.8607
1512 1 3.9565 3.9565 32.4433
1513 1 5.5391 5.5391 34.0259
1514 1 3.9565 3.9565 35.6085
1515 1 5.5391 5.5391 37.1911
1516 1 3.9565 3.9565 38.7737
1517 1 5.5391 5.5391 40.3563
1518 1 3.9565 3.9565 41.9389
1519 1 5.5391 5.5391 43.5215
1520 1 3.9565 3.9565 45.1041
1521 1 5.5391 5.5391 46.6867
1522 1 3.9565 3.9565 48.2693
1523 1 5.5391 5.5391 49.8519
1524 1 3.9565 3.9565 51.4345
1525 1 5.5391 5.5391 53.0171
1526 1 3.9565 3.9565 54.5997
1527 1 5.5391 5.5391 56.1823
1528 1 3.9565 3.9565 57.7649
1529 1 5.5391 5.5391 59.3475
1530 1 3.9565 3.9565 60.9301
1531 1 5.5391 5.5391 62.5127
1532 1 3.9565 7.1217 0.7913
1533 1 5.5391 8.7043 2.3739
1534 1 3.9565 7.1217 3.9565
1535 1 5.5391 8.7043 5.5391
1536 1 3.9565 7.1217 7.1217
1537 1 5.5391 8.7043 8.7043
1538 1 3.9565 7.1217 10.2869
1539 1 5.5391 8.7043 11.8695
1540 1 3.9565 7.1217 13.4521
1541 1 5.5391 8.7043 15.0347
1542 1 3.9565 7.1217 16.6173
1543 1 5.5391 8.7043 18.1999
1544 1 3.9565 7.1217 19.7825
1545 1 5.5391 8.7043 21.3651
1546 1 3.9565 7.1217 22.9477
1547 1 5.5391 8.7043 24.5303
1548 1 3.9565 7.1217 26.1129
1549 1 5.5391 8.7043 27.6955
1550 1 3.9565 7.1217 29.2781
1551 1 5.5391 8.7043 30.8607
1552 1 3.9565 7.1217 32.4433
1553 1 5.5391 8.7043 34.0259
1554 1 3.9565 7.1217 35.6085
1555 1 5.5391 8.7043 37.1911
1556 1 3.9565 7.1217 38.7737
1557 1 5.5391 8.7043 40.3563
1558 1 3.9565 7.1217 41.9389
1559 1 5.5391 8.7043 43.5215
1560 1 3.9565 7.1217 45.1041
1561 1 5.5391 8.7043 46.6867
1562 1 3.9565 7.1217 48.2693
1563 1 5.5391 8.7043 49.8519
1564 1 3.9565 7.1217 51.4345
1565 1 5.5391 8.7043 53.0171
1566 1 3.9565 7.1217 54.5997
1567 1 5.5391 8.7043 56.1823
1568 1 3.9565 7.1217 57.7649
1569 1 5.5391 8.7043 59.3475
1570 1 3.9565 7.1217 60.9301
1571 1 5.5391 8.7043 62.5127
1572 1 3.9565 10.2869 0.7913
1573 1 5.5391 11.8695 2.3739
1574 1 3.9565 10.2869 3.9565
1575 1 5.5391 11.8695 5.5391
1576 1 3.9565 10.2869 7.1217
1577 1 5.5391 11.8695 8.7043
1578 1 3.9565 10.2869 10.2869
1579 1 5.5391 11.8695 11.8695
1580 1 3.9565 10.2869 13.4521
1581 1 5.5391 11.8695 15.0347
1582 1 3.9565 10.2869 16.6173
1583 1 5.5391 11.8695 18.1999
1584 1 3.9565 10.2869 19.7825
1585 1 5.5391 11.8695 21.3651
1586 1 3.9565 10.2869 22.9477
1587 1 5.5391 11.8695 24.5303
1588 1 3.9565 10.2869 26.1129
1589 1 5.5391 11.8695 27.6955
1590 1 3.9565 10.2869 29.2781
1591 1 5.5391 11.8695 30.8607
1592 1 3.9565 10.2869 32.4433
1593 1 5.5391 11.8695 34.0259
1594 1 3.9565 10.2869 35.6085
1595 1 5.5391 11.8695 37.1911
1596 1 3.9565 10.2869 38.7737
1597 1 5.5391 11.8695 40.3563
1598 1 3.9565 10.2869 41.9389
1599 1 5.5391 11.8695 43.5215
1600 1 3.9565 10.2869 45.1041
1601 1 5.5391 11.8695 46.6867
1602 1 3.9565 10.2869 48.2693
1603 1 5.5391 11.8695 49.8519
1604 1 3.9565 10.2869 51.4345
1605 1 5.5391 11.8695 53.0171
1606 1 3.9565 10.2869 54.5997
1607 1 5.5391 11.8695 56.1823
1608 1 3.9565 10.2869 57.7649
1609 1 5.5391 11.8695 59.3475
1610 1 3.9565 10.2869 60.9301
1611 1 5.5391 11.8695 62.5127
1612 1 3.9565 13.4521 0.7913
1613 1 5.5391 15.0347 2.3739
1614 1 3.9565 13.4521 3.9565
1615 1 5.5391 15.0347 5.5391
1616 1 3.9565 13.4521 7.1217
1617 1 5.5391 15.0347 8.7043
1618 1 3.9565 13.4521 10.2869
1619 1 5.5391 15.0347 11.8695
1620 1 3.9565 13.4521 13.4521
1621 1 5.5391 15.0347 15.0347
1622 1 3.9565 13.4521 16.6173
1623 1 5.5391 15.0347 18.1999
1624 1 3.9565 13.4521 19.7825
1625 1 5.5391 15.0347 21.3651
1626 1 3.9565 13.4521 22.9477
1627 1 5.5391 15.0347 24.5303
1628 1 3.9565 13.4521 26.1129
1629 1 5.5391 15.0347 27.6955
1630 1 3.9565 13.4521 29.2781
1631 1 5.5391 15.0347 30.8607
1632 1 3.9565 13.4521 32.4433
1633 1 5.5391 15.0347 34.0259
1634 1 3.9565 13.4521 35.6085
1635 1 5.5391 15.0347 37.1911
1636 1 3.9565 13.4521 38.7737
1637 1 5.5391 15.0347 40.3563
1638 1 3.9565 13.4521 41.9389
1639 1 5.5391 15.0347 43.5215
1640 1 3.9565 13.4521 45.1041
1641 1 5.5391 15.0347 46.6867
1642 1 3.9565 13.4521 48.2693
1643 1 5.5391 15.0347 49.8519
1644 1 3.9565 13.4521 51.4345
1645 1 5.5391 15.0347 53.0171
1646 1 3.9565 13.4521 54.5997
1647 1 5.5391 15.0347 56.1823
1648 1 3.9565 13.4521 57.7649
1649 1 5.5391 15.0347 59.3475
1650 1 3.9565 13.4521 60.9301
1651 1 5.5391 15.0347 62.5127
1652 1 3.9565 16.6173 0.7913
1653 1 5.5391 18.1999 2.3739
1654 1 3.9565 16.6173 3.9565
1655 1 5.5391 18.1999 5.5391
1656 1 3.9565 16.6173 7.1217
1657 1 5.5391 18.1999 8.7043
1658 1 3.9565 16.6173 10.2869
1659 1 5.5391 18.1999 11.8695
1660 1 3.9565 16.6173 13.4521
1661 1 5.5391 18.1999 15.0347
1662 1 3.9565 16.6173 16.6173
1663 1 5.5391 18.1999 18.1999
1664 1 3.9565 16.6173 19.7825
1665 1 5.5391 18.1999 21.3651
1666 1 3.9565 16.6173 22.9477
1667 1 5.5391 18.1999 24.5303
1668 1 3.9565 16.6173 26.1129
1669 1 5.5391 18.1999 27.6955
1670 1 3.9565 16.6173 29.2781
1671 1 5.5391 18.1999 30.8607
1672 1 3.9565 16.6173 32.4433
1673 1 5.5391 18.1999 34.0259
1674 1 3.9565 16.6173 35.6085
1675 1 5.5391 18.1999 37.1911
1676 1 3.9565 16.6173 38.7737
1677 1 5.5391 18.1999 40.3563
1678 1 3.9565 16.6173 41.9389
1679 1 5.5391 18.1999 43.5215
1680 1 3.9565 16.6173 45.1041
1681 1 5.5391 18.1999 46.6867
1682 1 3.9565 16.6173 48.2693
1683 1 5.5391 18.1999 49.8519
1684 1 3.9565 16.6173 51.4345
1685 1 5.5391 18.1999 53.0171
1686 1 3.9565 16.6173 54.5997
1687 1 5.5391 18.1999 56.1823
1688 1 3.9565 16.6173 57.7649
1689 1 5.5391 18.1999 59.3475
1690 1 3.9565 16.6173 60.9301
1691 1 5.5391 18.1999 62.5127
1692 1 3.9565 19.7825 0.7913
1693 1 5.5391 21.3651 2.3739
1694 1 3.9565 19.7825 3.9565
1695 1 5.5391 21.3651 5.5391
1696 1 3.9565 19.7825 7.1217
1697 1 5.5391 21.3651 8.7043
1698 1 3.9565 19.7825 10.2869
1699 1 5.5391 21.3651 11.8695
1700 1 3.9565 19.7825 13.4521
1701 1 5.5391 21.3651 15.0347
1702 1 3.9565 19.7825 16.6173
1703 1 5.5391 21.3651 18.1999
1704 1 3.9565 19.7825 19.7825
1705 1 5.5391 21.3651 21.3651
1706 1 3.9565 19.7825 22.9477
1707 1 5.5391 21.3651 24.5303
1708 1 3.9565 19.7825 26.1129
1709 1 5.5391 21.3651 27.6955
1710 1 3.9565 19.7825 29.2781
1711 1 5.5391 21.3651 30.8607
1712 1 3.9565 19.7825 32.4433
1713 1 5.5391 21.3651 34.0259
1714 1 3.9565 19.7825 35.6085
1715 1 5.5391 21.3651 37.1911
1716 1 3.9565 19.7825 38.7737
1717 1 5.5391 21.3651 40.3563
1718 1 3.9565 19.7825 41.9389
1719 1 5.5391 21.3651 43.5215
1720 1 3.9565 19.7825 45.1041
1721 1 5.5391 21.3651 46.6867
1722 1 3.9565 19.7825 48.2693
1723 1 5.5391 21.3651 49.8519
1724 1 3.9565 19.7825 51.4345
1725 1 5.5391 21.3651 53.0171
1726 1 3.9565 19.7825 54.5997
1727 1 5.5391 21.3651 56.1823
1728 1 3.9565 19.7825 57.7649
1729 1 5.5391 21.3651 59.3475
1730 1 3.9565 19.7825 60.9301
1731 1 5.5391 21.3651 62.5127
1732 1 3.9565 22.9477 0.7913
1733 1 5.5391 24.5303 2.3739
1734 1 3.9565 22.9477 3.9565
1735 1 5.5391 24.5303 5.5391
1736 1 3.9565 22.9477 7.1217
1737 1 5.5391 24.5303 8.7043
1738 1 3.9565 22.9477 10.2869
1739 1 5.5391 24.5303 11.8695
1740 1 3.9565 22.9477 13.4521
1741 1 5.5391 24.5303 15.0347
1742 1 3.9565 22.9477 16.6173
1743 1 5.5391 24.5303 18.1999
1744 1 3.9565 22.9477 19.7825
1745 1 5.5391 24.5303 21.3651
1746 1 3.9565 22.9477 22.9477
1747 1 5.5391 24.5303 24.5303
1748 1 3.9565 22.9477 26.1129
1749 1 5.5391 24.5303 27.6955
1750 1 3.9565 22.9477 29.2781
1751 1 5.5391 24.5303 30.8607
1752 1 3.9565 22.9477 32.4433
1753 1 5.5391 24.5303 34.0259
1754 1 3.9565 22.9477 35.6085
1755 1 5.5391 24.5303 37.1911
1756 1 3.9565 22.9477 38.7737
1757 1 5.5391 24.5303 40.3563
1758 1 3.9565 22.9477 41.9389
1759 1 5.5391 24.5303 43.5215
1760 1 3.9565 22.9477 45.1041
1761 1 5.5391 24.5303 46.6867
1762 1 3.9565 22.9477 48.2693
1763 1 5.5391 24.5303 49.8519
1764 1 3.9565 22.9477 51.4345
1765 1 5.5391 24.5303 53.0171
1766 1 3.9565 22.9477 54.5997
1767 1 5.5391 24.5303 56.1823
1768 1 3.9565 22.9477 57.7649
1769 1 5.5391 24.5303 59.3475
1770 1 3.9565 22.9477 60.9301
1771 1 5.5391 24.5303 62.5127
1772 1 3.9565 26.1129 0.7913
1773 1 5.5391 27.6955 2.3739
1774 1 3.9565 26.1129 3.9565
1775 1 5.5391 27.6955 5.5391
1776 1 3.9565 26.1129 7.1217
1777 1 5.5391 27.6955 8.7043
1778 1 3.9565 26.1129 10.2869
1779 1 5.5391 27.6955 11.8695
1780 1 3.9565 26.1129 13.4521
1781 1 5.5391 27.6955 15.0347
1782 1 3.9565 26.1129 16.6173
1783 1 5.5391 27.6955 18.1999
1784 1 3.9565 26.1129 19.7825
1785 1 5.5391 27.6955 21.3651
1786 1 3.9565 26.1129 22.9477
1787 1 5.5391 27.6955 24.5303
1788 1 3.9565 26.1129 26.1129
1789 1 5.5391 27.6955 27.6955
1790 1 3.9565 26.1129 29.2781
1791 1 5.5391 27.6955 30.8607
1792 1 3.9565 26.1129 32.4433
1793 1 5.5391 27.6955 34.0259
1794 1 3.9565 26.1129 35.6085
1795 1 5.5391 27.6955 37.1911
1796 1 3.9565 26.1129 38.7737
1797 1 5.5391 27.6955 40.3563
1798 1 3.9565 26.1129 41.9389
1799 1 5.5391 27.6955 43.5215
1800 1 3.9565 26.1129 45.1041
1801 1 5.5391 27.6955 46.6867
1802 1 3.9565 26.1129 48.2693
1803 1 5.5391 27.6955 49.8519
1804 1 3.9565 26.1129 51.4345
1805 1 5.5391 27.6955 53.0171
1806 1 3.9565 26.1129 54.5997
1807 1 5.5391 27.6955 56.1823
1808 1 3.9565 26.1129 57.7649
1809 1 5.5391 27.6955 59.3475
1810 1 3.9565 26.1129 60.9301
1811 1 5.5391 27.6955 62.5127
1812 1 3.9565 29.2781 0.7913
1813 1 5.5391 30.8607 2.3739
1814 1 3.9565 29.2781 3.9565
1815 1 5.5391 30.8607 5.5391
1816 1 3.9565 29.2781 7.1217
1817 1 5.5391 30.8607 8.7043
1818 1 3.9565 29.2781 10.2869
1819 1 5.5391 30.8607 11.8695
1820 1 3.9565 29.2781 13.4521
1821 1 5.5391 30.8607 15.0347
1822 1 3.9565 29.2781 16.6173
1823 1 5.5391 30.8607 18.1999
1824 1 3.9565 29.2781 19.7825
1825 1 5.5391 30.8607 21.3651
1826 1 3.9565 29.2781 22.9477
1827 1 5.5391 30.8607 24.5303
1828 1 3.9565 29.2781 26.1129
1829 1 5.5391 30.8607 27.6955
1830 1 3.9565 29.2781 29.2781
1831 1 5.5391 30.8607 30.8607
1832 1 3.9565 29.2781 32.4433
1833 1 5.5391 30.8607 34.0259
1834 1 3.9565 29.2781 35.6085
1835 1 5.5391 30.8607 37.1911
1836 1 3.9565 29.2781 38.7737
1837 1 5.5391 30.8607 40.3563
1838 1 3.9565 29.2781 41.9389
1839 1 5.5391 30.8607 43.5215
1840 1 3.9565 29.2781 45.1041
1841 1 5.5391 30.8607 46.6867
1842 1 3.9565 29.2781 48.2693
1843 1 5.5391 30.8607 49.8519
1844 1 3.9565 29.2781 51.4345
1845 1 5.5391 30.8607 53.0171
1846 1 3.9565 29.2781 54.5997
1847 1 5.5391 30.8607 56.1823
1848 1 3.9565 29.2781 57.7649
1849 1 5.5391 30.8607 59.3475
1850 1 3.9565 29.2781 60.9301
1851 1 5.5391 30.8607 62.5127
1852 1 3.9565 32.4433 0.7913
1853 1 5.5391 34.0259 2.3739
1854 1 3.9565 32.4433 3.9565
1855 1 5.5391 34.0259 5.5391
1856 1 3.9565 32.4433 7.1217
1857 1 5.5391 34.0259 8.7043
1858 1 3.9565 32.4433 10.2869
1859 1 5.5391 34.0259 11.8695
1860 1 3.9565 32.4433 13.4521
1861 1 5.5391 34.0259 15.0347
1862 1 3.9565 32.4433 16.6173
1863 1 5.5391 34.0259 18.1999
1864 1 3.9565 32.4433 19.7825
1865 1 5.5391 34.0259 21.3651
1866 1 3.9565 32.4433 22.9477
1867 1 5.5391 34.0259 24.5303
1868 1 3.9565 32.4433 26.1129
1869 1 5.5391 34.0259 27.6955
1870 1 3.9565 32.4433 29.2781
1871 1 5.5391 34.0259 30.8607
1872 1 3.9565 32.4433 32.4433
1873 1 5.5391 34.0259 34.0259
1874 1 3.9565 32.4433 35.6085
1875 1 5.5391 34.0259 37.1911
1876 1 3.9565 32.4433 38.7737
1877 1 5.5391 34.0259 40.3563
1878 1 3.9565 32.4433 41.9389
1879 1 5.5391 34.0259 43.5215
1880 1 3.9565 32.4433 45.1041
1881 1 5.5391 34.0259 46.6867
1882 1 3.9565 32.4433 48.2693
1883 1 5.5391 34.0259 49.8519
1884 1 3.9565 32.4433 51.4345
1885 1 5.5391 34.0259 53.0171
1886 1 3.9565 32.4433 54.5997
1887 1 5.5391 34.0259 56.1823
1888 1 3.9565 32.4433 57.7649
1889 1 5.5391 34.0259 59.3475
1890 1 3.9565 32.4433 60.9301
1891 1 5.5391 34.0259 62.5127
1892 1 3.9565 35.6085 0.7913
1893 1 5.5391 37.1911 2.3739
1894 1 3.9565 35.6085 3.9565
1895 1 5.5391 37.1911 5.5391
1896 1 3.9565 35.6085 7.1217
1897 1 5.5391 37.1911 8.7043
1898 1 3.9565 35.6085 10.2869
1899 1 5.5391 37.1911 11.8695
1900 1 3.9565 35.6085 13.4521
1901 1 5.5391 37.1911 15.0347
1902 1 3.9565 35.6085 16.6173
1903 1 5.5391 37.1911 18.1999
1904 1 3.9565 35.6085 19.7825
1905 1 5.5391 37.1911 21.3651
1906 1 3.9565 35.6085 22.9477
1907 1 5.5391 37.1911 24.5303
1908 1 3.9565 35.6085 26.1129
1909 1 5.5391 37.1911 27.6955
1910 1 3.9565 35.6085 29.2781
1911 1 5.5391 37.1911 30.8607
1912 1 3.9565 35.6085 32.4433
1913 1 5.5391 37.1911 34.0259
1914 1 3.9565 35.6085 35.6085
1915 1 5.5391 37.1911 37.1911
1916 1 3.9565 35.6085 38.7737
1917 1 5.5391 37.1911 40.3563
1918 1 3.9565 35.6085 41.9389
1919 1 5.5391 37.1911 43.5215
1920 1 3.9565 35.6085 45.1041
1921 1 5.5391 37.1911 46.6867
1922 1 3.9565 35.6085 48.2693
1923 1 5.5391 37.1911 49.8519
1924 1 3.9565 35.6085 51.4345
1925 1 5.5391 37.1911 53.0171
1926 1 3.9565 35.6085 54.5997
1927 1 5.5391 37.1911 56.1823
1928 1 3.9565 35.6085 57.7649
1929 1 5.5391 37.1911 59.3475
1930 1 3.9565 35.6085 60.9301
1931 1 5.5391 37.1911 62.5127
1932 1 3.9565 38.7737 0.7913
1933 1 5.5391 40.3563 2.3739
1934 1 3.9565 38.7737 3.9565
1935 1 5.5391 40.3563 5.5391
1936 1 3.9565 38.7737 7.1217
1937 1 5.5391 40.3563 8.7043
1938 1 3.9565 38.7737 10.2869
1939 1 5.5391 40.3563 11.8695
1940 1 3.9565 38.7737 13.4521
1941 1 5.5391 40.3563 15.0347
1942 1 3.9565 38.7737 16.6173
1943 1 5.5391 40.3563 18.1999
1944 1 3.9565 38.7737 19.7825
1945 1 5.5391 40.3563 21.3651
1946 1 3.9565 38.7737 22.9477
1947 1 5.5391 40.3563 24.5303
1948 1 3.9565 38.7737 26.1129
1949 1 5.5391 40.3563 27.6955
1950 1 3.9565 38.7737 29.2781
1951 1 5.5391 40.3563 30.8607
1952 1 3.9565 38.7737 32.4433
1953 1 5.5391 40.3563 34.0259
1954 1 3.9565 38.7737 35.6085
1955 1 5.5391 40.3563 37.1911
1956 1 3.9565 38.7737 38.7737
1957 1 5.5391 40.3563 40.3563
1958 1 3.9565 38.7737 41.9389
1959 1 5.5391 40.3563 43.5215
1960 1 3.9565 38.7737 45.1041
1961 1 5.5391 40.3563 46.6867
1962 1 3.9565 38.7737 48.2693
1963 1 5.5391 40.3563 49.8519
1964 1 3.9565 38.7737 51.4345
1965 1 5.5391 40.3563 53.0171
1966 1 3.9565 38.7737 54.5997
1967 1 5.5391 40.3563 56.1823
1968 1 3.9565 38.7737 57.7649
1969 1 5.5391 40.3563 59.3475
1970 1 3.9565 38.7737 60.9301
1971 1 5.5391 40.3563 62.5127
1972 1 3.9565 41.9389 0.7913
1973 1 5.5391 43.5215 2.3739
1974 1 3.9565 41.9389 3.9565
1975 1 5.5391 43.5215 5.5391
1976 1 3.9565 41.9389 7.1217
1977 1 5.5391 43.5215 8.7043
1978 1 3.9565 41.9389 10.2869
1979 1 5.5391 43.5215 11.8695
1980 1 3.9565 41.9389 13.4521
1981 1 5.5391 43.5215 15.0347
1982 1 3.9565 41.9389 16.6173
1983 1 5.5391 43.5215 18.1999
1984 1 3.9565 41.9389 19.7825
1985 1 5.5391 43.5215 21.3651
1986 1 3.9565 41.9389 22.9477
1987 1 5.5391 43.5215 24.5303
1988 1 3.9565 41.9389 26.1129
1989 1 5.5391 43.5215 27.6955
1990 1 3.9565 41.9389 29.2781
1991 1 5.5391 43.5215 30.8607
1992 1 3.9565 41.9389 32.4433
1993 1 5.5391 43.5215 34.0259
1994 1 3.9565 41.9389 35.6085
1995 1 5.5391 43.5215 37.1911
1996 1 3.9565 41.9389 38.7737
1997 1 5.5391 43.5215 40.3563
1998 1 3.9565 41.9389 41.9389
1999 1 5.5391 43.5215 43.5215
2000 1 3.9565 41.9389 45.1041
2001 1 5.5391 43.5215 46.6867
2002 1 3.9565 41.9389 48.2693
2003 1 5.5391 43.5215 49.8519
2004 1 3.9565 41.9389 51.4345
2005 1 5.5391 43.5215 53.0171
2006 1 3.9565 41.9389 54.5997
2007 1 5.5391 43.5215 56.1823
2008 1 3.9565 41.9389 57.7649
2009 1 5.5391 43.5215 59.3475
2010 1 3.9565 41.9389 60.9301
2011 1 5.5391 43.5215 62.5127
2012 1 3.9565 45.1041 0.7913
2013 1 5.5391 46.6867 2.3739
2014 1 3.9565 45.1041 3.9565
2015 1 5.5391 46.6867 5.5391
2016 1 3.9565 45.1041 7.1217
2017 1 5.5391 46.6867 8.7043
2018 1 3.9565 45.1041 10.2869
2019 1 5.5391 46.6867 11.8695
2020 1 3.9565 45.1041 13.4521
2021 1 5.5391 46.6867 15.0347
2022 1 3.9565 45.1041 16.6173
2023 1 5.5391 46.6867 18.1999
2024 1 3.9565 45.1041 19.7825
2025 1 5.5391 46.6867 21.3651
2026 1 3.9565 45.1041 22.9477
2027 1 5.5391 46.6867 24.5303
2028 1 3.9565 45.1041 26.1129
2029 1 5.5391 46.6867 27.6955
2030 1 3.9565 45.1041 29.2781
2031 1 5.5391 46.6867 30.8607
2032 1 3.9565 45.1041 32.4433
2033 1 5.5391 46.6867 34.0259
2034 1 3.9565 45.1041 35.6085
2035 1 5.5391 46.6867 37.1911
2036 1 3.9565 45.1041 38.7737
2037 1 5.5391 46.6867 40.3563
2038 1 3.9565 45.1041 41.9389
2039 1 5.5391 46.6867 43.5215
2040 1 3.9565 45.1041 45.1041
2041 1 5.5391 46.6867 46.6867
2042 1 3.9565 45.1041 48.2693
2043 1 5.5391 46.6867 49.8519
2044 1 3.9565 45.1041 51.4345
2045 1 5.5391 46.6867 53.0171
2046 1 3.9565 45.1041 54.5997
2047 1 5.5391 46.6867 56.1823
2048 1 3.9565 45.1041 57.7649
2049 1 5.5391 46.6867 59.3475
2050 1 3.9565 45.1041 60.9301
2051 1 5.5391 46.6867 62.5127
2052 1 3.9565 48.2693 0.7913
2053 1 5.5391 49.8519 2.3739
2054 1 3.9565 48.2693 3.9565
2055 1 5.5391 49.8519 5.5391
2056 1 3.9565 48.2693 7.1217
2057 1 5.5391 49.8519 8.7043
2058 1 3.9565 48.2693 10.2869
2059 1 5.5391 49.8519 11.8695
2060 1 3.9565 48.2693 13.4521
2061 1 5.5391 49.8519 15.0347
2062 1 3.9565 48.2693 16.6173
2063 1 5.5391 49.8519 18.1999
2064 1 3.9565 48.2693 19.7825
2065 1 5.5391 49.8519 21.3651
2066 1 3.9565 48.2693 22.9477
2067 1 5.5391 49.8519 24.5303
2068 1 3.9565 48.2693 26.1129
2069 1 5.5391 49.8519 27.6955
2070 1 3.9565 48.2693 29.2781
2071 1 5.5391 49.8519 30.8607
2072 1 3.9565 48.2693 32.4433
2073 1 5.5391 49.8519 34.0259
2074 1 3.9565 48.2693 35.6085
2075 1 5.5391 49.8519 37.1911
2076 1 3.9565 48.2693 38.7737
2077 1 5.5391 49.8519 40.3563
2078 1 3.9565 48.2693 41.9389
2079 1 5.5391 49.8519 43.5215
2080 1 3.9565 48.2693 45.1041
2081 1 5.5391 49.8519 46.6867
2082 1 3.9565 48.2693 48.2693
2083 1 5.5391 49.8519 49.8519
2084 1 3.9565 48.2693 51.4345
2085 1 5.5391 49.8519 53.0171
2086 1 3.9565 48.2693 54.5997
2087 1 5.5391 49.8519 56.1823
2088 1 3.9565 48.2693 57.7649
2089 1 5.5391 49.8519 59.3475
2090 1 3.9565 48.2693 60.9301
2091 1 5.5391 49.8519 62.5127
2092 1 3.9565 51.4345 0.7913
2093 1 5.5391 53.0171 2.3739
2094 1 3.9565 51.4345 3.9565
2095 1 5.5391 53.0171 5.5391
2096 1 3.9565 51.4345 7.1217
2097 1 5.5391 53.0171 8.7043
2098 1 3.9565 51.4345 10.2869
2099 1 5.5391 53.0171 11.8695
2100 1 3.9565 51.4345 13.4521
2101 1 5.5391 53.0171 15.0347
2102 1 3.9565 51.4345 16.6173
2103 1 5.5391 53.0171 18.1999
2104 1 3.9565 51.4345 19.7825
2105 1 5.5391 53.0171 21.3651
2106 1 3.9565 51.4345 22.9477
2107 1 5.5391 53.0171 24.5303
2108 1 3.9565 51.4345 26.1129
2109 1 5.5391 53.0171 27.6955
2110 1 3.9565 51.4345 29.2781
2111 1 5.5391 53.0171 30.8607
2112 1 3.9565 51.4345 32.4433
2113 1 5.5391 53.0171 34.0259
2114 1 3.9565 51.4345 35.6085
2115 1 5.5391 53.0171 37.1911
2116 1 3.9565 51.4345 38.7737
2117 1 5.5391 53.0171 40.3563
2118 1 3.9565 51.4345 41.9389
2119 1 5.5391 53.0171 43.5215
2120 1 3.9565 51.4345 45.1041
2121 1 5.5391 53.0171 46.6867
2122 1 3.9565 51.4345 48.2693
2123 1 5.5391 53.0171 49.8519
2124 1 3.9565 51.4345 51.4345
2125 1 5.5391 53.0171 53.0171
2126 1 3.9565 51.4345 54.5997
2127 1 5.5391 53.0171 56.1823
2128 1 3.9565 51.4345 57.7649
2129 1 5.5391 53.0171 59.3475
2130 1 3.9565 51.4345 60.9301
2131 1 5.5391 53.0171 62.5127
2132 1 3.9565 54.5997 0.7913
2133 1 5.5391 56.1823 2.3739
2134 1 3.9565 54.5997 3.9565
2135 1 5.5391 56.1823 5.5391
2136 1 3.9565 54.5997 7.1217
2137 1 5.5391 56.1823 8.7043
2138 1 3.9565 54.5997 10.2869
2139 1 5.5391 56.1823 11.8695
2140 1 3.9565 54.5997 13.4521
2141 1 5.5391 56.1823 15.0347
2142 1 3.9565 54.5997 16.6173
2143 1 5.5391 56.1823 18.1999
2144 1 3.9565 54.5997 19.7825
2145 1 5.5391 56.1823 21.3651
2146 1 3.9565 54.5997 22.9477
2147 1 5.5391 56.1823 24.5303
2148 1 3.9565 54.5997 26.1129
2149 1 5.5391 56.1823 27.6955
2150 1 3.9565 54.5997 29.2781
2151 1 5.5391 56.1823 30.8607
2152 1 3.9565 54.5997 32.4433
2153 1 5.5391 56.1823 34.0259
2154 1 3.9565 54.5997 35.6085
2155 1 5.5391 56.1823 37.1911
2156 1 3.9565 54.5997 38.7737
2157 1 5.5391 56.1823 40.3563
2158 1 3.9565 54.5997 41.9389
2159 1 5.5391 56.1823 43.5215
2160 1 3.9565 54.5997 45.1041
2161 1 5.5391 56.1823 46.6867
2162 1 3.9565 54.5997 48.2693
2163 1 5.5391 56.1823 49.8519
2164 1 3.9565 54.5997 51.4345
2165 1 5.5391 56.1823 53.0171
2166 1 3.9565 54.5997 54.5997
2167 1 5.5391 56.1823 56.1823
2168 1 3.9565 54.5997 57.7649
2169 1 5.5391 56.1823 59.3475
2170 1 3.9565 54.5997 60.9301
2171 1 5.5391 56.1823 62.5127
2172 1 3.9565 57.7649 0.7913
2173 1 5.5391 59.3475 2.3739
2174 1 3.9565 57.7649 3.9565
2175 1 5.5391 59.3475 5.5391
2176 1 3.9565 57.7649 7.1217
2177 1 5.5391 59.3475 8.7043
2178 1 3.9565 57.7649 10.2869
2179 1 5.5391 59.3475 11.8695
2180 1 3.9565 57.7649 13.4521
2181 1 5.5391 59.3475 15.0347
2182 1 3.9565 57.7649 16.6173
2183 1 5.5391 59.3475 18.1999
2184 1 3.9565 57.7649 19.7825
2185 1 5.5391 59.3475 21.3651
2186 1 3.9565 57.7649 22.9477
2187 1 5.5391 59.3475 24.5303
2188 1 3.9565 57.7649 26.1129
2189 1 5.5391 59.3475 27.6955
2190 1 3.9565 57.7649 29.2781
2191 1 5.5391 59.3475 30.8607
2192 1 3.9565 57.7649 32.4433
2193 1 5.5391 59.3475 34.0259
2194 1 3.9565 57.7649 35.6085
2195 1 5.5391 59.3475 37.1911
2196 1 3.9565 57.7649 38.7737
2197 1 5.5391 59.3475 40.3563
2198 1 3.9565 57.7649 41.9389
2199 1 5.5391 59.3475 43.5215
2200 1 3.9565 57.7649 45.1041
2201 1 5.5391 59.3475 46.6867
2202 1 3.9565 57.7649 48.2693
2203 1 5.5391 59.3475 49.8519
2204 1 3.9565 57.7649 51.4345
2205 1 5.5391 59.3475 53.0171
2206 1 3.9565 57.7649 54.5997
2207 1 5.5391 59.3475 56.1823
2208 1 3.9565 57.7649 57.7649
2209 1 5.5391 59.3475 59.3475
2210 1 3.9565 57.7649 60.9301
2211 1 5.5391 59.3475 62.5127
2212 1 3.9565 60.9301 0.7913
2213 1 5.5391 62.5127 2.3739
2214 1 3.9565 60.9301 3.9565
2215 1 5.5391 62.5127 5.5391
2216 1 3.9565 60.9301 7.1217
2217 1 5.5391 62.5127 8.7043
2218 1 3.9565 60.9301 10.2869
2219 1 5.5391 62.5127 11.8695
2220 1 3.9565 60.9301 13.4521
2221 1 5.5391 62.5127 15.0347
2222 1 3.9565 60.9301 16.6173
2223 1 5.5391 62.5127 18.1999
2224 1 3.9565 60.9301 19.7825
2225 1 5.5391 62.5127 21.3651
2226 1 3.9565 60.9301 22.9477
2227 1 5.5391 62.5127 24.5303
2228 1 3.9565 60.9301 26.1129
2229 1 5.5391 62.5127 27.6955
2230 1 3.9565 60.9301 29.2781
2231 1 5.5391 62.5127 30.8607
2232 1 3.9565 60.9301 32.4433
2233 1 5.5391 62.5127 34.0259
2234 1 3.9565 60.9301 35.6085
2235 1 5.5391 62.5127 37.1911
2236 1 3.9565 60.9301 38.7737
2237 1 5.5391 62.5127 40.3563
2238 1 3.9565 60.9301 41.9389
2239 1 5.5391 62.5127 43.5215
2240 1 3.9565 60.9301 45.1041
2241 1 5.5391 62.5127 46.6867
2242 1 3.9565 60.9301 48.2693
2243 1 5.5391 62.5127 49.8519
2244 1 3.9565 60.9301 51.4345
2245 1 5.5391 62.5127 53.0171
2246 1 3.9565 60.9301 54.5997
2247 1 5.5391 62.5127 56.1823
2248 1 3.9565 60.9301 57.7649
2249 1 5.5391 62.5127 59.3475
2250 1 3.9565 60.9301 60.9301
2251 1 5.5391 62.5127 62.5127
2252 1 7.1217 0.7913 0.7913
2253 1 8.7043 2.3739 2.3739
2254 1 7.1217 0.7913 3.9565
2255 1 8.7043 2.3739 5.5391
2256 1 7.1217 0.7913 7.1217
2257 1 8.7043 2.3739 8.7043
2258 1 7.1217 0.7913 10.2869
2259 1 8.7043 2.3739 11.8695
2260 1 7.1217 0.7913 13.4521
2261 1 8.7043 2.3739 15.0347
2262 1 7.1217 0.7913 16.6173
2263 1 8.7043 2.3739 18.1999
2264 1 7.1217 0.7913 19.7825
2265 1 8.7043 2.3739 21.3651
2266 1 7.1217 0.7913 22.9477
2267 1 8.7043 2.3739 24.5303
2268 1 7.1217 0.7913 26.1129
2269 1 8.7043 2.3739 27.6955
2270 1 7.1217 0.7913 29.2781
2271 1 8.7043 2.3739 30.8607
2272 1 7.1217 0.7913 32.4433
2273 1 8.7043 2.3739 34.0259
2274 1 7.1217 0.7913 35.6085
2275 1 8.7043 2.3739 37.1911
2276 1 7.1217 0.7913 38.7737
2277 1 8.7043 2.3739 40.3563
2278 1 7.1217 0.7913 41.9389
2279 1 8.7043 2.3739 43.5215
2280 1 7.1217 0.7913 45.1041
2281 1 8.7043 2.3739 46.6867
2282 1 7.1217 0.7913 48.2693
2283 1 8.7043 2.3739 49.8519
2284 1 7.1217 0.7913 51.4345
2285 1 8.7043 2.3739 53.0171
2286 1 7.1217 0.7913 54.5997
2287 1 8.7043 2.3739 56.1823
2288 1 7.1217 0.7913 57.7649
2289 1 8.7043 2.3739 59.3475
2290 1 7.1217 0.7913 60.9301
2291 1 8.7043 2.3739 62.5127
2292 1 7.1217 3.9565 0.7913
2293 1 8.7043 5.5391 2.3739
2294 1 7.1217 3.9565 3.9565
2295 1 8.7043 5.5391 5.5391
2296 1 7.1217 3.9565 7.1217
2297 1 8.7043 5.5391 8.7043
2298 1 7.1217 3.9565 10.2869
2299 1 8.7043 5.5391 11.8695
2300 1 7.1217 3.9565 13.4521
2301 1 8.7043 5.5391 15.0347
2302 1 7.1217 3.9565 16.6173
2303 1 8.7043 5.5391 18.1999
2304 1 7.1217 3.9565 19.7825
2305 1 8.7043 5.5391 21.3651
2306 1 7.1217 3.9565 22.9477
2307 1 8.7043 5.5391 24.5303
2308 1 7.1217 3.9565 26.1129
2309 1 8.7043 5.5391 27.6955
2310 1 7.1217 3.9565 29.2781
2311 1 8.7043 5.5391 30.8607
2312 1 7.1217 3.9565 32.4433
2313 1 8.7043 5.5391 34.0259
2314 1 7.1217 3.9565 35.6085
2315 1 8.7043 5.5391 37.1911
2316 1 7.1217 3.9565 38.7737
2317 1 8.7043 5.5391 40.3563
2318 1 7.1217 3.9565 41.9389
2319 1 8.7043 5.5391 43.5215
2320 1 7.1217 3.9565 45.1041
2321 1 8.7043 5.5391 46.6867
2322 1 7.1217 3.9565 48.2693
2323 1 8.7043 5.5391 49.8519
2324 1 7.1217 3.9565 51.4345
2325 1 8.7043 5.5391 53.0171
2326 1 7.1217 3.9565 54.5997
2327 1 8.7043 5.5391 56.1823
2328 1 7.1217 3.9565 57.7649
2329 1 8.7043 5.5391 59.3475
2330 1 7.1217 3.9565 60.9301
2331 1 8.7043 5.5391 62.5127
2332 1 7.1217 7.1217 0.7913
2333 1 8.7043 8.7043 2.3739
2334 1 7.1217 7.1217 3.9565
2335 1 8.7043 8.7043 5.5391
2336 1 7.1217 7.1217 7.1217
2337 1 8.7043 8.7043 8.7043
2338 1 7.1217 7.1217 10.2869
2339 1 8.7043 8.7043 11.8695
2340 1 7.1217 7.1217 13.4521
2341 1 8.7043 8.7043 15.0347
2342 1 7.1217 7.1217 16.6173
2343 1 8.7043 8.7043 18.1999
2344 1 7.1217 7.1217 19.7825
2345 1 8.7043 8.7043 21.3651
2346 1 7.1217 7.1217 22.9477
2347 1 8.7043 8.7043 24.5303
2348 1 7.1217 7.1217 26.1129
2349 1 8.7043 8.7043 27.6955
2350 1 7.1217 7.1217 29.2781
2351 1 8.7043 8.7043 30.8607
2352 1 7.1217 7.1217 32.4433
2353 1 8.7043 8.7043 34.0259
2354 1 7.1217 7.1217 35.6085
2355 1 8.7043 8.7043 37.1911
2356 1 7.1217 7.1217 38.7737
2357 1 8.7043 8.7043 40.3563
2358 1 7.1217 7.1217 41.9389
2359 1 8.7043 8.7043 43.5215
2360 1 7.1217 7.1217 45.1041
2361 1 8.7043 8.7043 46.6867
2362 1 7.1217 7.1217 48.2693
2363 1 8.7043 8.7043 49.8519
2364 1 7.1217 7.1217 51.4345
2365 1 8.7043 8.7043 53.0171
2366 1 7.1217 7.1217 54.5997
2367 1 8.7043 8.7043 56.1823
2368 1 7.1217 7.1217 57.7649
2369 1 8.7043 8.7043 59.3475
2370 1 7.1217 7.1217 60.9301
2371 1 8.7043 8.7043 62.5127
2372 1 7.1217 10.2869 0.7913
2373 1 8.7043 11.8695 2.3739
2374 1 7.1217 10.2869 3.9565
2375 1 8.7043 11.8695 5.5391
2376 1 7.1217 10.2869 7.1217
2377 1 8.7043 11.8695 8.7043
2378 1 7.1217 10.2869 10.2869
2379 1 8.7043 11.8695 11.8695
2380 1 7.1217 10.2869 13.4521
2381 1 8.7043 11.8695 15.0347
2382 1 7.1217 10.2869 16.6173
2383 1 8.7043 11.8695 18.1999
2384 1 7.1217 10.2869 19.7825
2385 1 8.7043 11.8695 21.3651
2386 1 7.1217 10.2869 22.9477
2387 1 8.7043 11.8695 24.5303
2388 1 7.1217 10.2869 26.1129
2389 1 8.7043 11.8695 27.6955
2390 1 7.1217 10.2869 29.2781
2391 1 8.7043 11.8695 30.8607
2392 1 7.1217 10.2869 32.4433
2393 1 8.7043 11.8695 34.0259
2394 1 7.1217 10.2869 35.6085
2395 1 8.7043 11.8695 37.1911
2396 1 7.1217 10.2869 38.7737
2397 1 8.7043 11.8695 40.3563
2398 1 7.1217 10.2869 41.9389
2399 1 8.7043 11.8695 43.5215
2400 1 7.1217 10.2869 45.1041
2401 1 8.7043 11.8695 46.6867
2402 1 7.1217 10.2869 48.2693
2403 1 8.7043 11.8695 49.8519
2404 1 7.1217 10.2869 51.4345
2405 1 8.7043 11.8695 53.0171
2406 1 7.1217 10.2869 54.5997
2407 1 8.7043 11.8695 56.1823
2408 1 7.1217 10.2869 57.7649
2409 1 8.7043 11.8695 59.3475
2410 1 7.1217 10.2869 60.9301
2411 1 8.7043 11.8695 62.5127
2412 1 7.1217 13.4521 0.7913
2413 1 8.7043 15.0347 2.3739
2414 1 7.1217 13.4521 3.9565
2415 1 8.7043 15.0347 5.5391
2416 1 7.1217 13.4521 7.1217
2417 1 8.7043 15.0347 8.7043
2418 1 7.1217 13.4521 10.2869
2419 1 8.7043 15.0347 11.8695
2420 1 7.1217 13.4521 13.4521
2421 1 8.7043 15.0347 15.0347
2422 1 7.1217 13.4521 16.6173
2423 1 8.7043 15.0347 18.1999
2424 1 7.1217 13.4521 19.7825
2425 1 8.7043 15.0347 21.3651
2426 1 7.1217 13.4521 22.9477
2427 1 8.7043 15.0347 24.5303
2428 1 7.1217 13.4521 26.1129
2429 1 8.7043 15.0347 27.6955
2430 1 7.1217 13.4521 29.2781
2431 1 8.7043 15.0347 30.8607
2432 1 7.1217 13.4521 32.4433
2433 1 8.7043 15.0347 34.0259
2434 1 7.1217 13.4521 35.6085
2435 1 8.7043 15.0347 37.1911
2436 1 7.1217 13.4521 38.7737
2437 1 8.7043 15.0347 40.3563
2438 1 7.1217 13.4521 41.9389
2439 1 8.7043 15.0347 43.5215
2440 1 7.1217 13.4521 45.1041
2441 1 8.7043 15.0347 46.6867
2442 1 7.1217 13.4521 48.2693
2443 1 8.7043 15.0347 49.8519
2444 1 7.1217 13.4521 51.4345
2445 1 8.7043 15.0347 53.0171
2446 1 7.1217 13.4521 54.5997
2447 1 8.7043 15.0347 56.1823
2448 1 7.1217 13.4521 57.7649
2449 1 8.7043 15.0347 59.3475
2450 1 7.1217 13.4521 60.9301
2451 1 8.7043 15.0347 62.5127
2452 1 7.1217 16.6173 0.7913
2453 1 8.7043 18.1999 2.3739
2454 1 7.1217 16.6173 3.9565
2455 1 8.7043 18.1999 5.5391
2456 1 7.1217 16.6173 7.1217
2457 1 8.7043 18.1999 8.7043
2458 1 7.1217 16.6173 10.2869
2459 1 8.7043 18.1999 11.8695
2460 1 7.1217 16.6173 13.4521
2461 1 8.7043 18.1999 15.0347
2462 1 7.1217 16.6173 16.6173
2463 1 8.7043 18.1999 18.1999
2464 1 7.1217 16.6173 19.7825
2465 1 8.7043 18.1999 21.3651
2466 1 7.1217 16.6173 22.9477
2467 1 8.7043 18.1999 24.5303
2468 1 7.1217 16.6173 26.1129
2469 1 8.7043 18.1999 27.6955
2470 1 7.1217 16.6173 29.2781
2471 1 8.7043 18.1999 30.8607
2472 1 7.1217 16.6173 32.4433
2473 1 8.7043 18.1999 34.0259
2474 1 7.1217 16.6173 35.6085
2475 1 8.7043 18.1999 37.1911
2476 1 7.1217 16.6173 38.7737
2477 1 8.7043 18.1999 40.3563
2478 1 7.1217 16.6173 41.9389
2479 1 8.7043 18.1999 43.5215
2480 1 7.1217 16.6173 45.1041
2481 1 8.7043 18.1999 46.6867
2482 1 7.1217 16.6173 48.2693
2483 1 8.7043 18.1999 49.8519
2484 1 7.1217 16.6173 51.4345
2485 1 8.7043 18.1999 53.0171
2486 1 7.1217 16.6173 54.5997
2487 1 8.7043 18.1999 56.1823
2488 1 7.1217 16.6173 57.7649
2489 1 8.7043 18.1999 59.3475
2490 1 7.1217 16.6173 60.9301
2491 1 8.7043 18.1999 62.5127
2492 1 7.1217 19.7825 0.7913
2493 1 8.7043 21.3651 2.3739
2494 1 7.1217 19.7825 3.9565
2495 1 8.7043 21.3651 5.5391
2496 1 7.1217 19.7825 7.1217
2497 1 8.7043 21.3651 8.7043
2498 1 7.1217 19.7825 10.2869
2499 1 8.7043 21.3651 11.8695
2500 1 7.1217 19.7825 13.4521
2501 1 8.7043 21.3651 15.0347
2502 1 7.1217 19.7825 16.6173
2503 1 8.7043 21.3651 18.1999
2504 1 7.1217 19.7825 19.7825
2505 1 8.7043 21.3651 21.3651
2506 1 7.1217 19.7825 22.9477
2507 1 8.7043 21.3651 24.5303
2508 1 7.1217 19.7825 26.1129
2509 1 8.7043 21.3651 27.6955
2510 1 7.1217 19.7825 29.2781
2511 1 8.7043 21.3651 30.8607
2512 1 7.1217 19.7825 32.4433
2513 1 8.7043 21.3651 34.0259
2514 1 7.1217 19.7825 35.6085
2515 1 8.7043 21.3651 37.1911
2516 1 7.1217 19.7825 38.7737
2517 1 8.7043 21.3651 40.3563
2518 1 7.1217 19.7825 41.9389
2519 1 8.7043 21.3651 43.5215
2520 1 7.1217 19.7825 45.1041
2521 1 8.7043 21.3651 46.6867
2522 1 7.1217 19.7825 48.2693
2523 1 8.7043 21.3651 49.8519
2524 1 7.1217 19.7825 51.4345
2525 1 8.7043 21.3651 53.0171
2526 1 7.1217 19.7825 54.5997
2527 1 8.7043 21.3651 56.1823
2528 1 7.1217 19.7825 57.7649
2529 1 8.7043 21.3651 59.3475
2530 1 7.1217 19.7825 60.9301
2531 1 8.7043 21.3651 62.5127
2532 1 7.1217 22.9477 0.7913
2533 1 8.7043 24.5303 2.3739
2534 1 7.1217 22.9477 3.9565
2535 1 8.7043 24.5303 5.5391
2536 1 7.1217 22.9477 7.1217
2537 1 8.7043 24.5303 8.7043
2538 1 7.1217 22.9477 10.2869
2539 1 8.7043 24.5303 11.8695
2540 1 7.1217 22.9477 13.4521
2541 1 8.7043 24.5303 15.0347
2542 1 7.1217 22.9477 16.6173
2543 1 8.7043 24.5303 18.1999
2544 1 7.1217 22.9477 19.7825
2545 1 8.7043 24.5303 21.3651
2546 1 7.1217 22.9477 22.9477
2547 1 8.7043 24.5303 24.5303
2548 1 7.1217 22.9477 26.1129
2549 1 8.7043 24.5303 27.6955
2550 1 7.1217 22.9477 29.2781
2551 1 8.7043 24.5303 30.8607
2552 1 7.1217 22.9477 32.4433
2553 1 8.7043 24.5303 34.0259
2554 1 7.1217 22.9477 35.6085
2555 1 8.7043 24.5303 37.1911
2556 1 7.1217 22.9477 38.7737
2557 1 8.7043 24.5303 40.3563
2558 1 7.1217 22.9477 41.9389
2559 1 8.7043 24.5303 43.5215
2560 1 7.1217 22.9477 45.1041
2561 1 8.7043 24.5303 46.6867
2562 1 7.1217 22.9477 48.2693
2563 1 8.7043 24.5303 49.8519
2564 1 7.1217 22.9477 51.4345
2565 1 8.7043 24.5303 53.0171
2566 1 7.1217 22.9477 54.5997
2567 1 8.7043 24.5303 56.1823
2568 1 7.1217 22.9477 57.7649
2569 1 8.7043 24.5303 59.3475
2570 1 7.1217 22.9477 60.9301
2571 1 8.7043 24.5303 62.5127
2572 1 7.1217 26.1129 0.7913
2573 1 8.7043 27.6955 2.3739
2574 1 7.1217 26.1129 3.9565
2575 1 8.7043 27.6955 5.5391
2576 1 7.1217 26.1129 7.1217
2577 1 8.7043 27.6955 8.7043
2578 1 7.1217 26.1129 10.2869
2579 1 8.7043 27.6955 11.8695
2580 1 7.1217 26.1129 13.4521
2581 1 8.7043 27.6955 15.0347
2582 1 7.1217 26.1129 16.6173
2583 1 8.7043 27.6955 18.1999
2584 1 7.1217 26.1129 19.7825
2585 1 8.7043 27.6955 21.3651
2586 1 7.1217 26.1129 22.9477
2587 1 8.7043 27.6955 24.5303
2588 1 7.1217 26.1129 26.1129
2589 1 8.7043 27.6955 27.6955
2590 1 7.1217 26.1129 29.2781
2591 1 8.7043 27.6955 30.8607
2592 1 7.1217 26.1129 32.4433
2593 1 8.7043 27.6955 34.0259
2594 1 7.1217 26.1129 35.6085
2595 1 8.7043 27.6955 37.1911
2596 1 7.1217 26.1129 38.7737
2597 1 8.7043 27.6955 40.3563
2598 1 7.1217 26.1129 41.9389
2599 1 8.7043 27.6955 43.5215
2600 1 7.1217 26.1129 45.1041
2601 1 8.7043 27.6955 46.6867
2602 1 7.1217 26.1129 48.2693
2603 1 8.7043 27.6955 49.8519
2604 1 7.1217 26.1129 51.4345
2605 1 8.7043 27.6955 53.0171
2606 1 7.1217 26.1129 54.5997
2607 1 8.7043 27.6955 56.1823
2608 1 7.1217 26.1129 57.7649
2609 1 8.7043 27.6955 59.3475
2610 1 7.1217 26.1129 60.9301
2611 1 8.7043 27.6955 62.5127
2612 1 7.1217 29.2781 0.7913
2613 1 8.7043 30.8607 2.3739
2614 1 7.1217 29.2781 3.9565
2615 1 8.7043 30.8607 5.5391
2616 1 7.1217 29.2781 7.1217
2617 1 8.7043 30.8607 8.7043
2618 1 7.1217 29.2781 10.2869
2619 1 8.7043 30.8607 11.8695
2620 1 7.1217 29.2781 13.4521
2621 1 8.7043 30.8607 15.0347
2622 1 7.1217 29.2781 16.6173
2623 1 8.7043 30.8607 18.1999
2624 1 7.1217 29.2781 19.7825
2625 1 8.7043 30.8607 21.3651
2626 1 7.1217 29.2781 22.9477
2627 1 8.7043 30.8607 24.5303
2628 1 7.1217 29.2781 26.1129
2629 1 8.7043 30.8607 27.6955
2630 1 7.1217 29.2781 29.2781
2631 1 8.7043 30.8607 30.8607
2632 1 7.1217 29.2781 32.4433
2633 1 8.7043 30.8607 34.0259
2634 1 7.1217 29.2781 35.6085
2635 1 8.7043 30.8607 37.1911
2636 1 7.1217 29.2781 38.7737
2637 1 8.7043 30.8607 40.3563
2638 1 7.1217 29.2781 41.9389
2639 1 8.7043 30.8607 43.5215
2640 1 7.1217 29.2781 45.1041
2641 1 8.7043 30.8607 46.6867
2642 1 7.1217 29.2781 48.2693
2643 1 8.7043 30.8607 49.8519
2644 1 7.1217 29.2781 51.4345
2645 1 8.7043 30.8607 53.0171
2646 1 7.1217 29.2781 54.5997
2647 1 8.7043 30.8607 56.1823
2648 1 7.1217 29.2781 57.7649
2649 1 8.7043 30.8607 59.3475
2650 1 7.1217 29.2781 60.9301
2651 1 8.7043 30.8607 62.5127
2652 1 7.1217 32.4433 0.7913
2653 1 8.7043 34.0259 2.3739
2654 1 7.1217 32.4433 3.9565
2655 1 8.7043 34.0259 5.5391
2656 1 7.1217 32.4433 7.1217
2657 1 8.7043 34.0259 8.7043
2658 1 7.1217 32.4433 10.2869
2659 1 8.7043 34.0259 11.8695
2660 1 7.1217 32.4433 13.4521
2661 1 8.7043 34.0259 15.0347
2662 1 7.1217 32.4433 16.6173
2663 1 8.7043 34.0259 18.1999
2664 1 7.1217 32.4433 19.7825
2665 1 8.7043 34.0259 21.3651
2666 1 7.1217 32.4433 22.9477
2667 1 8.7043 34.0259 24.5303
2668 1 7.1217 32.4433 26.1129
2669 1 8.7043 34.0259 27.6955
2670 1 7.1217 32.4433 29.2781
2671 1 8.7043 34.0259 30.8607
2672 1 7.1217 32.4433 32.4433
2673 1 8.7043 34.0259 34.0259
2674 1 7.1217 32.4433 35.6085
2675 1 8.7043 34.0259 37.1911
2676 1 7.1217 32.4433 38.7737
2677 1 8.7043 34.0259 40.3563
2678 1 7.1217 32.4433 41.9389
2679 1 8.7043 34.0259 43.5215
2680 1 7.1217 32.4433 45.1041
2681 1 8.7043 34.0259 46.6867
2682 1 7.1217 32.4433 48.2693
2683 1 8.7043 34.0259 49.8519
2684 1 7.1217 32.4433 51.4345
2685 1 8.7043 34.0259 53.0171
2686 1 7.1217 32.4433 54.5997
2687 1 8.7043 34.0259 56.1823
2688 1 7.1217 32.4433 57.7649
2689 1 8.7043 34.0259 59.3475
2690 1 7.1217 32.4433 60.9301
2691 1 8.7043 34.0259 62.5127
2692 1 7.1217 35.6085 0.7913
2693 1 8.7043 37.1911 2.3739
2694 1 7.1217 35.6085 3.9565
2695 1 8.7043 37.1911 5.5391
2696 1 7.1217 35.6085 7.1217
2697 1 8.7043 37.1911 8.7043
2698 1 7.1217 35.6085 10.2869
2699 1 8.7043 37.1911 11.8695
2700 1 7.1217 35.6085 13.4521
2701 1 8.7043 37.1911 15.0347
2702 1 7.1217 35.6085 16.6173
2703 1 8.7043 37.1911 18.1999
2704 1 7.1217 35.6085 19.7825
2705 1 8.7043 37.1911 21.3651
2706 1 7.1217 35.6085 22.9477
2707 1 8.7043 37.1911 24.5303
2708 1 7.1217 35.6085 26.1129
2709 1 8.7043 37.1911 27.6955
2710 1 7.1217 35.6085 29.2781
2711 1 8.7043 37.1911 30.8607
2712 1 7.1217 35.6085 32.4433
2713 1 8.7043 37.1911 34.0259
2714 1 7.1217 35.6085 35.6085
2715 1 8.7043 37.1911 37.1911
2716 1 7.1217 35.6085 38.7737
2717 1 8.7043 37.1911 40.3563
2718 1 7.1217 35.6085 41.9389
2719 1 8.7043 37.1911 43.5215
2720 1 7.1217 35.6085 45.1041
2721 1 8.7043 37.1911 46.6867
2722 1 7.1217 35.6085 48.2693
2723 1 8.7043 37.1911 49.8519
2724 1 7.1217 35.6085 51.4345
2725 1 8.7043 37.1911 53.0171
2726 1 7.1217 35.6085 54.5997
2727 1 8.7043 37.1911 56.1823
2728 1 7.1217 35.6085 57.7649
2729 1 8.7043 37.1911 59.3475
2730 1 7.1217 35.6085 60.9301
2731 1 8.7043 37.1911 62.5127
2732 1 7.1217 38.7737 0.7913
2733 1 8.7043 40.3563 2.3739
2734 1 7.1217 38.7737 3.9565
2735 1 8.7043 40.3563 5.5391
2736 1 7.1217 38.7737 7.1217
2737 1 8.7043 40.3563 8.7043
2738 1 7.1217 38.7737 10.2869
2739 1 8.7043 40.3563 11.8695
2740 1 7.1217 38.7737 13.4521
2741 1 8.7043 40.3563 15.0347
2742 1 7.1217 38.7737 16.6173
2743 1 8.7043 40.3563 18.1999
2744 1 7.1217 38.7737 19.7825
2745 1 8.7043 40.3563 21.3651
2746 1 7.1217 38.7737 22.9477
2747 1 8.7043 40.3563 24.5303
2748 1 7.1217 38.7737 26.1129
2749 1 8.7043 40.3563 27.6955
2750 1 7.1217 38.7737 29.2781
2751 1 8.7043 40.3563 30.8607
2752 1 7.1217 38.7737 32.4433
2753 1 8.7043 40.3563 34.0259
2754 1 7.1217 38.7737 35.6085
2755 1 8.7043 40.3563 37.1911
2756 1 7.1217 38.7737 38.7737
2757 1 8.7043 40.3563 40.3563
2758 1 7.1217 38.7737 41.9389
2759 1 8.7043 40.3563 43.5215
2760 1 7.1217 38.7737 45.1041
2761 1 8.7043 40.3563 46.6867
2762 1 7.1217 38.7737 48.2693
2763 1 8.7043 40.3563 49.8519
2764 1 7.1217 38.7737 51.4345
2765 1 8.7043 40.3563 53.0171
2766 1 7.1217 38.7737 54.5997
2767 1 8.7043 40.3563 56.1823
2768 1 7.1217 38.7737 57.7649
2769 1 8.7043 40.3563 59.3475
2770 1 7.1217 38.7737 60.9301
2771 1 8.7043 40.3563 62.5127
2772 1 7.1217 41.9389 0.7913
2773 1 8.7043 43.5215 2.3739
2774 1 7.1217 41.9389 3.9565
2775 1 8.7043 43.5215 5.5391
2776 1 7.1217 41.9389 7.1217
2777 1 8.7043 43.5215 8.7043
2778 1 7.1217 41.9389 10.2869
2779 1 8.7043 43.5215 11.8695
2780 1 7.1217 41.9389 13.4521
2781 1 8.7043 43.5215 15.0347
2782 1 7.1217 41.9389 16.6173
2783 1 8.7043 43.5215 18.1999
2784 1 7.1217 41.9389 19.7825
2785 1 8.7043 43.5215 21.3651
2786 1 7.1217 41.9389 22.9477
2787 1 8.7043 43.5215 24.5303
2788 1 7.1217 41.9389 26.1129
2789 1 8.7043 43.5215 27.6955
2790 1 7.1217 41.9389 29.2781
2791 1 8.7043 43.5215 30.8607
2792 1 7.1217 41.9389 32.4433
2793 1 8.7043 43.5215 34.0259
2794 1 7.1217 41.9389 35.6085
2795 1 8.7043 43.5215 37.1911
2796 1 7.1217 41.9389 38.7737
2797 1 8.7043 43.5215 40.3563
2798 1 7.1217 41.9389 41.9389
2799 1 8.7043 43.5215 43.5215
2800 1 7.1217 41.9389 45.1041
2801 1 8.7043 43.5215 46.6867
2802 1 7.1217 41.9389 48.2693
2803 1 8.7043 43.5215 49.8519
2804 1 7.1217 41.9389 51.4345
2805 1 8.7043 43.5215 53.0171
2806 1 7.1217 41.9389 54.5997
2807 1 8.7043 43.5215 56.1823
2808 1 7.1217 41.9389 57.7649
2809 1 8.7043 43.5215 59.3475
2810 1 7.1217 41.9389 60.9301
2811 1 8.7043 43.5215 62.5127
2812 1 7.1217 45.1041 0.7913
2813 1 8.7043 46.6867 2.3739
2814 1 7.1217 45.1041 3.9565
2815 1 8.7043 46.6867 5.5391
2816 1 7.1217 45.1041 7.1217
2817 1 8.7043 46.6867 8.7043
2818 1 7.1217 45.1041 10.2869
2819 1 8.7043 46.6867 11.8695
2820 1 7.1217 45.1041 13.4521
2821 1 8.7043 46.6867 15.0347
2822 1 7.1217 45.1041 16.6173
2823 1 8.7043 46.6867 18.1999
2824 1 7.1217 45.1041 19.7825
2825 1 8.7043 46.6867 21.3651
2826 1 7.1217 45.1041 22.9477
2827 1 8.7043 46.6867 24.5303
2828 1 7.1217 45.1041 26.1129
2829 1 8.7043 46.6867 27.6955
2830 1 7.1217 45.1041 29.2781
2831 1 8.7043 46.6867 30.8607
2832 1 7.1217 45.1041 32.4433
2833 1 8.7043 46.6867 34.0259
2834 1 7.1217 45.1041 35.6085
2835 1 8.7043 46.6867 37.1911
2836 1 7.1217 45.1041 38.7737
2837 1 8.7043 46.6867 40.3563
2838 1 7.1217 45.1041 41.9389
2839 1 8.7043 46.6867 43.5215
2840 1 7.1217 45.1041 45.1041
2841 1 8.7043 46.6867 46.6867
2842 1 7.1217 45.1041 48.2693
2843 1 8.7043 46.6867 49.8519
2844 1 7.1217 45.1041 51.4345
2845 1 8.7043 46.6867 53.0171
2846 1 7.1217 45.1041 54.5997
2847 1 8.7043 46.6867 56.1823
2848 1 7.1217 45.1041 57.7649
2849 1 8.7043 46.6867 59.3475
2850 1 7.1217 45.1041 60.9301
2851 1 8.7043 46.6867 62.5127
2852 1 7.1217 48.2693 0.7913
2853 1 8.7043 49.8519 2.3739
2854 1 7.1217 48.2693 3.9565
2855 1 8.7043 49.8519 5.5391
2856 1 7.1217 48.2693 7.1217
2857 1 8.7043 49.8519 8.7043
2858 1 7.1217 48.2693 10.2869
2859 1 8.7043 49.8519 11.8695
2860 1 7.1217 48.2693 13.4521
2861 1 8.7043 49.8519 15.0347
2862 1 7.1217 48.2693 16.6173
2863 1 8.7043 49.8519 18.1999
2864 1 7.1217 48.2693 19.7825
2865 1 8.7043 49.8519 21.3651
2866 1 7.1217 48.2693 22.9477
2867 1 8.7043 49.8519 24.5303
2868 1 7.1217 48.2693 26.1129
2869 1 8.7043 49.8519 27.6955
2870 1 7.1217 48.2693 29.2781
2871 1 8.7043 49.8519 30.8607
2872 1 7.1217 48.2693 32.4433
2873 1 8.7043 49.8519 34.0259
2874 1 7.1217 48.2693 35.6085
2875 1 8.7043 49.8519 37.1911
2876 1 7.1217 48.2693 38.7737
2877 1 8.7043 49.8519 40.3563
2878 1 7.1217 48.2693 41.9389
2879 1 8.7043 49.8519 43.5215
2880 1 7.1217 48.2693 45.1041
2881 1 8.7043 49.8519 46.6867
2882 1 7.1217 48.2693 48.2693
2883 1 8.7043 49.8519 49.8519
2884 1 7.1217 48.2693 51.4345
2885 1 8.7043 49.8519 53.0171
2886 1 7.1217 48.2693 54.5997
2887 1 8.7043 49.8519 56.1823
2888 1 7.1217 48.2693 57.7649
2889 1 8.7043 49.8519 59.3475
2890 1 7.1217 48.2693 60.9301
2891 1 8.7043 49.8519 62.5127
2892 1 7.1217 51.4345 0.7913
2893 1 8.7043 53.0171 2.3739
2894 1 7.1217 51.4345 3.9565
2895 1 8.7043 53.0171 5.5391
2896 1 7.1217 51.4345 7.1217
2897 1 8.7043 53.0171 8.7043
2898 1 7.1217 51.4345 10.2869
2899 1 8.7043 53.0171 11.8695
2900 1 7.1217 51.4345 13.4521
2901 1 8.7043 53.0171 15.0347
2902 1 7.1217 51.4345 16.6173
2903 1 8.7043 53.0171 18.1999
2904 1 7.1217 51.4345 19.7825
2905 1 8.7043 53.0171 21.3651
2906 1 7.1217 51.4345 22.9477
2907 1 8.7043 53.0171 24.5303
2908 1 7.1217 51.4345 26.1129
2909 1 8.7043 53.0171 27.6955
2910 1 7.1217 51.4345 29.2781
2911 1 8.7043 53.0171 30.8607
2912 1 7.1217 51.4345 32.4433
2913 1 8.7043 53.0171 34.0259
2914 1 7.1217 51.4345 35.6085
2915 1 8.7043 53.0171 37.1911
2916 1 7.1217 51.4345 38.7737
2917 1 8.7043 53.0171 40.3563
2918 1 7.1217 51.4345 41.9389
2919 1 8.7043 53.0171 43.5215
2920 1 7.1217 51.4345 45.1041
2921 1 8.7043 53.0171 46.6867
2922 1 7.1217 51.4345 48.2693
2923 1 8.7043 53.0171 49.8519
2924 1 7.1217 51.4345 51.4345
2925 1 8.7043 53.0171 53.0171
2926 1 7.1217 51.4345 54.5997
2927 1 8.7043 53.0171 56.1823
2928 1 7.1217 51.4345 57.7649
2929 1 8.7043 53.0171 59.3475
2930 1 7.1217 51.4345 60.9301
2931 1 8.7043 53.0171 62.5127
2932 1 7.1217 54.5997 0.7913
2933 1 8.7043 56.1823 2.3739
2934 1 7.1217 54.5997 3.9565
2935 1 8.7043 56.1823 5.5391
2936 1 7.1217 54.5997 7.1217
2937 1 8.7043 56.1823 8.7043
2938 1 7.1217 54.5997 10.2869
2939 1 8.7043 56.1823 11.8695
2940 1 7.1217 54.5997 13.4521
2941 1 8.7043 56.1823 15.0347
2942 1 7.1217 54.5997 16.6173
2943 1 8.7043 56.1823 18.1999
2944 1 7.1217 54.5997 19.7825
2945 1 8.7043 56.1823 21.3651
2946 1 7.1217 54.5997 22.9477
2947 1 8.7043 56.1823 24.5303
2948 1 7.1217 54.5997 26.1129
2949 1 8.7043 56.1823 27.6955
2950 1 7.1217 54.5997 29.2781
2951 1 8.7043 56.1823 30.8607
2952 1 7.1217 54.5997 32.4433
2953 1 8.7043 56.1823 34.0259
2954 1 7.1217 54.5997 35.6085
2955 1 8.7043 56.1823 37.1911
2956 1 7.1217 54.5997 38.7737
2957 1 8.7043 56.1823 40.3563
2958 1 7.1217 54.5997 41.9389
2959 1 8.7043 56.1823 43.5215
2960 1 7.1217 54.5997 45.1041
2961 1 8.7043 56.1823 46.6867
2962 1 7.1217 54.5997 48.2693
2963 1 8.7043 56.1823 49.8519
2964 1 7.1217 54.5997 51.4345
2965 1 8.7043 56.1823 53.0171
2966 1 7.1217 54.5997 54.5997
2967 1 8.7043 56.1823 56.1823
2968 1 7.1217 54.5997 57.7649
2969 1 8.7043 56.1823 59.3475
2970 1 7.1217 54.5997 60.9301
2971 1 8.7043 56.1823 62.5127
2972 1 7.1217 57.7649 0.7913
2973 1 8.7043 59.3475 2.3739
2974 1 7.1217 57.7649 3.9565
2975 1 8.7043 59.3475 5.5391
2976 1 7.1217 57.7649 7.1217
2977 1 8.7043 59.3475 8.7043
2978 1 7.1217 57.7649 10.2869
2979 1 8.7043 59.3475 11.8695
2980 1 7.1217 57.7649 13.4521
2981 1 8.7043 59.3475 15.0347
2982 1 7.1217 57.7649 16.6173
2983 1 8.7043 59.3475 18.1999
2984 1 7.1217 57.7649 19.7825
2985 1 8.7043 59.3475 21.3651
2986 1 7.1217 57.7649 22.9477
2987 1 8.7043 59.3475 24.5303
2988 1 7.1217 57.7649 26.1129
2989 1 8.7043 59.3475 27.6955
2990 1 7.1217 57.7649 29.2781
2991 1 8.7043 59.3475 30.8607
2992 1 7.1217 57.7649 32.4433
2993 1 8.7043 59.3475 34.0259
2994 1 7.1217 57.7649 35.6085
2995 1 8.7043 59.3475 37.1911
2996 1 7.1217 57.7649 38.7737
2997 1 8.7043 59.3475 40.3563
2998 1 7.1217 57.7649 41.9389
2999 1 8.7043 59.3475 43.5215
3000 1 7.1217 57.7649 45.1041
3001 1 8.7043 59.3475 46.6867
3002 1 7.1217 57.7649 48.2693
3003 1 8.7043 59.3475 49.8519
3004 1 7.1217 57.7649 51.4345
3005 1 8.7043 59.3475 53.0171
3006 1 7.1217 57.7649 54.5997
3007 1 8.7043 59.3475 56.1823
3008 1 7.1217 57.7649 57.7649
3009 1 8.7043 59.3475 59.3475
3010 1 7.1217 57.7649 60.9301
3011 1 8.7043 59.3475 62.5127
3012 1 7.1217 60.9301 0.7913
3013 1 8.7043 62.5127 2.3739
3014 1 7.1217 60.9301 3.9565
3015 1 8.7043 62.5127 5.5391
3016 1 7.1217 60.9301 7.1217
3017 1 8.7043 62.5127 8.7043
3018 1 7.1217 60.9301 10.2869
3019 1 8.7043 62.5127 11.8695
3020 1 7.1217 60.9301 13.4521
3021 1 8.7043 62.5127 15.0347
3022 1 7.1217 60.9301 16.6173
3023 1 8.7043 62.5127 18.1999
3024 1 7.1217 60.9301 19.7825
3025 1 8.7043 62.5127 21.3651
3026 1 7.1217 60.9301 22.9477
3027 1 8.7043 62.5127 24.5303
3028 1 7.1217 60.9301 26.1129
3029 1 8.7043 62.5127 27.6955
3030 1 7.1217 60.9301 29.2781
3031 1 8.7043 62.5127 30.8607
3032 1 7.1217 60.9301 32.4433
3033 1 8.7043 62.5127 34.0259
3034 1 7.1217 60.9301 35.6085
3035 1 8.7043 62.5127 37.1911
3036 1 7.1217 60.9301 38.7737
3037 1 8.7043 62.5127 40.3563
3038 1 7.1217 60.9301 41.9389
3039 1 8.7043 62.5127 43.5215
3040 1 7.1217 60.9301 45.1041
3041 1 8.7043 62.5127 46.6867
3042 1 7.1217 60.9301 48.2693
3043 1 8.7043 62.5127 49.8519
3044 1 7.1217 60.9301 51.4345
3045 1 8.7043 62.5127 53.0171
3046 1 7.1217 60.9301 54.5997
3047 1 8.7043 62.5127 56.1823
3048 1 7.1217 60.9301 57.7649
3049 1 8.7043 62.5127 59.3475
3050 1 7.1217 60.9301 60.9301
3051 1 8.7043 62.5127 62.5127
3052 1 10.2869 0.7913 0.7913
3053 1 11.8695 2.3739 2.3739
3054 1 10.2869 0.7913 3.9565
3055 1 11.8695 2.3739 5.5391
3056 1 10.2869 0.7913 7.1217
3057 1 11.8695 2.3739 8.7043
3058 1 10.2869 0.7913 10.2869
3059 1 11.8695 2.3739 11.8695
3060 1 10.2869 0.7913 13.4521
3061 1 11.8695 2.3739 15.0347
3062 1 10.2869 0.7913 16.6173
3063 1 11.8695 2.3739 18.1999
3064 1 10.2869 0.7913 19.7825
3065 1 11.8695 2.3739 21.3651
3066 1 10.2869 0.7913 22.9477
3067 1 11.8695 2.3739 24.5303
3068 1 10.2869 0.7913 26.1129
3069 1 11.8695 2.3739 27.6955
3070 1 10.2869 0.7913 29.2781
3071 1 11.8695 2.3739 30.8607
3072 1 10.2869 0.7913 32.4433
3073 1 11.8695 2.3739 34.0259
3074 1 10.2869 0.7913 35.6085
3075 1 11.8695 2.3739 37.1911
3076 1 10.2869 0.7913 38.7737
3077 1 11.8695 2.3739 40.3563
3078 1 10.2869 0.7913 41.9389
3079 1 11.8695 2.3739 43.5215
3080 1 10.2869 0.7913 45.1041
3081 1 11.8695 2.3739 46.6867
3082 1 10.2869 0.7913 48.2693
3083 1 11.8695 2.3739 49.8519
3084 1 10.2869 0.7913 51.4345
3085 1 11.8695 2.3739 53.0171
3086 1 10.2869 0.7913 54.5997
3087 1 11.8695 2.3739 56.1823
3088 1 10.2869 0.7913 57.7649
3089 1 11.8695 2.3739 59.3475
3090 1 10.2869 0.7913 60.9301
3091 1 11.8695 2.3739 62.5127
3092 1 10.2869 3.9565 0.7913
3093 1 11.8695 5.5391 2.3739
3094 1 10.2869 3.9565 3.9565
3095 1 11.8695 5.5391 5.5391
3096 1 10.2869 3.9565 7.1217
3097 1 11.8695 5.5391 8.7043
3098 1 10.2869 3.9565 10.2869
3099 1 11.8695 5.5391 11.8695
3100 1 10.2869 3.9565 13.4521
3101 1 11.8695 5.5391 15.0347
3102 1 10.2869 3.9565 16.6173
3103 1 11.8695 5.5391 18.1999
3104 1 10.2869 3.9565 19.7825
3105 1 11.8695 5.5391 21.3651
3106 1 10.2869 3.9565 22.9477
3107 1 11.8695 5.5391 24.5303
3108 1 10.2869 3.9565 26.1129
3109 1 11.8695 5.5391 27.6955
3110 1 10.2869 3.9565 29.2781
3111 1 11.8695 5.5391 30.8607
3112 1 10.2869 3.9565 32.4433
3113 1 11.8695 5.5391 34.0259
3114 1 10.2869 3.9565 35.6085
3115 1 11.8695 5.5391 37.1911
3116 1 10.2869 3.9565 38.7737
3117 1 11.8695 5.5391 40.3563
3118 1 10.2869 3.9565 41.9389
3119 1 11.8695 5.5391 43.5215
3120 1 10.2869 3.9565 45.1041
3121 1 11.8695 5.5391 46.6867
3122 1 10.2869 3.9565 48.2693
3123 1 11.8695 5.5391 49.8519
3124 1 10.2869 3.9565 51.4345
3125 1 11.8695 5.5391 53.0171
3126 1 10.2869 3.9565 54.5997
3127 1 11.8695 5.5391 56.1823
3128 1 10.2869 3.9565 57.7649
3129 1 11.8695 5.5391 59.3475
3130 1 10.2869 3.9565 60.9301
3131 1 11.8695 5.5391 62.5127
3132 1 10.2869 7.1217 0.7913
3133 1 11.8695 8.7043 2.3739
3134 1 10.2869 7.1217 3.9565
3135 1 11.8695 8.7043 5.5391
3136 1 10.2869 7.1217 7.1217
3137 1 11.8695 8.7043 8.7043
3138 1 10.2869 7.1217 10.2869
3139 1 11.8695 8.7043 11.8695
3140 1 10.2869 7.1217 13.4521
3141 1 11.8695 8.7043 15.0347
3142 1 10.2869 7.1217 16.6173
3143 1 11.8695 8.7043 18.1999
3144 1 10.2869 7.1217 19.7825
3145 1 11.8695 8.7043 21.3651
3146 1 10.2869 7.1217 22.9477
3147 1 11.8695 8.7043 24.5303
3148 1 10.2869 7.1217 26.1129
3149 1 11.8695 8.7043 27.6955
3150 1 10.2869 7.1217 29.2781
3151 1 11.8695 8.7043 30.8607
3152 1 10.2869 7.1217 32.4433
3153 1 11.8695 8.7043 34.0259
3154 1 10.2869 7.1217 35.6085
3155 1 11.8695 8.7043 37.1911
3156 1 10.2869 7.1217 38.7737
3157 1 11.8695 8.7043 40.3563
3158 1 10.2869 7.1217 41.9389
3159 1 11.8695 8.7043 43.5215
3160 1 10.2869 7.1217 45.1041
3161 1 11.8695 8.7043 46.6867
3162 1 10.2869 7.1217 48.2693
3163 1 11.8695 8.7043 49.8519
3164 1 10.2869 7.1217 51.4345
3165 1 11.8695 8.7043 53.0171
3166 1 10.2869 7.1217 54.5997
3167 1 11.8695 8.7043 56.1823
3168 1 10.2869 7.1217 57.7649
3169 1 11.8695 8.7043 59.3475
3170 1 10.2869 7.1217 60.9301
3171 1 11.8695 8.7043 62.5127
3172 1 10.2869 10.2869 0.7913
3173 1 11.8695 11.8695 2.3739
3174 1 10.2869 10.2869 3.9565
3175 1 11.8695 11.8695 5.5391
3176 1 10.2869 10.2869 7.1217
3177 1 11.8695 11.8695 8.7043
3178 1 10.2869 10.2869 10.2869
3179 1 11.8695 11.8695 11.8695
3180 1 10.2869 10.2869 13.4521
3181 1 11.8695 11.8695 15.0347
3182 1 10.2869 10.2869 16.6173
3183 1 11.8695 11.8695 18.1999
3184 1 10.2869 10.2869 19.7825
3185 1 11.8695 11.8695 21.3651
3186 1 10.2869 10.2869 22.9477
3187 1 11.8695 11.8695 24.5303
3188 1 10.2869 10.2869 26.1129
3189 1 11.8695 11.8695 27.6955
3190 1 10.2869 10.2869 29.2781
3191 1 11.8695 11.8695 30.8607
3192 1 10.2869 10.2869 32.4433
3193 1 11.8695 11.8695 34.0259
3194 1 10.2869 10.2869 35.6085
3195 1 11.8695 11.8695 37.1911
3196 1 10.2869 10.2869 38.7737
3197 1 11.8695 11.8695 40.3563
3198 1 10.2869 10.2869 41.9389
3199 1 11.8695 11.8695 43.5215
3200 1 10.2869 10.2869 45.1041
3201 1 11.8695 11.8695 46.6867
3202 1 10.2869 10.2869 48.2693
3203 1 11.8695 11.8695 49.8519
3204 1 10.2869 10.2869 51.4345
3205 1 11.8695 11.8695 53.0171
3206 1 10.2869 10.2869 54.5997
3207 1 11.8695 11.8695 56.1823
3208 1 10.2869 10.2869 57.7649
3209 1 11.8695 11.8695 59.3475
3210 1 10.2869 10.2869 60.9301
3211 1 11.8695 11.8695 62.5127
3212 1 10.2869 13.4521 0.7913
3213 1 11.8695 15.0347 2.3739
3214 1 10.2869 13.4521 3.9565
3215 1 11.8695 15.0347 5.5391
3216 1 10.2869 13.4521 7.1217
3217 1 11.8695 15.0347 8.7043
3218 1 10.2869 13.4521 10.2869
3219 1 11.8695 15.0347 11.8695
3220 1 10.2869 13.4521 13.4521
3221 1 11.8695 15.0347 15.0347
3222 1 10.2869 13.4521 16.6173
3223 1 11.8695 15.0347 18.1999
3224 1 10.2869 13.4521 19.7825
3225 1 11.8695 15.0347 21.3651
3226 1 10.2869 13.4521 22.9477
3227 1 11.8695 15.0347 24.5303
3228 1 10.2869 13.4521 26.1129
3229 1 11.8695 15.0347 27.6955
3230 1 10.2869 13.4521 29.2781
3231 1 11.8695 15.0347 30.8607
3232 1 10.2869 13.4521 32.4433
3233 1 11.8695 15.0347 34.0259
3234 1 10.2869 13.4521 35.6085
3235 1 11.8695 15.0347 37.1911
3236 1 10.2869 13.4521 38.7737
3237 1 11.8695 15.0347 40.3563
3238 1 10.2869 13.4521 41.9389
3239 1 11.8695 15.0347 43.5215
3240 1 10.2869 13.4521 45.1041
3241 1 11.8695 15.0347 46.6867
3242 1 10.2869 13.4521 48.2693
3243 1 11.8695 15.0347 49.8519
3244 1 10.2869 13.4521 51.4345
3245 1 11.8695 15.0347 53.0171
3246 1 10.2869 13.4521 54.5997
3247 1 11.8695 15.0347 56.1823
3248 1 10.2869 13.4521 57.7649
3249 1 11.8695 15.0347 59.3475
3250 1 10.2869 13.4521 60.9301
3251 1 11.8695 15.0347 62.5127
3252 1 10.2869 16.6173 0.7913
3253 1 11.8695 18.1999 2.3739
3254 1 10.2869 16.6173 3.9565
3255 1 11.8695 18.1999 5.5391
3256 1 10.2869 16.6173 7.1217
3257 1 11.8695 18.1999 8.7043
3258 1 10.2869 16.6173 10.2869
3259 1 11.8695 18.1999 11.8695
3260 1 10.2869 16.6173 13.4521
3261 1 11.8695 18.1999 15.0347
3262 1 10.2869 16.6173 16.6173
3263 1 11.8695 18.1999 18.1999
3264 1 10.2869 16.6173 19.7825
3265 1 11.8695 18.1999 21.3651
3266 1 10.2869 16.6173 22.9477
3267 1 11.8695 18.1999 24.5303
3268 1 10.2869 16.6173 26.1129
3269 1 11.8695 18.1999 27.6955
3270 1 10.2869 16.6173 29.2781
3271 1 11.8695 18.1999 30.8607
3272 1 10.2869 16.6173 32.4433
3273 1 11.8695 18.1999 34.0259
3274 1 10.2869 16.6173 35.6085
3275 1 11.8695 18.1999 37.1911
3276 1 10.2869 16.6173 38.7737
3277 1 11.8695 18.1999 40.3563
3278 1 10.2869 16.6173 41.9389
3279 1 11.8695 18.1999 43.5215
3280 1 10.2869 16.6173 45.1041
3281 1 11.8695 18.1999 46.6867
3282 1 10.2869 16.6173 48.2693
3283 1 11.8695 18.1999 49.8519
3284 1 10.2869 16.6173 51.4345
3285 1 11.8695 18.1999 53.0171
3286 1 10.2869 16.6173 54.5997
3287 1 11.8695 18.1999 56.1823
3288 1 10.2869 16.6173 57.7649
3289 1 11.8695 18.1999 59.3475
3290 1 10.2869 16.6173 60.9301
3291 1 11.8695 18.1999 62.5127
3292 1 10.2869 19.7825 0.7913
3293 1 11.8695 21.3651 2.3739
3294 1 10.2869 19.7825 3.9565
3295 1 11.8695 21.3651 5.5391
3296 1 10.2869 19.7825 7.1217
3297 1 11.8695 21.3651 8.7043
3298 1 10.2869 19.7825 10.2869
3299 1 11.8695 21.3651 11.8695
3300 1 10.2869 19.7825 13.4521
3301 1 11.8695 21.3651 15.0347
3302 1 10.2869 19.7825 16.6173
3303 1 11.8695 21.3651 18.1999
3304 1 10.2869 19.7825 19.7825
3305 1 11.8695 21.3651 21.3651
3306 1 10.2869 19.7825 22.9477
3307 1 11.8695 21.3651 24.5303
3308 1 10.2869 19.7825 26.1129
3309 1 11.8695 21.3651 27.6955
3310 1 10.2869 19.7825 29.2781
3311 1 11.8695 21.3651 30.8607
3312 1 10.2869 19.7825 32.4433
3313 1 11.8695 21.3651 34.0259
3314 1 10.2869 19.7825 35.6085
3315 1 11.8695 21.3651 37.1911
3316 1 10.2869 19.7825 38.7737
3317 1 11.8695 21.3651 40.3563
3318 1 10.2869 19.7825 41.9389
3319 1 11.8695 21.3651 43.5215
3320 1 10.2869 19.7825 45.1041
3321 1 11.8695 21.3651 46.6867
3322 1 10.2869 19.7825 48.2693
3323 1 11.8695 21.3651 49.8519
3324 1 10.2869 19.7825 51.4345
3325 1 11.8695 21.3651 53.0171
3326 1 10.2869 19.7825 54.5997
3327 1 11.8695 21.3651 56.1823
3328 1 10.2869 19.7825 57.7649
3329 1 11.8695 21.3651 59.3475
3330 1 10.2869 19.7825 60.9301
3331 1 11.8695 21.3651 62.5127
3332 1 10.2869 22.9477 0.7913
3333 1 11.8695 24.5303 2.3739
3334 1 10.2869 22.9477 3.9565
3335 1 11.8695 24.5303 5.5391
3336 1 10.2869 22.9477 7.1217
3337 1 11.8695 24.5303 8.7043
3338 1 10.2869 22.9477 10.2869
3339 1 11.8695 24.5303 11.8695
3340 1 10.2869 22.9477 13.4521
3341 1 11.8695 24.5303 15.0347
3342 1 10.2869 22.9477 16.6173
3343 1 11.8695 24.5303 18.1999
3344 1 10.2869 22.9477 19.7825
3345 1 11.8695 24.5303 21.3651
3346 1 10.2869 22.9477 22.9477
3347 1 11.8695 24.5303 24.5303
3348 1 10.2869 22.9477 26.1129
3349 1 11.8695 24.5303 27.6955
3350 1 10.2869 22.9477 29.2781
3351 1 11.8695 24.5303 30.8607
3352 1 10.2869 22.9477 32.4433
3353 1 11.8695 24.5303 34.0259
3354 1 10.2869 22.9477 35.6085
3355 1 11.8695 24.5303 37.1911
3356 1 10.2869 22.9477 38.7737
3357 1 11.8695 24.5303 40.3563
3358 1 10.2869 22.9477 41.9389
3359 1 11.8695 24.5303 43.5215
3360 1 10.2869 22.9477 45.1041
3361 1 11.8695 24.5303 46.6867
3362 1 10.2869 22.9477 48.2693
3363 1 11.8695 24.5303 49.8519
3364 1 10.2869 22.9477 51.4345
3365 1 11.8695 24.5303 53.0171
3366 1 10.2869 22.9477 54.5997
3367 1 11.8695 24.5303 56.1823
3368 1 10.2869 22.9477 57.7649
3369 1 11.8695 24.5303 59.3475
3370 1 10.2869 22.9477 60.9301
3371 1 11.8695 24.5303 62.5127
3372 1 10.2869 26.1129 0.7913
3373 1 11.8695 27.6955 2.3739
3374 1 10.2869 26.1129 3.9565
3375 1 11.8695 27.6955 5.5391
3376 1 10.2869 26.1129 7.1217
3377 1 11.8695 27.6955 8.7043
3378 1 10.2869 26.1129 10.2869
3379 1 11.8695 27.6955 11.8695
3380 1 10.2869 26.1129 13.4521
3381 1 11.8695 27.6955 15.0347
3382 1 10.2869 26.1129 16.6173
3383 1 11.8695 27.6955 18.1999
3384 1 10.2869 26.1129 19.7825
3385 1 11.8695 27.6955 21.3651
3386 1 10.2869 26.1129 22.9477
3387 1 11.8695 27.6955 24.5303
3388 1 10.2869 26.1129 26.1129
3389 1 11.8695 27.6955 27.6955
3390 1 10.2869 26.1129 29.2781
3391 1 11.8695 27.6955 30.8607
3392 1 10.2869 26.1129 32.4433
3393 1 11.8695 27.6955 34.0259
3394 1 10.2869 26.1129 35.6085
3395 1 11.8695 27.6955 37.1911
3396 1 10.2869 26.1129 38.7737
3397 1 11.8695 27.6955 40.3563
3398 1 10.2869 26.1129 41.9389
3399 1 11.8695 27.6955 43.5215
3400 1 10.2869 26.1129 45.1041
3401 1 11.8695 27.6955 46.6867
3402 1 10.2869 26.1129 48.2693
3403 1 11.8695 27.6955 49.8519
3404 1 10.2869 26.1129 51.4345
3405 1 11.8695 27.6955 53.0171
3406 1 10.2869 26.1129 54.5997
3407 1 11.8695 27.6955 56.1823
3408 1 10.2869 26.1129 57.7649
3409 1 11.8695 27.6955 59.3475
3410 1 10.2869 26.1129 60.9301
3411 1 11.8695 27.6955 62.5127
3412 1 10.2869 29.2781 0.7913
3413 1 11.8695 30.8607 2.3739
3414 1 10.2869 29.2781 3.9565
3415 1 11.8695 30.8607 5.5391
3416 1 10.2869 29.2781 7.1217
3417 1 11.8695 30.8607 8.7043
3418 1 10.2869 29.2781 10.2869
3419 1 11.8695 30.8607 11.8695
3420 1 10.2869 29.2781 13.4521
3421 1 11.8695 30.8607 15.0347
3422 1 10.2869 29.2781 16.6173
3423 1 11.8695 30.8607 18.1999
3424 1 10.2869 29.2781 19.7825
3425 1 11.8695 30.8607 21.3651
3426 1 10.2869 29.2781 22.9477
3427 1 11.8695 30.8607 24.5303
3428 1 10.2869 29.2781 26.1129
3429 1 11.8695 30.8607 27.6955
3430 1 10.2869 29.2781 29.2781
3431 1 11.8695 30.8607 30.8607
3432 1 10.2869 29.2781 32.4433
3433 1 11.8695 30.8607 34.0259
3434 1 10.2869 29.2781 35.6085
3435 1 11.8695 30.8607 37.1911
3436 1 10.2869 29.2781 38.7737
3437 1 11.8695 30.8607 40.3563
3438 1 10.2869 29.2781 41.9389
3439 1 11.8695 30.8607 43.5215
3440 1 10.2869 29.2781 45.1041
3441 1 11.8695 30.8607 46.6867
3442 1 10.2869 29.2781 48.2693
3443 1 11.8695 30.8607 49.8519
3444 1 10.2869 29.2781 51.4345
3445 1 11.8695 30.8607 53.0171
3446 1 10.2869 29.2781 54.5997
3447 1 11.8695 30.8607 56.1823
3448 1 10.2869 29.2781 57.7649
3449 1 11.8695 30.8607 59.3475
3450 1 10.2869 29.2781 60.9301
3451 1 11.8695 30.8607 62.5127
3452 1 10.2869 32.4433 0.7913
3453 1 11.8695 34.0259 2.3739
3454 1 10.2869 32.4433 3.9565
3455 1 11.8695 34.0259 5.5391
3456 1 10.2869 32.4433 7.1217
3457 1 11.8695 34.0259 8.7043
3458 1 10.2869 32.4433 10.2869
3459 1 11.8695 34.0259 11.8695
3460 1 10.2869 32.4433 13.4521
3461 1 11.8695 34.0259 15.0347
3462 1 10.2869 32.4433 16.6173
3463 1 11.8695 34.0259 18.1999
3464 1 10.2869 32.4433 19.7825
3465 1 11.8695 34.0259 21.3651
3466 1 10.2869 32.4433 22.9477
3467 1 11.8695 34.0259 24.5303
3468 1 10.2869 32.4433 26.1129
3469 1 11.8695 34.0259 27.6955
3470 1 10.2869 32.4433 29.2781
3471 1 11.8695 34.0259 30.8607
3472 1 10.2869 32.4433 32.4433
3473 1 11.8695 34.0259 34.0259
3474 1 10.2869 32.4433 35.6085
3475 1 11.8695 34.0259 37.1911
3476 1 10.2869 32.4433 38.7737
3477 1 11.8695 34.0259 40.3563
3478 1 10.2869 32.4433 41.9389
3479 1 11.8695 34.0259 43.5215
3480 1 10.2869 32.4433 45.1041
3481 1 11.8695 34.0259 46.6867
3482 1 10.2869 32.4433 48.2693
3483 1 11.8695 34.0259 49.8519
3484 1 10.2869 32.4433 51.4345
3485 1 11.8695 34.0259 53.0171
3486 1 10.2869 32.4433 54.5997
3487 1 11.8695 34.0259 56.1823
3488 1 10.2869 32.4433 57.7649
3489 1 11.8695 34.0259 59.3475
3490 1 10.2869 32.4433 60.9301
3491 1 11.8695 34.0259 62.5127
3492 1 10.2869 35.6085 0.7913
3493 1 11.8695 37.1911 2.3739
3494 1 10.2869 35.6085 3.9565
3495 1 11.8695 37.1911 5.5391
3496 1 10.2869 35.6085 7.1217
3497 1 11.8695 37.1911 8.7043
3498 1 10.2869 35.6085 10.2869
3499 1 11.8695 37.1911 11.8695
3500 1 10.2869 35.6085 13.4521
3501 1 11.8695 37.1911 15.0347
3502 1 10.2869 35.6085 16.6173
3503 1 11.8695 37.1911 18.1999
3504 1 10.2869 35.6085 19.7825
3505 1 11.8695 37.1911 21.3651
3506 1 10.2869 35.6085 22.9477
3507 1 11.8695 37.1911 24.5303
3508 1 10.2869 35.6085 26.1129
3509 1 11.8695 37.1911 27.6955
3510 1 10.2869 35.6085 29.2781
3511 1 11.8695 37.1911 30.8607
3512 1 10.2869 35.6085 32.4433
3513 1 11.8695 37.1911 34.0259
3514 1 10.2869 35.6085 35.6085
3515 1 11.8695 37.1911 37.1911
3516 1 10.2869 35.6085 38.7737
3517 1 11.8695 37.1911 40.3563
3518 1 10.2869 35.6085 41.9389
3519 1 11.8695 37.1911 43.5215
3520 1 10.2869 35.6085 45.1041
3521 1 11.8695 37.1911 46.6867
3522 1 10.2869 35.6085 48.2693
3523 1 11.8695 37.1911 49.8519
3524 1 10.2869 35.6085 51.4345
3525 1 11.8695 37.1911 53.0171
3526 1 10.2869 35.6085 54.5997
3527 1 11.8695 37.1911 56.1823
3528 1 10.2869 35.6085 57.7649
3529 1 11.8695 37.1911 59.3475
3530 1 10.2869 35.6085 60.9301
3531 1 11.8695 37.1911 62.5127
3532 1 10.2869 38.7737 0.7913
3533 1 11.8695 40.3563 2.3739
3534 1 10.2869 38.7737 3.9565
3535 1 11.8695 40.3563 5.5391
3536 1 10.2869 38.7737 7.1217
3537 1 11.8695 40.3563 8.7043
3538 1 10.2869 38.7737 10.2869
3539 1 11.8695 40.3563 11.8695
3540 1 10.2869 38.7737 13.4521
3541 1 11.8695 40.3563 15.0347
3542 1 10.2869 38.7737 16.6173
3543 1 11.8695 40.3563 18.1999
3544 1 10.2869 38.7737 19.7825
3545 1 11.8695 40.3563 21.3651
3546 1 10.2869 38.7737 22.9477
3547 1 11.8695 40.3563 24.5303
3548 1 10.2869 38.7737 26.1129
3549 1 11.8695 40.3563 27.6955
3550 1 10.2869 38.7737 29.2781
3551 1 11.8695 40.3563 30.8607
3552 1 10.2869 38.7737 32.4433
3553 1 11.8695 40.3563 34.0259
3554 1 10.2869 38.7737 35.6085
3555 1 11.8695 40.3563 37.1911
3556 1 10.2869 38.7737 38.7737
3557 1 11.8695 40.3563 40.3563
3558 1 10.2869 38.7737 41.9389
3559 1 11.8695 40.3563 43.5215
3560 1 10.2869 38.7737 45.1041
3561 1 11.8695 40.3563 46.6867
3562 1 10.2869 38.7737 48.2693
3563 1 11.8695 40.3563 49.8519
3564 1 10.2869 38.7737 51.4345
3565 1 11.8695 40.3563 53.0171
3566 1 10.2869 38.7737 54.5997
3567 1 11.8695 40.3563 56.1823
3568 1 10.2869 38.7737 57.7649
3569 1 11.8695 40.3563 59.3475
3570 1 10.2869 38.7737 60.9301
3571 1 11.8695 40.3563 62.5127
3572 1 10.2869 41.9389 0.7913
3573 1 11.8695 43.5215 2.3739
3574 1 10.2869 41.9389 3.9565
3575 1 11.8695 43.5215 5.5391
3576 1 10.2869 41.9389 7.1217
3577 1 11.8695 43.5215 8.7043
3578 1 10.2869 41.9389 10.2869
3579 1 11.8695 43.5215 11.8695
3580 1 10.2869 41.9389 13.4521
3581 1 11.8695 43.5215 15.0347
3582 1 10.2869 41.9389 16.6173
3583 1 11.8695 43.5215 18.1999
3584 1 10.2869 41.9389 19.7825
3585 1 11.8695 43.5215 21.3651
3586 1 10.2869 41.9389 22.9477
3587 1 11.8695 43.5215 24.5303
3588 1 10.2869 41.9389 26.1129
3589 1 11.8695 43.5215 27.6955
3590 1 10.2869 41.9389 29.2781
3591 1 11.8695 43.5215 30.8607
3592 1 10.2869 41.9389 32.4433
3593 1 11.8695 43.5215 34.0259
3594 1 10.2869 41.9389 35.6085
3595 1 11.8695 43.5215 37.1911
3596 1 10.2869 41.9389 38.7737
3597 1 11.8695 43.5215 40.3563
3598 1 10.2869 41.9389 41.9389
3599 1 11.8695 43.5215 43.5215
3600 1 10.2869 41.9389 45.1041
3601 1 11.8695 43.5215 46.6867
3602 1 10.2869 41.9389 48.2693
3603 1 11.8695 43.5215 49.8519
3604 1 10.2869 41.9389 51.4345
3605 1 11.8695 43.5215 53.0171
3606 1 10.2869 41.9389 54.5997
3607 1 11.8695 43.5215 56.1823
3608 1 10.2869 41.9389 57.7649
3609 1 11.8695 43.5215 59.3475
3610 1 10.2869 41.9389 60.9301
3611 1 11.8695 43.5215 62.5127
3612 1 10.2869 45.1041 0.7913
3613 1 11.8695 46.6867 2.3739
3614 1 10.2869 45.1041 3.9565
3615 1 11.8695 46.6867 5.5391
3616 1 10.2869 45.1041 7.1217
3617 1 11.8695 46.6867 8.7043
3618 1 10.2869 45.1041 10.2869
3619 1 11.8695 46.6867 11.8695
3620 1 10.2869 45.1041 13.4521
3621 1 11.8695 46.6867 15.0347
3622 1 10.2869 45.1041 16.6173
3623 1 11.8695 46.6867 18.1999
3624 1 10.2869 45.1041 19.7825
3625 1 11.8695 46.6867 21.3651
3626 1 10.2869 45.1041 22.9477
3627 1 11.8695 46.6867 24.5303
3628 1 10.2869 45.1041 26.1129
3629 1 11.8695 46.6867 27.6955
3630 1 10.2869 45.1041 29.2781
3631 1 11.8695 46.6867 30.8607
3632 1 10.2869 45.1041 32.4433
3633 1 11.8695 46.6867 34.0259
3634 1 10.2869 45.1041 35.6085
3635 1 11.8695 46.6867 37.1911
3636 1 10.2869 45.1041 38.7737
3637 1 11.8695 46.6867 40.3563
3638 1 10.2869 45.1041 41.9389
3639 1 11.8695 46.6867 43.5215
3640 1 10.2869 45.1041 45.1041
3641 1 11.8695 46.6867 46.6867
3642 1 10.2869 45.1041 48.2693
3643 1 11.8695 46.6867 49.8519
3644 1 10.2869 45.1041 51.4345
3645 1 11.8695 46.6867 53.0171
3646 1 10.2869 45.1041 54.5997
3647 1 11.8695 46.6867 56.1823
3648 1 10.2869 45.1041 57.7649
3649 1 11.8695 46.6867 59.3475
3650 1 10.2869 45.1041 60.9301
3651 1 11.8695 46.6867 62.5127
3652 1 10.2869 48.2693 0.7913
3653 1 11.8695 49.8519 2.3739
3654 1 10.2869 48.2693 3.9565
3655 1 11.8695 49.8519 5.5391
3656 1 10.2869 48.2693 7.1217
3657 1 11.8695 49.8519 8.7043
3658 1 10.2869 48.2693 10.2869
3659 1 11.8695 49.8519 11.8695
3660 1 10.2869 48.2693 13.4521
3661 1 11.8695 49.8519 15.0347
3662 1 10.2869 48.2693 16.6173
3663 1 11.8695 49.8519 18.1999
3664 1 10.2869 48.2693 19.7825
3665 1 11.8695 49.8519 21.3651
3666 1 10.2869 48.2693 22.9477
3667 1 11.8695 49.8519 24.5303
3668 1 10.2869 48.2693 26.1129
3669 1 11.8695 49.8519 27.6955
3670 1 10.2869 48.2693 29.2781
3671 1 11.8695 49.8519 30.8607
3672 1 10.2869 48.2693 32.4433
3673 1 11.8695 49.8519 34.0259
3674 1 10.2869 48.2693 35.6085
3675 1 11.8695 49.8519 37.1911
3676 1 10.2869 48.2693 38.7737
3677 1 11.8695 49.8519 40.3563
3678 1 10.2869 48.2693 41.9389
3679 1 11.8695 49.8519 43.5215
3680 1 10.2869 48.2693 45.1041
3681 1 11.8695 49.8519 46.6867
3682 1 10.2869 48.2693 48.2693
3683 1 11.8695 49.8519 49.8519
3684 1 10.2869 48.2693 51.4345
3685 1 11.8695 49.8519 53.0171
3686 1 10.2869 48.2693 54.5997
3687 1 11.8695 49.8519 56.1823
3688 1 10.2869 48.2693 57.7649
3689 1 11.8695 49.8519 59.3475
3690 1 10.2869 48.2693 60.9301
3691 1 11.8695 49.8519 62.5127
3692 1 10.2869 51.4345 0.7913
3693 1 11.8695 53.0171 2.3739
3694 1 10.2869 51.4345 3.9565
3695 1 11.8695 53.0171 5.5391
3696 1 10.2869 51.4345 7.1217
3697 1 11.8695 53.0171 8.7043
3698 1 10.2869 51.4345 10.2869
3699 1 11.8695 53.0171 11.8695
3700 1 10.2869 51.4345 13.4521
3701 1 11.8695 53.0171 15.0347
3702 1 10.2869 51.4345 16.6173
3703 1 11.8695 53.0171 18.1999
3704 1 10.2869 51.4345 19.7825
3705 1 11.8695 53.0171 21.3651
3706 1 10.2869 51.4345 22.9477
3707 1 11.8695 53.0171 24.5303
3708 1 10.2869 51.4345 26.1129
3709 1 11.8695 53.0171 27.6955
3710 1 10.2869 51.4345 29.2781
3711 1 11.8695 53.0171 30.8607
3712 1 10.2869 51.4345 32.4433
3713 1 11.8695 53.0171 34.0259
3714 1 10.2869 51.4345 35.6085
3715 1 11.8695 53.0171 37.1911
3716 1 10.2869 51.4345 38.7737
3717 1 11.8695 53.0171 40.3563
3718 1 10.2869 51.4345 41.9389
3719 1 11.8695 53.0171 43.5215
3720 1 10.2869 51.4345 45.1041
3721 1 11.8695 53.0171 46.6867
3722 1 10.2869 51.4345 48.2693
3723 1 11.8695 53.0171 49.8519
3724 1 10.2869 51.4345 51.4345
3725 1 11.8695 53.0171 53.0171
3726 1 10.2869 51.4345 54.5997
3727 1 11.8695 53.0171 56.1823
3728 1 10.2869 51.4345 57.7649
3729 1 11.8695 53.0171 59.3475
3730 1 10.2869 51.4345 60.9301
3731 1 11.8695 53.0171 62.5127
3732 1 10.2869 54.5997 0.7913
3733 1 11.8695 56.1823 2.3739
3734 1 10.2869 54.5997 3.9565
3735 1 11.8695 56.1823 5.5391
3736 1 10.2869 54.5997 7.1217
3737 1 11.8695 56.1823 8.7043
3738 1 10.2869 54.5997 10.2869
3739 1 11.8695 56.1823 11.8695
3740 1 10.2869 54.5997 13.4521
3741 1 11.8695 56.1823 15.0347
3742 1 10.2869 54.5997 16.6173
3743 1 11.8695 56.1823 18.1999
3744 1 10.2869 54.5997 19.7825
3745 1 11.8695 56.1823 21.3651
3746 1 10.2869 54.5997 22.9477
3747 1 11.8695 56.1823 24.5303
3748 1 10.2869 54.5997 26.1129
3749 1 11.8695 56.1823 27.6955
3750 1 10.2869 54.5997 29.2781
3751 1 11.8695 56.1823 30.8607
3752 1 10.2869 54.5997 32.4433
3753 1 11.8695 56.1823 34.0259
3754 1 10.2869 54.5997 35.6085
3755 1 11.8695 56.1823 37.1911
3756 1 10.2869 54.5997 38.7737
3757 1 11.8695 56.1823 40.3563
3758 1 10.2869 54.5997 41.9389
3759 1 11.8695 56.1823 43.5215
3760 1 10.2869 54.5997 45.1041
3761 1 11.8695 56.1823 46.6867
3762 1 10.2869 54.5997 48.2693
3763 1 11.8695 56.1823 49.8519
3764 1 10.2869 54.5997 51.4345
3765 1 11.8695 56.1823 53.0171
3766 1 10.2869 54.5997 54.5997
3767 1 11.8695 56.1823 56.1823
3768 1 10.2869 54.5997 57.7649
3769 1 11.8695 56.1823 59.3475
3770 1 10.2869 54.5997 60.9301
3771 1 11.8695 56.1823 62.5127
3772 1 10.2869 57.7649 0.7913
3773 1 11.8695 59.3475 2.3739
3774 1 10.2869 57.7649 3.9565
3775 1 11.8695 59.3475 5.5391
3776 1 10.2869 57.7649 7.1217
3777 1 11.8695 59.3475 8.7043
3778 1 10.2869 57.7649 10.2869
3779 1 11.8695 59.3475 11.8695
3780 1 10.2869 57.7649 13.4521
3781 1 11.8695 59.3475 15.0347
3782 1 10.2869 57.7649 16.6173
3783 1 11.8695 59.3475 18.1999
3784 1 10.2869 57.7649 19.7825
3785 1 11.8695 59.3475 21.3651
3786 1 10.2869 57.7649 22.9477
3787 1 11.8695 59.3475 24.5303
3788 1 10.2869 57.7649 26.1129
3789 1 11.8695 59.3475 27.6955
3790 1 10.2869 57.7649 29.2781
3791 1 11.8695 59.3475 30.8607
3792 1 10.2869 57.7649 32.4433
3793 1 11.8695 59.3475 34.0259
3794 1 10.2869 57.7649 35.6085
3795 1 11.8695 59.3475 37.1911
3796 1 10.2869 57.7649 38.7737
3797 1 11.8695 59.3475 40.3563
3798 1 10.2869 57.7649 41.9389
3799 1 11.8695 59.3475 43.5215
3800 1 10.2869 57.7649 45.1041
3801 1 11.8695 59.3475 46.6867
3802 1 10.2869 57.7649 48.2693
3803 1 11.8695 59.3475 49.8519
3804 1 10.2869 57.7649 51.4345
3805 1 11.8695 59.3475 53.0171
3806 1 10.2869 57.7649 54.5997
3807 1 11.8695 59.3475 56.1823
3808 1 10.2869 57.7649 57.7649
3809 1 11.8695 59.3475 59.3475
3810 1 10.2869 57.7649 60.9301
3811 1 11.8695 59.3475 62.5127
3812 1 10.2869 60.9301 0.7913
3813 1 11.8695 62.5127 2.3739
3814 1 10.2869 60.9301 3.9565
3815 1 11.8695 62.5127 5.5391
3816 1 10.2869 60.9301 7.1217
3817 1 11.8695 62.5127 8.7043
3818 1 10.2869 60.9301 10.2869
3819 1 11.8695 62.5127 11.8695
3820 1 10.2869 60.9301 13.4521
3821 1 11.8695 62.5127 15.0347
3822 1 10.2869 60.9301 16.6173
3823 1 11.8695 62.5127 18.1999
3824 1 10.2869 60.9301 19.7825
3825 1 11.8695 62.5127 21.3651
3826 1 10.2869 60.9301 22.9477
3827 1 11.8695 62.5127 24.5303
3828 1 10.2869 60.9301 26.1129
3829 1 11.8695 62.5127 27.6955
3830 1 10.2869 60.9301 29.2781
3831 1 11.8695 62.5127 30.8607
3832 1 10.2869 60.9301 32.4433
3833 1 11.8695 62.5127 34.0259
3834 1 10.2869 60.9301 35.6085
3835 1 11.8695 62.5127 37.1911
3836 1 10.2869 60.9301 38.7737
3837 1 11.8695 62.5127 40.3563
3838 1 10.2869 60.9301 41.9389
3839 1 11.8695 62.5127 43.5215
3840 1 10.2869 60.9301 45.1041
3841 1 11.8695 62.5127 46.6867
3842 1 10.2869 60.9301 48.2693
3843 1 11.8695 62.5127 49.8519
3844 1 10.2869 60.9301 51.4345
3845 1 11.8695 62.5127 53.0171
3846 1 10.2869 60.9301 54.5997
3847 1 11.8695 62.5127 56.1823
3848 1 10.2869 60.9301 57.7649
3849 1 11.8695 62.5127 59.3475
3850 1 10.2869 60.9301 60.9301
3851 1 11.8695 62.5127 62.5127
3852 1 13.4521 0.7913 0.7913
3853 1 15.0347 2.3739 2.3739
3854 1 13.4521 0.7913 3.9565
3855 1 15.0347 2.3739 5.5391
3856 1 13.4521 0.7913 7.1217
3857 1 15.0347 2.3739 8.7043
3858 1 13.4521 0.7913 10.2869
3859 1 15.0347 2.3739 11.8695
3860 1 13.4521 0.7913 13.4521
3861 1 15.0347 2.3739 15.0347
3862 1 13.4521 0.7913 16.6173
3863 1 15.0347 2.3739 18.1999
3864 1 13.4521 0.7913 19.7825
3865 1 15.0347 2.3739 21.3651
3866 1 13.4521 0.7913 22.9477
3867 1 15.0347 2.3739 24.5303
3868 1 13.4521 0.7913 26.1129
3869 1 15.0347 2.3739 27.6955
3870 1 13.4521 0.7913 29.2781
3871 1 15.0347 2.3739 30.8607
3872 1 13.4521 0.7913 32.4433
3873 1 15.0347 2.3739 34.0259
3874 1 13.4521 0.7913 35.6085
3875 1 15.0347 2.3739 37.1911
3876 1 13.4521 0.7913 38.7737
3877 1 15.0347 2.3739 40.3563
3878 1 13.4521 0.7913 41.9389
3879 1 15.0347 2.3739 43.5215
3880 1 13.4521 0.7913 45.1041
3881 1 15.0347 2.3739 46.6867
3882 1 13.4521 0.7913 48.2693
3883 1 15.0347 2.3739 49.8519
3884 1 13.4521 0.7913 51.4345
3885 1 15.0347 2.3739 53.0171
3886 1 13.4521 0.7913 54.5997
3887 1 15.0347 2.3739 56.1823
3888 1 13.4521 0.7913 57.7649
3889 1 15.0347 2.3739 59.3475
3890 1 13.4521 0.7913 60.9301
3891 1 15.0347 2.3739 62.5127
3892 1 13.4521 3.9565 0.7913
3893 1 15.0347 5.5391 2.3739
3894 1 13.4521 3.9565 3.9565
3895 1 15.0347 5.5391 5.5391
3896 1 13.4521 3.9565 7.1217
3897 1 15.0347 5.5391 8.7043
3898 1 13.4521 3.9565 10.2869
3899 1 15.0347 5.5391 11.8695
3900 1 13.4521 3.9565 13.4521
3901 1 15.0347 5.5391 15.0347
3902 1 13.4521 3.9565 16.6173
3903 1 15.0347 5.5391 18.1999
3904 1 13.4521 3.9565 19.7825
3905 1 15.0347 5.5391 21.3651
3906 1 13.4521 3.9565 22.9477
3907 1 15.0347 5.5391 24.5303
3908 1 13.4521 3.9565 26.1129
3909 1 15.0347 5.5391 27.6955
3910 1 13.4521 3.9565 29.2781
3911 1 15.0347 5.5391 30.8607
3912 1 13.4521 3.9565 32.4433
3913 1 15.0347 5.5391 34.0259
3914 1 13.4521 3.9565 35.6085
3915 1 15.0347 5.5391 37.1911
3916 1 13.4521 3.9565 38.7737
3917 1 15.0347 5.5391 40.3563
3918 1 13.4521 3.9565 41.9389
3919 1 15.0347 5.5391 43.5215
3920 1 13.4521 3.9565 45.1041
3921 1 15.0347 5.5391 46.6867
3922 1 13.4521 3.9565 48.2693
3923 1 15.0347 5.5391 49.8519
3924 1 13.4521 3.9565 51.4345
3925 1 15.0347 5.5391 53.0171
3926 1 13.4521 3.9565 54.5997
3927 1 15.0347 5.5391 56.1823
3928 1 13.4521 3.9565 57.7649
3929 1 15.0347 5.5391 59.3475
3930 1 13.4521 3.9565 60.9301
3931 1 15.0347 5.5391 62.5127
3932 1 13.4521 7.1217 0.7913
3933 1 15.0347 8.7043 2.3739
3934 1 13.4521 7.1217 3.9565
3935 1 15.0347 8.7043 5.5391
3936 1 13.4521 7.1217 7.1217
3937 1 15.0347 8.7043 8.7043
3938 1 13.4521 7.1217 10.2869
3939 1 15.0347 8.7043 11.8695
3940 1 13.4521 7.1217 13.4521
3941 1 15.0347 8.7043 15.0347
3942 1 13.4521 7.1217 16.6173
3943 1 15.0347 8.7043 18.1999
3944 1 13.4521 7.1217 19.7825
3945 1 15.0347 8.7043 21.3651
3946 1 13.4521 7.1217 22.9477
3947 1 15.0347 8.7043 24.5303
3948 1 13.4521 7.1217 26.1129
3949 1 15.0347 8.7043 27.6955
3950 1 13.4521 7.1217 29.2781
3951 1 15.0347 8.7043 30.8607
3952 1 13.4521 7.1217 32.4433
3953 1 15.0347 8.7043 34.0259
3954 1 13.4521 7.1217 35.6085
3955 1 15.0347 8.7043 37.1911
3956 1 13.4521 7.1217 38.7737
3957 1 15.0347 8.7043 40.3563
3958 1 13.4521 7.1217 41.9389
3959 1 15.0347 8.7043 43.5215
3960 1 13.4521 7.1217 45.1041
3961 1 15.0347 8.7043 46.6867
3962 1 13.4521 7.1217 48.2693
3963 1 15.0347 8.7043 49.8519
3964 1 13.4521 7.1217 51.4345
3965 1 15.0347 8.7043 53.0171
3966 1 13.4521 7.1217 54.5997
3967 1 15.0347 8.7043 56.1823
3968 1 13.4521 7.1217 57.7649
3969 1 15.0347 8.7043 59.3475
3970 1 13.4521 7.1217 60.9301
3971 1 15.0347 8.7043 62.5127
3972 1 13.4521 10.2869 0.7913
3973 1 15.0347 11.8695 2.3739
3974 1 13.4521 10.2869 3.9565
3975 1 15.0347 11.8695 5.5391
3976 1 13.4521 10.2869 7.1217
3977 1 15.0347 11.8695 8.7043
3978 1 13.4521 10.2869 10.2869
3979 1 15.0347 11.8695 11.8695
3980 1 13.4521 10.2869 13.4521
3981 1 15.0347 11.8695 15.0347
3982 1 13.4521 10.2869 16.6173
3983 1 15.0347 11.8695 18.1999
3984 1 13.4521 10.2869 19.7825
3985 1 15.0347 11.8695 21.3651
3986 1 13.4521 10.2869 22.9477
3987 1 15.0347 11.8695 24.5303
3988 1 13.4521 10.2869 26.1129
3989 1 15.0347 11.8695 27.6955
3990 1 13.4521 10.2869 29.2781
3991 1 15.0347 11.8695 30.8607
3992 1 13.4521 10.2869 32.4433
3993 1 15.0347 11.8695 34.0259
3994 1 13.4521 10.2869 35.6085
3995 1 15.0347 11.8695 37.1911
3996 1 13.4521 10.2869 38.7737
3997 1 15.0347 11.8695 40.3563
3998 1 13.4521 10.2869 41.9389
3999 1 15.0347 11.8695 43.5215
4000 1 13.4521 10.2869 45.1041
4001 1 15.0347 11.8695 46.6867
4002 1 13.4521 10.2869 48.2693
4003 1 15.0347 11.8695 49.8519
4004 1 13.4521 10.2869 51.4345
4005 1 15.0347 11.8695 53.0171
4006 1 13.4521 10.2869 54.5997
4007 1 15.0347 11.8695 56.1823
4008 1 13.4521 10.2869 57.7649
4009 1 15.0347 11.8695 59.3475
4010 1 13.4521 10.2869 60.9301
4011 1 15.0347 11.8695 62.5127
4012 1 13.4521 13.4521 0.7913
4013 1 15.0347 15.0347 2.3739
4014 1 13.4521 13.4521 3.9565
4015 1 15.0347 15.0347 5.5391
4016 1 13.4521 13.4521 7.1217
4017 1 15.0347 15.0347 8.7043
4018 1 13.4521 13.4521 10.2869
4019 1 15.0347 15.0347 11.8695
4020 1 13.4521 13.4521 13.4521
4021 1 15.0347 15.0347 15.0347
4022 1 13.4521 13.4521 16.6173
4023 1 15.0347 15.0347 18.1999
4024 1 13.4521 13.4521 19.7825
4025 1 15.0347 15.0347 21.3651
4026 1 13.4521 13.4521 22.9477
4027 1 15.0347 15.0347 24.5303
4028 1 13.4521 13.4521 26.1129
4029 1 15.0347 15.0347 27.6955
4030 1 13.4521 13.4521 29.2781
4031 1 15.0347 15.0347 30.8607
4032 1 13.4521 13.4521 32.4433
4033 1 15.0347 15.0347 34.0259
4034 1 13.4521 13.4521 35.6085
4035 1 15.0347 15.0347 37.1911
4036 1 13.4521 13.4521 38.7737
4037 1 15.0347 15.0347 40.3563
4038 1 13.4521 13.4521 41.9389
4039 1 15.0347 15.0347 43.5215
4040 1 13.4521 13.4521 45.1041
4041 1 15.0347 15.0347 46.6867
4042 1 13.4521 13.4521 48.2693
4043 1 15.0347 15.0347 49.8519
4044 1 13.4521 13.4521 51.4345
4045 1 15.0347 15.0347 53.0171
4046 1 13.4521 13.4521 54.5997
4047 1 15.0347 15.0347 56.1823
4048 1 13.4521 13.4521 57.7649
4049 1 15.0347 15.0347 59.3475
4050 1 13.4521 13.4521 60.9301
4051 1 15.0347 15.0347 62.5127
4052 1 13.4521 16.6173 0.7913
4053 1 15.0347 18.1999 2.3739
4054 1 13.4521 16.6173 3.9565
4055 1 15.0347 18.1999 5.5391
4056 1 13.4521 16.6173 7.1217
4057 1 15.0347 18.1999 8.7043
4058 1 13.4521 16.6173 10.2869
4059 1 15.0347 18.1999 11.8695
4060 1 13.4521 16.6173 13.4521
4061 1 15.0347 18.1999 15.0347
4062 1 13.4521 16.6173 16.6173
4063 1 15.0347 18.1999 18.1999
4064 1 13.4521 16.6173 19.7825
4065 1 15.0347 18.1999 21.3651
4066 1 13.4521 16.6173 22.9477
4067 1 15.0347 18.1999 24.5303
4068 1 13.4521 16.6173 26.1129
4069 1 15.0347 18.1999 27.6955
4070 1 13.4521 16.6173 29.2781
4071 1 15.0347 18.1999 30.8607
4072 1 13.4521 16.6173 32.4433
4073 1 15.0347 18.1999 34.0259
4074 1 13.4521 16.6173 35.6085
4075 1 15.0347 18.1999 37.1911
4076 1 13.4521 16.6173 38.7737
4077 1 15.0347 18.1999 40.3563
4078 1 13.4521 16.6173 41.9389
4079 1 15.0347 18.1999 43.5215
4080 1 13.4521 16.6173 45.1041
4081 1 15.0347 18.1999 46.6867
4082 1 13.4521 16.6173 48.2693
4083 1 15.0347 18.1999 49.8519
4084 1 13.4521 16.6173 51.4345
4085 1 15.0347 18.1999 53.0171
4086 1 13.4521 16.6173 54.5997
4087 1 15.0347 18.1999 56.1823
4088 1 13.4521 16.6173 57.7649
4089 1 15.0347 18.1999 59.3475
4090 1 13.4521 16.6173 60.9301
4091 1 15.0347 18.1999 62.5127
4092 1 13.4521 19.7825 0.7913
4093 1 15.0347 21.3651 2.3739
4094 1 13.4521 19.7825 3.9565
4095 1 15.0347 21.3651 5.5391
4096 1 13.4521 19.7825 7.1217
4097 1 15.0347 21.3651 8.7043
4098 1 13.4521 19.7825 10.2869
4099 1 15.0347 21.3651 11.8695
4100 1 13.4521 19.7825 13.4521
4101 1 15.0347 21.3651 15.0347
4102 1 13.4521 19.7825 16.6173
4103 1 15.0347 21.3651 18.1999
4104 1 13.4521 19.7825 19.7825
4105 1 15.0347 21.3651 21.3651
4106 1 13.4521 19.7825 22.9477
4107 1 15.0347 21.3651 24.5303
4108 1 13.4521 19.7825 26.1129
4109 1 15.0347 21.3651 27.6955
4110 1 13.4521 19.7825 29.2781
4111 1 15.0347 21.3651 30.8607
4112 1 13.4521 19.7825 32.4433
4113 1 15.0347 21.3651 34.0259
4114 1 13.4521 19.7825 35.6085
4115 1 15.0347 21.3651 37.1911
4116 1 13.4521 19.7825 38.7737
4117 1 15.0347 21.3651 40.3563
4118 1 13.4521 19.7825 41.9389
4119 1 15.0347 21.3651 43.5215
4120 1 13.4521 19.7825 45.1041
4121 1 15.0347 21.3651 46.6867
4122 1 13.4521 19.7825 48.2693
4123 1 15.0347 21.3651 49.8519
4124 1 13.4521 19.7825 51.4345
4125 1 15.0347 21.3651 53.0171
4126 1 13.4521 19.7825 54.5997
4127 1 15.0347 21.3651 56.1823
4128 1 13.4521 19.7825 57.7649
4129 1 15.0347 21.3651 59.3475
4130 1 13.4521 19.7825 60.9301
4131 1 15.0347 21.3651 62.5127
4132 1 13.4521 22.9477 0.7913
4133 1 15.0347 24.5303 2.3739
4134 1 13.4521 22.9477 3.9565
4135 1 15.0347 24.5303 5.5391
4136 1 13.4521 22.9477 7.1217
4137 1 15.0347 24.5303 8.7043
4138 1 13.4521 22.9477 10.2869
4139 1 15.0347 24.5303 11.8695
4140 1 13.4521 22.9477 13.4521
4141 1 15.0347 24.5303 15.0347
4142 1 13.4521 22.9477 16.6173
4143 1 15.0347 24.5303 18.1999
4144 1 13.4521 22.9477 19.7825
4145 1 15.0347 24.5303 21.3651
4146 1 13.4521 22.9477 22.9477
4147 1 15.0347 24.5303 24.5303
4148 1 13.4521 22.9477 26.1129
4149 1 15.0347 24.5303 27.6955
4150 1 13.4521 22.9477 29.2781
4151 1 15.0347 24.5303 30.8607
4152 1 13.4521 22.9477 32.4433
4153 1 15.0347 24.5303 34.0259
4154 1 13.4521 22.9477 35.6085
4155 1 15.0347 24.5303 37.1911
4156 1 13.4521 22.9477 38.7737
4157 1 15.0347 24.5303 40.3563
4158 1 13.4521 22.9477 41.9389
4159 1 15.0347 24.5303 43.5215
4160 1 13.4521 22.9477 45.1041
4161 1 15.0347 24.5303 46.6867
4162 1 13.4521 22.9477 48.2693
4163 1 15.0347 24.5303 49.8519
4164 1 13.4521 22.9477 51.4345
4165 1 15.0347 24.5303 53.0171
4166 1 13.4521 22.9477 54.5997
4167 1 15.0347 24.5303 56.1823
4168 1 13.4521 22.9477 57.7649
4169 1 15.0347 24.5303 59.3475
4170 1 13.4521 22.9477 60.9301
4171 1 15.0347 24.5303 62.5127
4172 1 13.4521 26.1129 0.7913
4173 1 15.0347 27.6955 2.3739
4174 1 13.4521 26.1129 3.9565
4175 1 15.0347 27.6955 5.5391
4176 1 13.4521 26.1129 7.1217
4177 1 15.0347 27.6955 8.7043
4178 1 13.4521 26.1129 10.2869
4179 1 15.0347 27.6955 11.8695
4180 1 13.4521 26.1129 13.4521
4181 1 15.0347 27.6955 15.0347
4182 1 13.4521 26.1129 16.6173
4183 1 15.0347 27.6955 18.1999
4184 1 13.4521 26.1129 19.7825
4185 1 15.0347 27.6955 21.3651
4186 1 13.4521 26.1129 22.9477
4187 1 15.0347 27.6955 24.5303
4188 1 13.4521 26.1129 26.1129
4189 1 15.0347 27.6955 27.6955
4190 1 13.4521 26.1129 29.2781
4191 1 15.0347 27.6955 30.8607
4192 1 13.4521 26.1129 32.4433
4193 1 15.0347 27.6955 34.0259
4194 1 13.4521 26.1129 35.6085
4195 1 15.0347 27.6955 37.1911
4196 1 13.4521 26.1129 38.7737
4197 1 15.0347 27.6955 40.3563
4198 1 13.4521 26.1129 41.9389
4199 1 15.0347 27.6955 43.5215
4200 1 13.4521 26.1129 45.1041
4201 1 15.0347 27.6955 46.6867
4202 1 13.4521 26.1129 48.2693
4203 1 15.0347 27.6955 49.8519
4204 1 13.4521 26.1129 51.4345
4205 1 15.0347 27.6955 53.0171
4206 1 13.4521 26.1129 54.5997
4207 1 15.0347 27.6955 56.1823
4208 1 13.4521 26.1129 57.7649
4209 1 15.0347 27.6955 59.3475
4210 1 13.4521 26.1129 60.9301
4211 1 15.0347 27.6955 62.5127
4212 1 13.4521 29.2781 0.7913
4213 1 15.0347 30.8607 2.3739
4214 1 13.4521 29.2781 3.9565
4215 1 15.0347 30.8607 5.5391
4216 1 13.4521 29.2781 7.1217
4217 1 15.0347 30.8607 8.7043
4218 1 13.4521 29.2781 10.2869
4219 1 15.0347 30.8607 11.8695
4220 1 13.4521 29.2781 13.4521
4221 1 15.0347 30.8607 15.0347
4222 1 13.4521 29.2781 16.6173
4223 1 15.0347 30.8607 18.1999
4224 1 13.4521 29.2781 19.7825
4225 1 15.0347 30.8607 21.3651
4226 1 13.4521 29.2781 22.9477
4227 1 15.0347 30.8607 24.5303
4228 1 13.4521 29.2781 26.1129
4229 1 15.0347 30.8607 27.6955
4230 1 13.4521 29.2781 29.2781
4231 1 15.0347 30.8607 30.8607
4232 1 13.4521 29.2781 32.4433
4233 1 15.0347 30.8607 34.0259
4234 1 13.4521 29.2781 35.6085
4235 1 15.0347 30.8607 37.1911
4236 1 13.4521 29.2781 38.7737
4237 1 15.0347 30.8607 40.3563
4238 1 13.4521 29.2781 41.9389
4239 1 15.0347 30.8607 43.5215
4240 1 13.4521 29.2781 45.1041
4241 1 15.0347 30.8607 46.6867
4242 1 13.4521 29.2781 48.2693
4243 1 15.0347 30.8607 49.8519
4244 1 13.4521 29.2781 51.4345
4245 1 15.0347 30.8607 53.0171
4246 1 13.4521 29.2781 54.5997
4247 1 15.0347 30.8607 56.1823
4248 1 13.4521 29.2781 57.7649
4249 1 15.0347 30.8607 59.3475
4250 1 13.4521 29.2781 60.9301
4251 1 15.0347 30.8607 62.5127
4252 1 13.4521 32.4433 0.7913
4253 1 15.0347 34.0259 2.3739
4254 1 13.4521 32.4433 3.9565
4255 1 15.0347 34.0259 5.5391
4256 1 13.4521 32.4433 7.1217
4257 1 15.0347 34.0259 8.7043
4258 1 13.4521 32.4433 10.2869
4259 1 15.0347 34.0259 11.8695
4260 1 13.4521 32.4433 13.4521
4261 1 15.0347 34.0259 15.0347
4262 1 13.4521 32.4433 16.6173
4263 1 15.0347 34.0259 18.1999
4264 1 13.4521 32.4433 19.7825
4265 1 15.0347 34.0259 21.3651
4266 1 13.4521 32.4433 22.9477
4267 1 15.0347 34.0259 24.5303
4268 1 13.4521 32.4433 26.1129
4269 1 15.0347 34.0259 27.6955
4270 1 13.4521 32.4433 29.2781
4271 1 15.0347 34.0259 30.8607
4272 1 13.4521 32.4433 32.4433
4273 1 15.0347 34.0259 34.0259
4274 1 13.4521 32.4433 35.6085
4275 1 15.0347 34.0259 37.1911
4276 1 13.4521 32.4433 38.7737
4277 1 15.0347 34.0259 40.3563
4278 1 13.4521 32.4433 41.9389
4279 1 15.0347 34.0259 43.5215
4280 1 13.4521 32.4433 45.1041
4281 1 15.0347 34.0259 46.6867
4282 1 13.4521 32.4433 48.2693
4283 1 15.0347 34.0259 49.8519
4284 1 13.4521 32.4433 51.4345
4285 1 15.0347 34.0259 53.0171
4286 1 13.4521 32.4433 54.5997
4287 1 15.0347 34.0259 56.1823
4288 1 13.4521 32.4433 57.7649
4289 1 15.0347 34.0259 59.3475
4290 1 13.4521 32.4433 60.9301
4291 1 15.0347 34.0259 62.5127
4292 1 13.4521 35.6085 0.7913
4293 1 15.0347 37.1911 2.3739
4294 1 13.4521 35.6085 3.9565
4295 1 15.0347 37.1911 5.5391
4296 1 13.4521 35.6085 7.1217
4297 1 15.0347 37.1911 8.7043
4298 1 13.4521 35.6085 10.2869
4299 1 15.0347 37.1911 11.8695
4300 1 13.4521 35.6085 13.4521
4301 1 15.0347 37.1911 15.0347
4302 1 13.4521 35.6085 16.6173
4303 1 15.0347 37.1911 18.1999
4304 1 13.4521 35.6085 19.7825
4305 1 15.0347 37.1911 21.3651
4306 1 13.4521 35.6085 22.9477
4307 1 15.0347 37.1911 24.5303
4308 1 13.4521 35.6085 26.1129
4309 1 15.0347 37.1911 27.6955
4310 1 13.4521 35.6085 29.2781
4311 1 15.0347 37.1911 30.8607
4312 1 13.4521 35.6085 32.4433
4313 1 15.0347 37.1911 34.0259
4314 1 13.4521 35.6085 35.6085
4315 1 15.0347 37.1911 37.1911
4316 1 13.4521 35.6085 38.7737
4317 1 15.0347 37.1911 40.3563
4318 1 13.4521 35.6085 41.9389
4319 1 15.0347 37.1911 43.5215
4320 1 13.4521 35.6085 45.1041
4321 1 15.0347 37.1911 46.6867
4322 1 13.4521 35.6085 48.2693
4323 1 15.0347 37.1911 49.8519
4324 1 13.4521 35.6085 51.4345
4325 1 15.0347 37.1911 53.0171
4326 1 13.4521 35.6085 54.5997
4327 1 15.0347 37.1911 56.1823
4328 1 13.4521 35.6085 57.7649
4329 1 15.0347 37.1911 59.3475
4330 1 13.4521 35.6085 60.9301
4331 1 15.0347 37.1911 62.5127
4332 1 13.4521 38.7737 0.7913
4333 1 15.0347 40.3563 2.3739
4334 1 13.4521 38.7737 3.9565
4335 1 15.0347 40.3563 5.5391
4336 1 13.4521 38.7737 7.1217
4337 1 15.0347 40.3563 8.7043
4338 1 13.4521 38.7737 10.2869
4339 1 15.0347 40.3563 11.8695
4340 1 13.4521 38.7737 13.4521
4341 1 15.0347 40.3563 15.0347
4342 1 13.4521 38.7737 16.6173
4343 1 15.0347 40.3563 18.1999
4344 1 13.4521 38.7737 19.7825
4345 1 15.0347 40.3563 21.3651
4346 1 13.4521 38.7737 22.9477
4347 1 15.0347 40.3563 24.5303
4348 1 13.4521 38.7737 26.1129
4349 1 15.0347 40.3563 27.6955
4350 1 13.4521 38.7737 29.2781
4351 1 15.0347 40.3563 30.8607
4352 1 13.4521 38.7737 32.4433
4353 1 15.0347 40.3563 34.0259
4354 1 13.4521 38.7737 35.6085
4355 1 15.0347 40.3563 37.1911
4356 1 13.4521 38.7737 38.7737
4357 1 15.0347 40.3563 40.3563
4358 1 13.4521 38.7737 41.9389
4359 1 15.0347 40.3563 43.5215
4360 1 13.4521 38.7737 45.1041
4361 1 15.0347 40.3563 46.6867
4362 1 13.4521 38.7737 48.2693
4363 1 15.0347 40.3563 49.8519
4364 1 13.4521 38.7737 51.4345
4365 1 15.0347 40.3563 53.0171
4366 1 13.4521 38.7737 54.5997
4367 1 15.0347 40.3563 56.1823
4368 1 13.4521 38.7737 57.7649
4369 1 15.0347 40.3563 59.3475
4370 1 13.4521 38.7737 60.9301
4371 1 15.0347 40.3563 62.5127
4372 1 13.4521 41.9389 0.7913
4373 1 15.0347 43.5215 2.3739
4374 1 13.4521 41.9389 3.9565
4375 1 15.0347 43.5215 5.5391
4376 1 13.4521 41.9389 7.1217
4377 1 15.0347 43.5215 8.7043
4378 1 13.4521 41.9389 10.2869
4379 1 15.0347 43.5215 11.8695
4380 1 13.4521 41.9389 13.4521
4381 1 15.0347 43.5215 15.0347
4382 1 13.4521 41.9389 16.6173
4383 1 15.0347 43.5215 18.1999
4384 1 13.4521 41.9389 19.7825
4385 1 15.0347 43.5215 21.3651
4386 1 13.4521 41.9389 22.9477
4387 1 15.0347 43.5215 24.5303
4388 1 13.4521 41.9389 26.1129
4389 1 15.0347 43.5215 27.6955
4390 1 13.4521 41.9389 29.2781
4391 1 15.0347 43.5215 30.8607
4392 1 13.4521 41.9389 32.4433
4393 1 15.0347 43.5215 34.0259
4394 1 13.4521 41.9389 35.6085
4395 1 15.0347 43.5215 37.1911
4396 1 13.4521 41.9389 38.7737
4397 1 15.0347 43.5215 40.3563
4398 1 13.4521 41.9389 41.9389
4399 1 15.0347 43.5215 43.5215
4400 1 13.4521 41.9389 45.1041
4401 1 15.0347 43.5215 46.6867
4402 1 13.4521 41.9389 48.2693
4403 1 15.0347 43.5215 49.8519
4404 1 13.4521 41.9389 51.4345
4405 1 15.0347 43.5215 53.0171
4406 1 13.4521 41.9389 54.5997
4407 1 15.0347 43.5215 56.1823
4408 1 13.4521 41.9389 57.7649
4409 1 15.0347 43.5215 59.3475
4410 1 13.4521 41.9389 60.9301
4411 1 15.0347 43.5215 62.5127
4412 1 13.4521 45.1041 0.7913
4413 1 15.0347 46.6867 2.3739
4414 1 13.4521 45.1041 3.9565
4415 1 15.0347 46.6867 5.5391
4416 1 13.4521 45.1041 7.1217
4417 1 15.0347 46.6867 8.7043
4418 1 13.4521 45.1041 10.2869
4419 1 15.0347 46.6867 11.8695
4420 1 13.4521 45.1041 13.4521
4421 1 15.0347 46.6867 15.0347
4422 1 13.4521 45.1041 16.6173
4423 1 15.0347 46.6867 18.1999
4424 1 13.4521 45.1041 19.7825
4425 1 15.0347 46.6867 21.3651
4426 1 13.4521 45.1041 22.9477
4427 1 15.0347 46.6867 24.5303
4428 1 13.4521 45.1041 26.1129
4429 1 15.0347 46.6867 27.6955
4430 1 13.4521 45.1041 29.2781
4431 1 15.0347 46.6867 30.8607
4432 1 13.4521 45.1041 32.4433
4433 1 15.0347 46.6867 34.0259
4434 1 13.4521 45.1041 35.6085
4435 1 15.0347 46.6867 37.1911
4436 1 13.4521 45.1041 38.7737
4437 1 15.0347 46.6867 40.3563
4438 1 13.4521 45.1041 41.9389
4439 1 15.0347 46.6867 43.5215
4440 1 13.4521 45.1041 45.1041
4441 1 15.0347 46.6867 46.6867
4442 1 13.4521 45.1041 48.2693
4443 1 15.0347 46.6867 49.8519
4444 1 13.4521 45.1041 51.4345
4445 1 15.0347 46.6867 53.0171
4446 1 13.4521 45.1041 54.5997
4447 1 15.0347 46.6867 56.1823
4448 1 13.4521 45.1041 57.7649
4449 1 15.0347 46.6867 59.3475
4450 1 13.4521 45.1041 60.9301
4451 1 15.0347 46.6867 62.5127
4452 1 13.4521 48.2693 0.7913
4453 1 15.0347 49.8519 2.3739
4454 1 13.4521 48.2693 3.9565
4455 1 15.0347 49.8519 5.5391
4456 1 13.4521 48.2693 7.1217
4457 1 15.0347 49.8519 8.7043
4458 1 13.4521 48.2693 10.2869
4459 1 15.0347 49.8519 11.8695
4460 1 13.4521 48.2693 13.4521
4461 1 15.0347 49.8519 15.0347
4462 1 13.4521 48.2693 16.6173
4463 1 15.0347 49.8519 18.1999
4464 1 13.4521 48.2693 19.7825
4465 1 15.0347 49.8519 21.3651
4466 1 13.4521 48.2693 22.9477
4467 1 15.0347 49.8519 24.5303
4468 1 13.4521 48.2693 26.1129
4469 1 15.0347 49.8519 27.6955
4470 1 13.4521 48.2693 29.2781
4471 1 15.0347 49.8519 30.8607
4472 1 13.4521 48.2693 32.4433
4473 1 15.0347 49.8519 34.0259
4474 1 13.4521 48.2693 35.6085
4475 1 15.0347 49.8519 37.1911
4476 1 13.4521 48.2693 38.7737
4477 1 15.0347 49.8519 40.3563
4478 1 13.4521 48.2693 41.9389
4479 1 15.0347 49.8519 43.5215
4480 1 13.4521 48.2693 45.1041
4481 1 15.0347 49.8519 46.6867
4482 1 13.4521 48.2693 48.2693
4483 1 15.0347 49.8519 49.8519
4484 1 13.4521 48.2693 51.4345
4485 1 15.0347 49.8519 53.0171
4486 1 13.4521 48.2693 54.5997
4487 1 15.0347 49.8519 56.1823
4488 1 13.4521 48.2693 57.7649
4489 1 15.0347 49.8519 59.3475
4490 1 13.4521 48.2693 60.9301
4491 1 15.0347 49.8519 62.5127
4492 1 13.4521 51.4345 0.7913
4493 1 15.0347 53.0171 2.3739
4494 1 13.4521 51.4345 3.9565
4495 1 15.0347 53.0171 5.5391
4496 1 13.4521 51.4345 7.1217
4497 1 15.0347 53.0171 8.7043
4498 1 13.4521 51.4345 10.2869
4499 1 15.0347 53.0171 11.8695
4500 1 13.4521 51.4345 13.4521
4501 1 15.0347 53.0171 15.0347
4502 1 13.4521 51.4345 16.6173
4503 1 15.0347 53.0171 18.1999
4504 1 13.4521 51.4345 19.7825
4505 1 15.0347 53.0171 21.3651
4506 1 13.4521 51.4345 22.9477
4507 1 15.0347 53.0171 24.5303
4508 1 13.4521 51.4345 26.1129
4509 1 15.0347 53.0171 27.6955
4510 1 13.4521 51.4345 29.2781
4511 1 15.0347 53.0171 30.8607
4512 1 13.4521 51.4345 32.4433
4513 1 15.0347 53.0171 34.0259
4514 1 13.4521 51.4345 35.6085
4515 1 15.0347 53.0171 37.1911
4516 1 13.4521 51.4345 38.7737
4517 1 15.0347 53.0171 40.3563
4518 1 13.4521 51.4345 41.9389
4519 1 15.0347 53.0171 43.5215
4520 1 13.4521 51.4345 45.1041
4521 1 15.0347 53.0171 46.6867
4522 1 13.4521 51.4345 48.2693
4523 1 15.0347 53.0171 49.8519
4524 1 13.4521 51.4345 51.4345
4525 1 15.0347 53.0171 53.0171
4526 1 13.4521 51.4345 54.5997
4527 1 15.0347 53.0171 56.1823
4528 1 13.4521 51.4345 57.7649
4529 1 15.0347 53.0171 59.3475
4530 1 13.4521 51.4345 60.9301
4531 1 15.0347 53.0171 62.5127
4532 1 13.4521 54.5997 0.7913
4533 1 15.0347 56.1823 2.3739
4534 1 13.4521 54.5997 3.9565
4535 1 15.0347 56.1823 5.5391
4536 1 13.4521 54.5997 7.1217
4537 1 15.0347 56.1823 8.7043
4538 1 13.4521 54.5997 10.2869
4539 1 15.0347 56.1823 11.8695
4540 1 13.4521 54.5997 13.4521
4541 1 15.0347 56.1823 15.0347
4542 1 13.4521 54.5997 16.6173
4543 1 15.0347 56.1823 18.1999
4544 1 13.4521 54.5997 19.7825
4545 1 15.0347 56.1823 21.3651
4546 1 13.4521 54.5997 22.9477
4547 1 15.0347 56.1823 24.5303
4548 1 13.4521 54.5997 26.1129
4549 1 15.0347 56.1823 27.6955
4550 1 13.4521 54.5997 29.2781
4551 1 15.0347 56.1823 30.8607
4552 1 13.4521 54.5997 32.4433
4553 1 15.0347 56.1823 34.0259
4554 1 13.4521 54.5997 35.6085
4555 1 15.0347 56.1823 37.1911
4556 1 13.4521 54.5997 38.7737
4557 1 15.0347 56.1823 40.3563
4558 1 13.4521 54.5997 41.9389
4559 1 15.0347 56.1823 43.5215
4560 1 13.4521 54.5997 45.1041
4561 1 15.0347 56.1823 46.6867
4562 1 13.4521 54.5997 48.2693
4563 1 15.0347 56.1823 49.8519
4564 1 13.4521 54.5997 51.4345
4565 1 15.0347 56.1823 53.0171
4566 1 13.4521 54.5997 54.5997
4567 1 15.0347 56.1823 56.1823
4568 1 13.4521 54.5997 57.7649
4569 1 15.0347 56.1823 59.3475
4570 1 13.4521 54.5997 60.9301
4571 1 15.0347 56.1823 62.5127
4572 1 13.4521 57.7649 0.7913
4573 1 15.0347 59.3475 2.3739
4574 1 13.4521 57.7649 3.9565
4575 1 15.0347 59.3475 5.5391
4576 1 13.4521 57.7649 7.1217
4577 1 15.0347 59.3475 8.7043
4578 1 13.4521 57.7649 10.2869
4579 1 15.0347 59.3475 11.8695
4580 1 13.4521 57.7649 13.4521
4581 1 15.0347 59.3475 15.0347
4582 1 13.4521 57.7649 16.6173
4583 1 15.0347 59.3475 18.1999
4584 1 13.4521 57.7649 19.7825
4585 1 15.0347 59.3475 21.3651
4586 1 13.4521 57.7649 22.9477
4587 1 15.0347 59.3475 24.5303
4588 1 13.4521 57.7649 26.1129
4589 1 15.0347 59.3475 27.6955
4590 1 13.4521 57.7649 29.2781
4591 1 15.0347 59.3475 30.8607
4592 1 13.4521 57.7649 32.4433
4593 1 15.0347 59.3475 34.0259
4594 1 13.4521 57.7649 35.6085
4595 1 15.0347 59.3475 37.1911
4596 1 13.4521 57.7649 38.7737
4597 1 15.0347 59.3475 40.3563
4598 1 13.4521 57.7649 41.9389
4599 1 15.0347 59.3475 43.5215
4600 1 13.4521 57.7649 45.1041
4601 1 15.0347 59.3475 46.6867
4602 1 13.4521 57.7649 48.2693
4603 1 15.0347 59.3475 49.8519
4604 1 13.4521 57.7649 51.4345
4605 1 15.0347 59.3475 53.0171
4606 1 13.4521 57.7649 54.5997
4607 1 15.0347 59.3475 56.1823
4608 1 13.4521 57.7649 57.7649
4609 1 15.0347 59.3475 59.3475
4610 1 13.4521 57.7649 60.9301
4611 1 15.0347 59.3475 62.5127
4612 1 13.4521 60.9301 0.7913
4613 1 15.0347 62.5127 2.3739
4614 1 13.4521 60.9301 3.9565
4615 1 15.0347 62.5127 5.5391
4616 1 13.4521 60.9301 7.1217
4617 1 15.0347 62.5127 8.7043
4618 1 13.4521 60.9301 10.2869
4619 1 15.0347 62.5127 11.8695
4620 1 13.4521 60.9301 13.4521
4621 1 15.0347 62.5127 15.0347
4622 1 13.4521 60.9301 16.6173
4623 1 15.0347 62.5127 18.1999
4624 1 13.4521 60.9301 19.7825
4625 1 15.0347 62.5127 21.3651
4626 1 13.4521 60.9301 22.9477
4627 1 15.0347 62.5127 24.5303
4628 1 13.4521 60.9301 26.1129
4629 1 15.0347 62.5127 27.6955
4630 1 13.4521 60.9301 29.2781
4631 1 15.0347 62.5127 30.8607
4632 1 13.4521 60.9301 32.4433
4633 1 15.0347 62.5127 34.0259
4634 1 13.4521 60.9301 35.6085
4635 1 15.0347 62.5127 37.1911
4636 1 13.4521 60.9301 38.7737
4637 1 15.0347 62.5127 40.3563
4638 1 13.4521 60.9301 41.9389
4639 1 15.0347 62.5127 43.5215
4640 1 13.4521 60.9301 45.1041
4641 1 15.0347 62.5127 46.6867
4642 1 13.4521 60.9301 48.2693
4643 1 15.0347 62.5127 49.8519
4644 1 13.4521 60.9301 51.4345
4645 1 15.0347 62.5127 53.0171
4646 1 13.4521 60.9301 54.5997
4647 1 15.0347 62.5127 56.1823
4648 1 13.4521 60.9301 57.7649
4649 1 15.0347 62.5127 59.3475
4650 1 13.4521 60.9301 60.9301
4651 1 15.0347 62.5127 62.5127
4652 1 45.1041 0.7913 0.7913
4653 1 46.6867 2.3739 2.3739
4654 1 45.1041 0.7913 3.9565
4655 1 46.6867 2.3739 5.5391
4656 1 45.1041 0.7913 7.1217
4657 1 46.6867 2.3739 8.7043
4658 1 45.1041 0.7913 10.2869
4659 1 46.6867 2.3739 11.8695
4660 1 45.1041 0.7913 13.4521
4661 1 46.6867 2.3739 15.0347
4662 1 45.1041 0.7913 16.6173
4663 1 46.6867 2.3739 18.1999
4664 1 45.1041 0.7913 19.7825
4665 1 46.6867 2.3739 21.3651
4666 1 45.1041 0.7913 22.9477
4667 1 46.6867 2.3739 24.5303
4668 1 45.1041 0.7913 26.1129
4669 1 46.6867 2.3739 27.6955
4670 1 45.1041 0.7913 29.2781
4671 1 46.6867 2.3739 30.8607
4672 1 45.1041 0.7913 32.4433
4673 1 46.6867 2.3739 34.0259
4674 1 45.1041 0.7913 35.6085
4675 1 46.6867 2.3739 37.1911
4676 1 45.1041 0.7913 38.7737
4677 1 46.6867 2.3739 40.3563
4678 1 45.1041 0.7913 41.9389
4679 1 46.6867 2.3739 43.5215
4680 1 45.1041 0.7913 45.1041
4681 1 46.6867 2.3739 46.6867
4682 1 45.1041 0.7913 48.2693
4683 1 46.6867 2.3739 49.8519
4684 1 45.1041 0.7913 51.4345
4685 1 46.6867 2.3739 53.0171
4686 1 45.1041 0.7913 54.5997
4687 1 46.6867 2.3739 56.1823
4688 1 45.1041 0.7913 57.7649
4689 1 46.6867 2.3739 59.3475
4690 1 45.1041 0.7913 60.9301
4691 1 46.6867 2.3739 62.5127
4692 1 45.1041 3.9565 0.7913
4693 1 46.6867 5.5391 2.3739
4694 1 45.1041 3.9565 3.9565
4695 1 46.6867 5.5391 5.5391
4696 1 45.1041 3.9565 7.1217
4697 1 46.6867 5.5391 8.7043
4698 1 45.1041 3.9565 10.2869
4699 1 46.6867 5.5391 11.8695
4700 1 45.1041 3.9565 13.4521
4701 1 46.6867 5.5391 15.0347
4702 1 45.1041 3.9565 16.6173
4703 1 46.6867 5.5391 18.1999
4704 1 45.1041 3.9565 19.7825
4705 1 46.6867 5.5391 21.3651
4706 1 45.1041 3.9565 22.9477
4707 1 46.6867 5.5391 24.5303
4708 1 45.1041 3.9565 26.1129
4709 1 46.6867 5.5391 27.6955
4710 1 45.1041 3.9565 29.2781
4711 1 46.6867 5.5391 30.8607
4712 1 45.1041 3.9565 32.4433
4713 1 46.6867 5.5391 34.0259
4714 1 45.1041 3.9565 35.6085
4715 1 46.6867 5.5391 37.1911
4716 1 45.1041 3.9565 38.7737
4717 1 46.6867 5.5391 40.3563
4718 1 45.1041 3.9565 41.9389
4719 1 46.6867 5.5391 43.5215
4720 1 45.1041 3.9565 45.1041
4721 1 46.6867 5.5391 46.6867
4722 1 45.1041 3.9565 48.2693
4723 1 46.6867 5.5391 49.8519
4724 1 45.1041 3.9565 51.4345
4725 1 46.6867 5.5391 53.0171
4726 1 45.1041 3.9565 54.5997
4727 1 46.6867 5.5391 56.1823
4728 1 45.1041 3.9565 57.7649
4729 1 46.6867 5.5391 59.3475
4730 1 45.1041 3.9565 60.9301
4731 1 46.6867 5.5391 62.5127
4732 1 45.1041 7.1217 0.7913
4733 1 46.6867 8.7043 2.3739
4734 1 45.1041 7.1217 3.9565
4735 1 46.6867 8.7043 5.5391
4736 1 45.1041 7.1217 7.1217
4737 1 46.6867 8.7043 8.7043
4738 1 45.1041 7.1217 10.2869
4739 1 46.6867 8.7043 11.8695
4740 1 45.1041 7.1217 13.4521
4741 1 46.6867 8.7043 15.0347
4742 1 45.1041 7.1217 16.6173
4743 1 46.6867 8.7043 18.1999
4744 1 45.1041 7.1217 19.7825
4745 1 46.6867 8.7043 21.3651
4746 1 45.1041 7.1217 22.9477
4747 1 46.6867 8.7043 24.5303
4748 1 45.1041 7.1217 26.1129
4749 1 46.6867 8.7043 27.6955
4750 1 45.1041 7.1217 29.2781
4751 1 46.6867 8.7043 30.8607
4752 1 45.1041 7.1217 32.4433
4753 1 46.6867 8.7043 34.0259
4754 1 45.1041 7.1217 35.6085
4755 1 46.6867 8.7043 37.1911
4756 1 45.1041 7.1217 38.7737
4757 1 46.6867 8.7043 40.3563
4758 1 45.1041 7.1217 41.9389
4759 1 46.6867 8.7043 43.5215
4760 1 45.1041 7.1217 45.1041
4761 1 46.6867 8.7043 46.6867
4762 1 45.1041 7.1217 48.2693
4763 1 46.6867 8.7043 49.8519
4764 1 45.1041 7.1217 51.4345
4765 1 46.6867 8.7043 53.0171
4766 1 45.1041 7.1217 54.5997
4767 1 46.6867 8.7043 56.1823
4768 1 45.1041 7.1217 57.7649
4769 1 46.6867 8.7043 59.3475
4770 1 45.1041 7.1217 60.9301
4771 1 46.6867 8.7043 62.5127
4772 1 45.1041 10.2869 0.7913
4773 1 46.6867 11.8695 2.3739
4774 1 45.1041 10.2869 3.9565
4775 1 46.6867 11.8695 5.5391
4776 1 45.1041 10.2869 7.1217
4777 1 46.6867 11.8695 8.7043
4778 1 45.1041 10.2869 10.2869
4779 1 46.6867 11.8695 11.8695
4780 1 45.1041 10.2869 13.4521
4781 1 46.6867 11.8695 15.0347
4782 1 45.1041 10.2869 16.6173
4783 1 46.6867 11.8695 18.1999
4784 1 45.1041 10.2869 19.7825
4785 1 46.6867 11.8695 21.3651
4786 1 45.1041 10.2869 22.9477
4787 1 46.6867 11.8695 24.5303
4788 1 45.1041 10.2869 26.1129
4789 1 46.6867 11.8695 27.6955
4790 1 45.1041 10.2869 29.2781
4791 1 46.6867 11.8695 30.8607
4792 1 45.1041 10.2869 32.4433
4793 1 46.6867 11.8695 34.0259
4794 1 45.1041 10.2869 35.6085
4795 1 46.6867 11.8695 37.1911
4796 1 45.1041 10.2869 38.7737
4797 1 46.6867 11.8695 40.3563
4798 1 45.1041 10.2869 41.9389
4799 1 46.6867 11.8695 43.5215
4800 1 45.1041 10.2869 45.1041
4801 1 46.6867 11.8695 46.6867
4802 1 45.1041 10.2869 48.2693
4803 1 46.6867 11.8695 49.8519
4804 1 45.1041 10.2869 51.4345
4805 1 46.6867 11.8695 53.0171
4806 1 45.1041 10.2869 54.5997
4807 1 46.6867 11.8695 56.1823
4808 1 45.1041 10.2869 57.7649
4809 1 46.6867 11.8695 59.3475
4810 1 45.1041 10.2869 60.9301
4811 1 46.6867 11.8695 62.5127
4812 1 45.1041 13.4521 0.7913
4813 1 46.6867 15.0347 2.3739
4814 1 45.1041 13.4521 3.9565
4815 1 46.6867 15.0347 5.5391
4816 1 45.1041 13.4521 7.1217
4817 1 46.6867 15.0347 8.7043
4818 1 45.1041 13.4521 10.2869
4819 1 46.6867 15.0347 11.8695
4820 1 45.1041 13.4521 13.4521
4821 1 46.6867 15.0347 15.0347
4822 1 45.1041 13.4521 16.6173
4823 1 46.6867 15.0347 18.1999
4824 1 45.1041 13.4521 19.7825
4825 1 46.6867 15.0347 21.3651
4826 1 45.1041 13.4521 22.9477
4827 1 46.6867 15.0347 24.5303
4828 1 45.1041 13.4521 26.1129
4829 1 46.6867 15.0347 27.6955
4830 1 45.1041 13.4521 29.2781
4831 1 46.6867 15.0347 30.8607
4832 1 45.1041 13.4521 32.4433
4833 1 46.6867 15.0347 34.0259
4834 1 45.1041 13.4521 35.6085
4835 1 46.6867 15.0347 37.1911
4836 1 45.1041 13.4521 38.7737
4837 1 46.6867 15.0347 40.3563
4838 1 45.1041 13.4521 41.9389
4839 1 46.6867 15.0347 43.5215
4840 1 45.1041 13.4521 45.1041
4841 1 46.6867 15.0347 46.6867
4842 1 45.1041 13.4521 48.2693
4843 1 46.6867 15.0347 49.8519
4844 1 45.1041 13.4521 51.4345
4845 1 46.6867 15.0347 53.0171
4846 1 45.1041 13.4521 54.5997
4847 1 46.6867 15.0347 56.1823
4848 1 45.1041 13.4521 57.7649
4849 1 46.6867 15.0347 59.3475
4850 1 45.1041 13.4521 60.9301
4851 1 46.6867 15.0347 62.5127
4852 1 45.1041 16.6173 0.7913
4853 1 46.6867 18.1999 2.3739
4854 1 45.1041 16.6173 3.9565
4855 1 46.6867 18.1999 5.5391
4856 1 45.1041 16.6173 7.1217
4857 1 46.6867 18.1999 8.7043
4858 1 45.1041 16.6173 10.2869
4859 1 46.6867 18.1999 11.8695
4860 1 45.1041 16.6173 13.4521
4861 1 46.6867 18.1999 15.0347
4862 1 45.1041 16.6173 16.6173
4863 1 46.6867 18.1999 18.1999
4864 1 45.1041 16.6173 19.7825
4865 1 46.6867 18.1999 21.3651
4866 1 45.1041 16.6173 22.9477
4867 1 46.6867 18.1999 24.5303
4868 1 45.1041 16.6173 26.1129
4869 1 46.6867 18.1999 27.6955
4870 1 45.1041 16.6173 29.2781
4871 1 46.6867 18.1999 30.8607
4872 1 45.1041 16.6173 32.4433
4873 1 46.6867 18.1999 34.0259
4874 1 45.1041 16.6173 35.6085
4875 1 46.6867 18.1999 37.1911
4876 1 45.1041 16.6173 38.7737
4877 1 46.6867 18.1999 40.3563
4878 1 45.1041 16.6173 41.9389
4879 1 46.6867 18.1999 43.5215
4880 1 45.1041 16.6173 45.1041
4881 1 46.6867 18.1999 46.6867
4882 1 45.1041 16.6173 48.2693
4883 1 46.6867 18.1999 49.8519
4884 1 45.1041 16.6173 51.4345
4885 1 46.6867 18.1999 53.0171
4886 1 45.1041 16.6173 54.5997
4887 1 46.6867 18.1999 56.1823
4888 1 45.1041 16.6173 57.7649
4889 1 46.6867 18.1999 59.3475
4890 1 45.1041 16.6173 60.9301
4891 1 46.6867 18.1999 62.5127
4892 1 45.1041 19.7825 0.7913
4893 1 46.6867 21.3651 2.3739
4894 1 45.1041 19.7825 3.9565
4895 1 46.6867 21.3651 5.5391
4896 1 45.1041 19.7825 7.1217
4897 1 46.6867 21.3651 8.7043
4898 1 45.1041 19.7825 10.2869
4899 1 46.6867 21.3651 11.8695
4900 1 45.1041 19.7825 13.4521
4901 1 46.6867 21.3651 15.0347
4902 1 45.1041 19.7825 16.6173
4903 1 46.6867 21.3651 18.1999
4904 1 45.1041 19.7825 19.7825
4905 1 46.6867 21.3651 21.3651
4906 1 45.1041 19.7825 22.9477
4907 1 46.6867 21.3651 24.5303
4908 1 45.1041 19.7825 26.1129
4909 1 46.6867 21.3651 27.6955
4910 1 45.1041 19.7825 29.2781
4911 1 46.6867 21.3651 30.8607
4912 1 45.1041 19.7825 32.4433
4913 1 46.6867 21.3651 34.0259
4914 1 45.1041 19.7825 35.6085
4915 1 46.6867 21.3651 37.1911
4916 1 45.1041 19.7825 38.7737
4917 1 46.6867 21.3651 40.3563
4918 1 45.1041 19.7825 41.9389
4919 1 46.6867 21.3651 43.5215
4920 1 45.1041 19.7825 45.1041
4921 1 46.6867 21.3651 46.6867
4922 1 45.1041 19.7825 48.2693
4923 1 46.6867 21.3651 49.8519
4924 1 45.1041 19.7825 51.4345
4925 1 46.6867 21.3651 53.0171
4926 1 45.1041 19.7825 54.5997
4927 1 46.6867 21.3651 56.1823
4928 1 45.1041 19.7825 57.7649
4929 1 46.6867 21.3651 59.3475
4930 1 45.1041 19.7825 60.9301
4931 1 46.6867 21.3651 62.5127
4932 1 45.1041 22.9477 0.7913
4933 1 46.6867 24.5303 2.3739
4934 1 45.1041 22.9477 3.9565
4935 1 46.6867 24.5303 5.5391
4936 1 45.1041 22.9477 7.1217
4937 1 46.6867 24.5303 8.7043
4938 1 45.1041 22.9477 10.2869
4939 1 46.6867 24.5303 11.8695
4940 1 45.1041 22.9477 13.4521
4941 1 46.6867 24.5303 15.0347
4942 1 45.1041 22.9477 16.6173
4943 1 46.6867 24.5303 18.1999
4944 1 45.1041 22.9477 19.7825
4945 1 46.6867 24.5303 21.3651
4946 1 45.1041 22.9477 22.9477
4947 1 46.6867 24.5303 24.5303
4948 1 45.1041 22.9477 26.1129
4949 1 46.6867 24.5303 27.6955
4950 1 45.1041 22.9477 29.2781
4951 1 46.6867 24.5303 30.8607
4952 1 45.1041 22.9477 32.4433
4953 1 46.6867 24.5303 34.0259
4954 1 45.1041 22.9477 35.6085
4955 1 46.6867 24.5303 37.1911
4956 1 45.1041 22.9477 38.7737
4957 1 46.6867 24.5303 40.3563
4958 1 45.1041 22.9477 41.9389
4959 1 46.6867 24.5303 43.5215
4960 1 45.1041 22.9477 45.1041
4961 1 46.6867 24.5303 46.6867
4962 1 45.1041 22.9477 48.2693
4963 1 46.6867 24.5303 49.8519
4964 1 45.1041 22.9477 51.4345
4965 1 46.6867 24.5303 53.0171
4966 1 45.1041 22.9477 54.5997
4967 1 46.6867 24.5303 56.1823
4968 1 45.1041 22.9477 57.7649
4969 1 46.6867 24.5303 59.3475
4970 1 45.1041 22.9477 60.9301
4971 1 46.6867 24.5303 62.5127
4972 1 45.1041 26.1129 0.7913
4973 1 46.6867 27.6955 2.3739
4974 1 45.1041 26.1129 3.9565
4975 1 46.6867 27.6955 5.5391
4976 1 45.1041 26.1129 7.1217
4977 1 46.6867 27.6955 8.7043
4978 1 45.1041 26.1129 10.2869
4979 1 46.6867 27.6955 11.8695
4980 1 45.1041 26.1129 13.4521
4981 1 46.6867 27.6955 15.0347
4982 1 45.1041 26.1129 16.6173
4983 1 46.6867 27.6955 18.1999
4984 1 45.1041 26.1129 19.7825
4985 1 46.6867 27.6955 21.3651
4986 1 45.1041 26.1129 22.9477
4987 1 46.6867 27.6955 24.5303
4988 1 45.1041 26.1129 26.1129
4989 1 46.6867 27.6955 27.6955
4990 1 45.1041 26.1129 29.2781
4991 1 46.6867 27.6955 30.8607
4992 1 45.1041 26.1129 32.4433
4993 1 46.6867 27.6955 34.0259
4994 1 45.1041 26.1129 35.6085
4995 1 46.6867 27.6955 37.1911
4996 1 45.1041 26.1129 38.7737
4997 1 46.6867 27.6955 40.3563
4998 1 45.1041 26.1129 41.9389
4999 1 46.6867 27.6955 43.5215
5000 1 45.1041 26.1129 45.1041
5001 1 46.6867 27.6955 46.6867
5002 1 45.1041 26.1129 48.2693
5003 1 46.6867 27.6955 49.8519
5004 1 45.1041 26.1129 51.4345
5005 1 46.6867 27.6955 53.0171
5006 1 45.1041 26.1129 54.5997
5007 1 46.6867 27.6955 56.1823
5008 1 45.1041 26.1129 57.7649
5009 1 46.6867 27.6955 59.3475
5010 1 45.1041 26.1129 60.9301
5011 1 46.6867 27.6955 62.5127
5012 1 45.1041 29.2781 0.7913
5013 1 46.6867 30.8607 2.3739
5014 1 45.1041 29.2781 3.9565
5015 1 46.6867 30.8607 5.5391
5016 1 45.1041 29.2781 7.1217
5017 1 46.6867 30.8607 8.7043
5018 1 45.1041 29.2781 10.2869
5019 1 46.6867 30.8607 11.8695
5020 1 45.1041 29.2781 13.4521
5021 1 46.6867 30.8607 15.0347
5022 1 45.1041 29.2781 16.6173
5023 1 46.6867 30.8607 18.1999
5024 1 45.1041 29.2781 19.7825
5025 1 46.6867 30.8607 21.3651
5026 1 45.1041 29.2781 22.9477
5027 1 46.6867 30.8607 24.5303
5028 1 45.1041 29.2781 26.1129
5029 1 46.6867 30.8607 27.6955
5030 1 45.1041 29.2781 29.2781
5031 1 46.6867 30.8607 30.8607
5032 1 45.1041 29.2781 32.4433
5033 1 46.6867 30.8607 34.0259
5034 1 45.1041 29.2781 35.6085
5035 1 46.6867 30.8607 37.1911
5036 1 45.1041 29.2781 38.7737
5037 1 46.6867 30.8607 40.3563
5038 1 45.1041 29.2781 41.9389
5039 1 46.6867 30.8607 43.5215
5040 1 45.1041 29.2781 45.1041
5041 1 46.6867 30.8607 46.6867
5042 1 45.1041 29.2781 48.2693
5043 1 46.6867 30.8607 49.8519
5044 1 45.1041 29.2781 51.4345
5045 1 46.6867 30.8607 53.0171
5046 1 45.1041 29.2781 54.5997
5047 1 46.6867 30.8607 56.1823
5048 1 45.1041 29.2781 57.7649
5049 1 46.6867 30.8607 59.3475
5050 1 45.1041 29.2781 60.9301
5051 1 46.6867 30.8607 62.5127
5052 1 45.1041 32.4433 0.7913
5053 1 46.6867 34.0259 2.3739
5054 1 45.1041 32.4433 3.9565
5055 1 46.6867 34.0259 5.5391
5056 1 45.1041 32.4433 7.1217
5057 1 46.6867 34.0259 8.7043
5058 1 45.1041 32.4433 10.2869
5059 1 46.6867 34.0259 11.8695
5060 1 45.1041 32.4433 13.4521
5061 1 46.6867 34.0259 15.0347
5062 1 45.1041 32.4433 16.6173
5063 1 46.6867 34.0259 18.1999
5064 1 45.1041 32.4433 19.7825
5065 1 46.6867 34.0259 21.3651
5066 1 45.1041 32.4433 22.9477
5067 1 46.6867 34.0259 24.5303
5068 1 45.1041 32.4433 26.1129
5069 1 46.6867 34.0259 27.6955
5070 1 45.1041 32.4433 29.2781
5071 1 46.6867 34.0259 30.8607
5072 1 45.1041 32.4433 32.4433
5073 1 46.6867 34.0259 34.0259
5074 1 45.1041 32.4433 35.6085
5075 1 46.6867 34.0259 37.1911
5076 1 45.1041 32.4433 38.7737
5077 1 46.6867 34.0259 40.3563
5078 1 45.1041 32.4433 41.9389
5079 1 46.6867 34.0259 43.5215
5080 1 45.1041 32.4433 45.1041
5081 1 46.6867 34.0259 46.6867
5082 1 45.1041 32.4433 48.2693
5083 1 46.6867 34.0259 49.8519
5084 1 45.1041 32.4433 51.4345
5085 1 46.6867 34.0259 53.0171
5086 1 45.1041 32.4433 54.5997
5087 1 46.6867 34.0259 56.1823
5088 1 45.1041 32.4433 57.7649
5089 1 46.6867 34.0259 59.3475
5090 1 45.1041 32.4433 60.9301
5091 1 46.6867 34.0259 62.5127
5092 1 45.1041 35.6085 0.7913
5093 1 46.6867 37.1911 2.3739
5094 1 45.1041 35.6085 3.9565
5095 1 46.6867 37.1911 5.5391
5096 1 45.1041 35.6085 7.1217
5097 1 46.6867 37.1911 8.7043
5098 1 45.1041 35.6085 10.2869
5099 1 46.6867 37.1911 11.8695
5100 1 45.1041 35.6085 13.4521
5101 1 46.6867 37.1911 15.0347
5102 1 45.1041 35.6085 16.6173
5103 1 46.6867 37.1911 18.1999
5104 1 45.1041 35.6085 19.7825
5105 1 46.6867 37.1911 21.3651
5106 1 45.1041 35.6085 22.9477
5107 1 46.6867 37.1911 24.5303
5108 1 45.1041 35.6085 26.1129
5109 1 46.6867 37.1911 27.6955
5110 1 45.1041 35.6085 29.2781
5111 1 46.6867 37.1911 30.8607
5112 1 45.1041 35.6085 32.4433
5113 1 46.6867 37.1911 34.0259
5114 1 45.1041 35.6085 35.6085
5115 1 46.6867 37.1911 37.1911
5116 1 45.1041 35.6085 38.7737
5117 1 46.6867 37.1911 40.3563
5118 1 45.1041 35.6085 41.9389
5119 1 46.6867 37.1911 43.5215
5120 1 45.1041 35.6085 45.1041
5121 1 46.6867 37.1911 46.6867
5122 1 45.1041 35.6085 48.2693
5123 1 46.6867 37.1911 49.8519
5124 1 45.1041 35.6085 51.4345
5125 1 46.6867 37.1911 53.0171
5126 1 45.1041 35.6085 54.5997
5127 1 46.6867 37.1911 56.1823
5128 1 45.1041 35.6085 57.7649
5129 1 46.6867 37.1911 59.3475
5130 1 45.1041 35.6085 60.9301
5131 1 46.6867 37.1911 62.5127
5132 1 45.1041 38.7737 0.7913
5133 1 46.6867 40.3563 2.3739
5134 1 45.1041 38.7737 3.9565
5135 1 46.6867 40.3563 5.5391
5136 1 45.1041 38.7737 7.1217
5137 1 46.6867 40.3563 8.7043
5138 1 45.1041 38.7737 10.2869
5139 1 46.6867 40.3563 11.8695
5140 1 45.1041 38.7737 13.4521
5141 1 46.6867 40.3563 15.0347
5142 1 45.1041 38.7737 16.6173
5143 1 46.6867 40.3563 18.1999
5144 1 45.1041 38.7737 19.7825
5145 1 46.6867 40.3563 21.3651
5146 1 45.1041 38.7737 22.9477
5147 1 46.6867 40.3563 24.5303
5148 1 45.1041 38.7737 26.1129
5149 1 46.6867 40.3563 27.6955
5150 1 45.1041 38.7737 29.2781
5151 1 46.6867 40.3563 30.8607
5152 1 45.1041 38.7737 32.4433
5153 1 46.6867 40.3563 34.0259
5154 1 45.1041 38.7737 35.6085
5155 1 46.6867 40.3563 37.1911
5156 1 45.1041 38.7737 38.7737
5157 1 46.6867 40.3563 40.3563
5158 1 45.1041 38.7737 41.9389
5159 1 46.6867 40.3563 43.5215
5160 1 45.1041 38.7737 45.1041
5161 1 46.6867 40.3563 46.6867
5162 1 45.1041 38.7737 48.2693
5163 1 46.6867 40.3563 49.8519
5164 1 45.1041 38.7737 51.4345
5165 1 46.6867 40.3563 53.0171
5166 1 45.1041 38.7737 54.5997
5167 1 46.6867 40.3563 56.1823
5168 1 45.1041 38.7737 57.7649
5169 1 46.6867 40.3563 59.3475
5170 1 45.1041 38.7737 60.9301
5171 1 46.6867 40.3563 62.5127
5172 1 45.1041 41.9389 0.7913
5173 1 46.6867 43.5215 2.3739
5174 1 45.1041 41.9389 3.9565
5175 1 46.6867 43.5215 5.5391
5176 1 45.1041 41.9389 7.1217
5177 1 46.6867 43.5215 8.7043
5178 1 45.1041 41.9389 10.2869
5179 1 46.6867 43.5215 11.8695
5180 1 45.1041 41.9389 13.4521
5181 1 46.6867 43.5215 15.0347
5182 1 45.1041 41.9389 16.6173
5183 1 46.6867 43.5215 18.1999
5184 1 45.1041 41.9389 19.7825
5185 1 46.6867 43.5215 21.3651
5186 1 45.1041 41.9389 22.9477
5187 1 46.6867 43.5215 24.5303
5188 1 45.1041 41.9389 26.1129
5189 1 46.6867 43.5215 27.6955
5190 1 45.1041 41.9389 29.2781
5191 1 46.6867 43.5215 30.8607
5192 1 45.1041 41.9389 32.4433
5193 1 46.6867 43.5215 34.0259
5194 1 45.1041 41.9389 35.6085
5195 1 46.6867 43.5215 37.1911
5196 1 45.1041 41.9389 38.7737
5197 1 46.6867 43.5215 40.3563
5198 1 45.1041 41.9389 41.9389
5199 1 46.6867 43.5215 43.5215
5200 1 45.1041 41.9389 45.1041
5201 1 46.6867 43.5215 46.6867
5202 1 45.1041 41.9389 48.2693
5203 1 46.6867 43.5215 49.8519
5204 1 45.1041 41.9389 51.4345
5205 1 46.6867 43.5215 53.0171
5206 1 45.1041 41.9389 54.5997
5207 1 46.6867 43.5215 56.1823
5208 1 45.1041 41.9389 57.7649
5209 1 46.6867 43.5215 59.3475
5210 1 45.1041 41.9389 60.9301
5211 1 46.6867 43.5215 62.5127
5212 1 45.1041 45.1041 0.7913
5213 1 46.6867 46.6867 2.3739
5214 1 45.1041 45.1041 3.9565
5215 1 46.6867 46.6867 5.5391
5216 1 45.1041 45.1041 7.1217
5217 1 46.6867 46.6867 8.7043
5218 1 45.1041 45.1041 10.2869
5219 1 46.6867 46.6867 11.8695
5220 1 45.1041 45.1041 13.4521
5221 1 46.6867 46.6867 15.0347
5222 1 45.1041 45.1041 16.6173
5223 1 46.6867 46.6867 18.1999
5224 1 45.1041 45.1041 19.7825
5225 1 46.6867 46.6867 21.3651
5226 1 45.1041 45.1041 22.9477
5227 1 46.6867 46.6867 24.5303
5228 1 45.1041 45.1041 26.1129
5229 1 46.6867 46.6867 27.6955
5230 1 45.1041 45.1041 29.2781
5231 1 46.6867 46.6867 30.8607
5232 1 45.1041 45.1041 32.4433
5233 1 46.6867 46.6867 34.0259
5234 1 45.1041 45.1041 35.6085
5235 1 46.6867 46.6867 37.1911
5236 1 45.1041 45.1041 38.7737
5237 1 46.6867 46.6867 40.3563
5238 1 45.1041 45.1041 41.9389
5239 1 46.6867 46.6867 43.5215
5240 1 45.1041 45.1041 45.1041
5241 1 46.6867 46.6867 46.6867
5242 1 45.1041 45.1041 48.2693
5243 1 46.6867 46.6867 49.8519
5244 1 45.1041 45.1041 51.4345
5245 1 46.6867 46.6867 53.0171
5246 1 45.1041 45.1041 54.5997
5247 1 46.6867 46.6867 56.1823
5248 1 45.1041 45.1041 57.7649
5249 1 46.6867 46.6867 59.3475
5250 1 45.1041 45.1041 60.9301
5251 1 46.6867 46.6867 62.5127
5252 1 45.1041 48.2693 0.7913
5253 1 46.6867 49.8519 2.3739
5254 1 45.1041 48.2693 3.9565
5255 1 46.6867 49.8519 5.5391
5256 1 45.1041 48.2693 7.1217
5257 1 46.6867 49.8519 8.7043
5258 1 45.1041 48.2693 10.2869
5259 1 46.6867 49.8519 11.8695
5260 1 45.1041 48.2693 13.4521
5261 1 46.6867 49.8519 15.0347
5262 1 45.1041 48.2693 16.6173
5263 1 46.6867 49.8519 18.1999
5264 1 45.1041 48.2693 19.7825
5265 1 46.6867 49.8519 21.3651
5266 1 45.1041 48.2693 22.9477
5267 1 46.6867 49.8519 24.5303
5268 1 45.1041 48.2693 26.1129
5269 1 46.6867 49.8519 27.6955
5270 1 45.1041 48.2693 29.2781
5271 1 46.6867 49.8519 30.8607
5272 1 45.1041 48.2693 32.4433
5273 1 46.6867 49.8519 34.0259
5274 1 45.1041 48.2693 35.6085
5275 1 46.6867 49.8519 37.1911
5276 1 45.1041 48.2693 38.7737
5277 1 46.6867 49.8519 40.3563
5278 1 45.1041 48.2693 41.9389
5279 1 46.6867 49.8519 43.5215
5280 1 45.1041 48.2693 45.1041
5281 1 46.6867 49.8519 46.6867
5282 1 45.1041 48.2693 48.2693
5283 1 46.6867 49.8519 49.8519
5284 1 45.1041 48.2693 51.4345
5285 1 46.6867 49.8519 53.0171
5286 1 45.1041 48.2693 54.5997
5287 1 46.6867 49.8519 56.1823
5288 1 45.1041 48.2693 57.7649
5289 1 46.6867 49.8519 59.3475
5290 1 45.1041 48.2693 60.9301
5291 1 46.6867 49.8519 62.5127
5292 1 45.1041 51.4345 0.7913
5293 1 46.6867 53.0171 2.3739
5294 1 45.1041 51.4345 3.9565
5295 1 46.6867 53.0171 5.5391
5296 1 45.1041 51.4345 7.1217
5297 1 46.6867 53.0171 8.7043
5298 1 45.1041 51.4345 10.2869
5299 1 46.6867 53.0171 11.8695
5300 1 45.1041 51.4345 13.4521
5301 1 46.6867 53.0171 15.0347
5302 1 45.1041 51.4345 16.6173
5303 1 46.6867 53.0171 18.1999
5304 1 45.1041 51.4345 19.7825
5305 1 46.6867 53.0171 21.3651
5306 1 45.1041 51.4345 22.9477
5307 1 46.6867 53.0171 24.5303
5308 1 45.1041 51.4345 26.1129
5309 1 46.6867 53.0171 27.6955
5310 1 45.1041 51.4345 29.2781
5311 1 46.6867 53.0171 30.8607
5312 1 45.1041 51.4345 32.4433
5313 1 46.6867 53.0171 34.0259
5314 1 45.1041 51.4345 35.6085
5315 1 46.6867 53.0171 37.1911
5316 1 45.1041 51.4345 38.7737
5317 1 46.6867 53.0171 40.3563
5318 1 45.1041 51.4345 41.9389
5319 1 46.6867 53.0171 43.5215
5320 1 45.1041 51.4345 45.1041
5321 1 46.6867 53.0171 46.6867
5322 1 45.1041 51.4345 48.2693
5323 1 46.6867 53.0171 49.8519
5324 1 45.1041 51.4345 51.4345
5325 1 46.6867 53.0171 53.0171
5326 1 45.1041 51.4345 54.5997
5327 1 46.6867 53.0171 56.1823
5328 1 45.1041 51.4345 57.7649
5329 1 46.6867 53.0171 59.3475
5330 1 45.1041 51.4345 60.9301
5331 1 46.6867 53.0171 62.5127
5332 1 45.1041 54.5997 0.7913
5333 1 46.6867 56.1823 2.3739
5334 1 45.1041 54.5997 3.9565
5335 1 46.6867 56.1823 5.5391
5336 1 45.1041 54.5997 7.1217
5337 1 46.6867 56.1823 8.7043
5338 1 45.1041 54.5997 10.2869
5339 1 46.6867 56.1823 11.8695
5340 1 45.1041 54.5997 13.4521
5341 1 46.6867 56.1823 15.0347
5342 1 45.1041 54.5997 16.6173
5343 1 46.6867 56.1823 18.1999
5344 1 45.1041 54.5997 19.7825
5345 1 46.6867 56.1823 21.3651
5346 1 45.1041 54.5997 22.9477
5347 1 46.6867 56.1823 24.5303
5348 1 45.1041 54.5997 26.1129
5349 1 46.6867 56.1823 27.6955
5350 1 45.1041 54.5997 29.2781
5351 1 46.6867 56.1823 30.8607
5352 1 45.1041 54.5997 32.4433
5353 1 46.6867 56.1823 34.0259
5354 1 45.1041 54.5997 35.6085
5355 1 46.6867 56.1823 37.1911
5356 1 45.1041 54.5997 38.7737
5357 1 46.6867 56.1823 40.3563
5358 1 45.1041 54.5997 41.9389
5359 1 46.6867 56.1823 43.5215
5360 1 45.1041 54.5997 45.1041
5361 1 46.6867 56.1823 46.6867
5362 1 45.1041 54.5997 48.2693
5363 1 46.6867 56.1823 49.8519
5364 1 45.1041 54.5997 51.4345
5365 1 46.6867 56.1823 53.0171
5366 1 45.1041 54.5997 54.5997
5367 1 46.6867 56.1823 56.1823
5368 1 45.1041 54.5997 57.7649
5369 1 46.6867 56.1823 59.3475
5370 1 45.1041 54.5997 60.9301
5371 1 46.6867 56.1823 62.5127
5372 1 45.1041 57.7649 0.7913
5373 1 46.6867 59.3475 2.3739
5374 1 45.1041 57.7649 3.9565
5375 1 46.6867 59.3475 5.5391
5376 1 45.1041 57.7649 7.1217
5377 1 46.6867 59.3475 8.7043
5378 1 45.1041 57.7649 10.2869
5379 1 46.6867 59.3475 11.8695
5380 1 45.1041 57.7649 13.4521
5381 1 46.6867 59.3475 15.0347
5382 1 45.1041 57.7649 16.6173
5383 1 46.6867 59.3475 18.1999
5384 1 45.1041 57.7649 19.7825
5385 1 46.6867 59.3475 21.3651
5386 1 45.1041 57.7649 22.9477
5387 1 46.6867 59.3475 24.5303
5388 1 45.1041 57.7649 26.1129
5389 1 46.6867 59.3475 27.6955
5390 1 45.1041 57.7649 29.2781
5391 1 46.6867 59.3475 30.8607
5392 1 45.1041 57.7649 32.4433
5393 1 46.6867 59.3475 34.0259
5394 1 45.1041 57.7649 35.6085
5395 1 46.6867 59.3475 37.1911
5396 1 45.1041 57.7649 38.7737
5397 1 46.6867 59.3475 40.3563
5398 1 45.1041 57.7649 41.9389
5399 1 46.6867 59.3475 43.5215
5400 1 45.1041 57.7649 45.1041
5401 1 46.6867 59.3475 46.6867
5402 1 45.1041 57.7649 48.2693
5403 1 46.6867 59.3475 49.8519
5404 1 45.1041 57.7649 51.4345
5405 1 46.6867 59.3475 53.0171
5406 1 45.1041 57.7649 54.5997
5407 1 46.6867 59.3475 56.1823
5408 1 45.1041 57.7649 57.7649
5409 1 46.6867 59.3475 59.3475
5410 1 45.1041 57.7649 60.9301
5411 1 46.6867 59.3475 62.5127
5412 1 45.1041 60.9301 0.7913
5413 1 46.6867 62.5127 2.3739
5414 1 45.1041 60.9301 3.9565
5415 1 46.6867 62.5127 5.5391
5416 1 45.1041 60.9301 7.1217
5417 1 46.6867 62.5127 8.7043
5418 1 45.1041 60.9301 10.2869
5419 1 46.6867 62.5127 11.8695
5420 1 45.1041 60.9301 13.4521
5421 1 46.6867 62.5127 15.0347
5422 1 45.1041 60.9301 16.6173
5423 1 46.6867 62.5127 18.1999
5424 1 45.1041 60.9301 19.7825
5425 1 46.6867 62.5127 21.3651
5426 1 45.1041 60.9301 22.9477
5427 1 46.6867 62.5127 24.5303
5428 1 45.1041 60.9301 26.1129
5429 1 46.6867 62.5127 27.6955
5430 1 45.1041 60.9301 29.2781
5431 1 46.6867 62.5127 30.8607
5432 1 45.1041 60.9301 32.4433
5433 1 46.6867 62.5127 34.0259
5434 1 45.1041 60.9301 35.6085
5435 1 46.6867 62.5127 37.1911
5436 1 45.1041 60.9301 38.7737
5437 1 46.6867 62.5127 40.3563
5438 1 45.1041 60.9301 41.9389
5439 1 46.6867 62.5127 43.5215
5440 1 45.1041 60.9301 45.1041
5441 1 46.6867 62.5127 46.6867
5442 1 45.1041 60.9301 48.2693
5443 1 46.6867 62.5127 49.8519
5444 1 45.1041 60.9301 51.4345
5445 1 46.6867 62.5127 53.0171
5446 1 45.1041 60.9301 54.5997
5447 1 46.6867 62.5127 56.1823
5448 1 45.1041 60.9301 57.7649
5449 1 46.6867 62.5127 59.3475
5450 1 45.1041 60.9301 60.9301
5451 1 46.6867 62.5127 62.5127
5452 1 48.2693 0.7913 0.7913
5453 1 49.8519 2.3739 2.3739
5454 1 48.2693 0.7913 3.9565
5455 1 49.8519 2.3739 5.5391
5456 1 48.2693 0.7913 7.1217
5457 1 49.8519 2.3739 8.7043
5458 1 48.2693 0.7913 10.2869
5459 1 49.8519 2.3739 11.8695
5460 1 48.2693 0.7913 13.4521
5461 1 49.8519 2.3739 15.0347
5462 1 48.2693 0.7913 16.6173
5463 1 49.8519 2.3739 18.1999
5464 1 48.2693 0.7913 19.7825
5465 1 49.8519 2.3739 21.3651
5466 1 48.2693 0.7913 22.9477
5467 1 49.8519 2.3739 24.5303
5468 1 48.2693 0.7913 26.1129
5469 1 49.8519 2.3739 27.6955
5470 1 48.2693 0.7913 29.2781
5471 1 49.8519 2.3739 30.8607
5472 1 48.2693 0.7913 32.4433
5473 1 49.8519 2.3739 34.0259
5474 1 48.2693 0.7913 35.6085
5475 1 49.8519 2.3739 37.1911
5476 1 48.2693 0.7913 38.7737
5477 1 49.8519 2.3739 40.3563
5478 1 48.2693 0.7913 41.9389
5479 1 49.8519 2.3739 43.5215
5480 1 48.2693 0.7913 45.1041
5481 1 49.8519 2.3739 46.6867
5482 1 48.2693 0.7913 48.2693
5483 1 49.8519 2.3739 49.8519
5484 1 48.2693 0.7913 51.4345
5485 1 49.8519 2.3739 53.0171
5486 1 48.2693 0.7913 54.5997
5487 1 49.8519 2.3739 56.1823
5488 1 48.2693 0.7913 57.7649
5489 1 49.8519 2.3739 59.3475
5490 1 48.2693 0.7913 60.9301
5491 1 49.8519 2.3739 62.5127
5492 1 48.2693 3.9565 0.7913
5493 1 49.8519 5.5391 2.3739
5494 1 48.2693 3.9565 3.9565
5495 1 49.8519 5.5391 5.5391
5496 1 48.2693 3.9565 7.1217
5497 1 49.8519 5.5391 8.7043
5498 1 48.2693 3.9565 10.2869
5499 1 49.8519 5.5391 11.8695
5500 1 48.2693 3.9565 13.4521
5501 1 49.8519 5.5391 15.0347
5502 1 48.2693 3.9565 16.6173
5503 1 49.8519 5.5391 18.1999
5504 1 48.2693 3.9565 19.7825
5505 1 49.8519 5.5391 21.3651
5506 1 48.2693 3.9565 22.9477
5507 1 49.8519 5.5391 24.5303
5508 1 48.2693 3.9565 26.1129
5509 1 49.8519 5.5391 27.6955
5510 1 48.2693 3.9565 29.2781
5511 1 49.8519 5.5391 30.8607
5512 1 48.2693 3.9565 32.4433
5513 1 49.8519 5.5391 34.0259
5514 1 48.2693 3.9565 35.6085
5515 1 49.8519 5.5391 37.1911
5516 1 48.2693 3.9565 38.7737
5517 1 49.8519 5.5391 40.3563
5518 1 48.2693 3.9565 41.9389
5519 1 49.8519 5.5391 43.5215
5520 1 48.2693 3.9565 45.1041
5521 1 49.8519 5.5391 46.6867
5522 1 48.2693 3.9565 48.2693
5523 1 49.8519 5.5391 49.8519
5524 1 48.2693 3.9565 51.4345
5525 1 49.8519 5.5391 53.0171
5526 1 48.2693 3.9565 54.5997
5527 1 49.8519 5.5391 56.1823
5528 1 48.2693 3.9565 57.7649
5529 1 49.8519 5.5391 59.3475
5530 1 48.2693 3.9565 60.9301
5531 1 49.8519 5.5391 62.5127
5532 1 48.2693 7.1217 0.7913
5533 1 49.8519 8.7043 2.3739
5534 1 48.2693 7.1217 3.9565
5535 1 49.8519 8.7043 5.5391
5536 1 48.2693 7.1217 7.1217
5537 1 49.8519 8.7043 8.7043
5538 1 48.2693 7.1217 10.2869
5539 1 49.8519 8.7043 11.8695
5540 1 48.2693 7.1217 13.4521
5541 1 49.8519 8.7043 15.0347
5542 1 48.2693 7.1217 16.6173
5543 1 49.8519 8.7043 18.1999
5544 1 48.2693 7.1217 19.7825
5545 1 49.8519 8.7043 21.3651
5546 1 48.2693 7.1217 22.9477
5547 1 49.8519 8.7043 24.5303
5548 1 48.2693 7.1217 26.1129
5549 1 49.8519 8.7043 27.6955
5550 1 48.2693 7.1217 29.2781
5551 1 49.8519 8.7043 30.8607
5552 1 48.2693 7.1217 32.4433
5553 1 49.8519 8.7043 34.0259
5554 1 48.2693 7.1217 35.6085
5555 1 49.8519 8.7043 37.1911
5556 1 48.2693 7.1217 38.7737
5557 1 49.8519 8.7043 40.3563
5558 1 48.2693 7.1217 41.9389
5559 1 49.8519 8.7043 43.5215
5560 1 48.2693 7.1217 45.1041
5561 1 49.8519 8.7043 46.6867
5562 1 48.2693 7.1217 48.2693
5563 1 49.8519 8.7043 49.8519
5564 1 48.2693 7.1217 51.4345
5565 1 49.8519 8.7043 53.0171
5566 1 48.2693 7.1217 54.5997
5567 1 49.8519 8.7043 56.1823
5568 1 48.2693 7.1217 57.7649
5569 1 49.8519 8.7043 59.3475
5570 1 48.2693 7.1217 60.9301
5571 1 49.8519 8.7043 62.5127
5572 1 48.2693 10.2869 0.7913
5573 1 49.8519 11.8695 2.3739
5574 1 48.2693 10.2869 3.9565
5575 1 49.8519 11.8695 5.5391
5576 1 48.2693 10.2869 7.1217
5577 1 49.8519 11.8695 8.7043
5578 1 48.2693 10.2869 10.2869
5579 1 49.8519 11.8695 11.8695
5580 1 48.2693 10.2869 13.4521
5581 1 49.8519 11.8695 15.0347
5582 1 48.2693 10.2869 16.6173
5583 1 49.8519 11.8695 18.1999
5584 1 48.2693 10.2869 19.7825
5585 1 49.8519 11.8695 21.3651
5586 1 48.2693 10.2869 22.9477
5587 1 49.8519 11.8695 24.5303
5588 1 48.2693 10.2869 26.1129
5589 1 49.8519 11.8695 27.6955
5590 1 48.2693 10.2869 29.2781
5591 1 49.8519 11.8695 30.8607
5592 1 48.2693 10.2869 32.4433
5593 1 49.8519 11.8695 34.0259
5594 1 48.2693 10.2869 35.6085
5595 1 49.8519 11.8695 37.1911
5596 1 48.2693 10.2869 38.7737
5597 1 49.8519 11.8695 40.3563
5598 1 48.2693 10.2869 41.9389
5599 1 49.8519 11.8695 43.5215
5600 1 48.2693 10.2869 45.1041
5601 1 49.8519 11.8695 46.6867
5602 1 48.2693 10.2869 48.2693
5603 1 49.8519 11.8695 49.8519
5604 1 48.2693 10.2869 51.4345
5605 1 49.8519 11.8695 53.0171
5606 1 48.2693 10.2869 54.5997
5607 1 49.8519 11.8695 56.1823
5608 1 48.2693 10.2869 57.7649
5609 1 49.8519 11.8695 59.3475
5610 1 48.2693 10.2869 60.9301
5611 1 49.8519 11.8695 62.5127
5612 1 48.2693 13.4521 0.7913
5613 1 49.8519 15.0347 2.3739
5614 1 48.2693 13.4521 3.9565
5615 1 49.8519 15.0347 5.5391
5616 1 48.2693 13.4521 7.1217
5617 1 49.8519 15.0347 8.7043
5618 1 48.2693 13.4521 10.2869
5619 1 49.8519 15.0347 11.8695
5620 1 48.2693 13.4521 13.4521
5621 1 49.8519 15.0347 15.0347
5622 1 48.2693 13.4521 16.6173
5623 1 49.8519 15.0347 18.1999
5624 1 48.2693 13.4521 19.7825
5625 1 49.8519 15.0347 21.3651
5626 1 48.2693 13.4521 22.9477
5627 1 49.8519 15.0347 24.5303
5628 1 48.2693 13.4521 26.1129
5629 1 49.8519 15.0347 27.6955
5630 1 48.2693 13.4521 29.2781
5631 1 49.8519 15.0347 30.8607
5632 1 48.2693 13.4521 32.4433
5633 1 49.8519 15.0347 34.0259
5634 1 48.2693 13.4521 35.6085
5635 1 49.8519 15.0347 37.1911
5636 1 48.2693 13.4521 38.7737
5637 1 49.8519 15.0347 40.3563
5638 1 48.2693 13.4521 41.9389
5639 1 49.8519 15.0347 43.5215
5640 1 48.2693 13.4521 45.1041
5641 1 49.8519 15.0347 46.6867
5642 1 48.2693 13.4521 48.2693
5643 1 49.8519 15.0347 49.8519
5644 1 48.2693 13.4521 51.4345
5645 1 49.8519 15.0347 53.0171
5646 1 48.2693 13.4521 54.5997
5647 1 49.8519 15.0347 56.1823
5648 1 48.2693 13.4521 57.7649
5649 1 49.8519 15.0347 59.3475
5650 1 48.2693 13.4521 60.9301
5651 1 49.8519 15.0347 62.5127
5652 1 48.2693 16.6173 0.7913
5653 1 49.8519 18.1999 2.3739
5654 1 48.2693 16.6173 3.9565
5655 1 49.8519 18.1999 5.5391
5656 1 48.2693 16.6173 7.1217
5657 1 49.8519 18.1999 8.7043
5658 1 48.2693 16.6173 10.2869
5659 1 49.8519 18.1999 11.8695
5660 1 48.2693 16.6173 13.4521
5661 1 49.8519 18.1999 15.0347
5662 1 48.2693 16.6173 16.6173
5663 1 49.8519 18.1999 18.1999
5664 1 48.2693 16.6173 19.7825
5665 1 49.8519 18.1999 21.3651
5666 1 48.2693 16.6173 22.9477
5667 1 49.8519 18.1999 24.5303
5668 1 48.2693 16.6173 26.1129
5669 1 49.8519 18.1999 27.6955
5670 1 48.2693 16.6173 29.2781
5671 1 49.8519 18.1999 30.8607
5672 1 48.2693 16.6173 32.4433
5673 1 49.8519 18.1999 34.0259
5674 1 48.2693 16.6173 35.6085
5675 1 49.8519 18.1999 37.1911
5676 1 48.2693 16.6173 38.7737
5677 1 49.8519 18.1999 40.3563
5678 1 48.2693 16.6173 41.9389
5679 1 49.8519 18.1999 43.5215
5680 1 48.2693 16.6173 45.1041
5681 1 49.8519 18.1999 46.6867
5682 1 48.2693 16.6173 48.2693
5683 1 49.8519 18.1999 49.8519
5684 1 48.2693 16.6173 51.4345
5685 1 49.8519 18.1999 53.0171
5686 1 48.2693 16.6173 54.5997
5687 1 49.8519 18.1999 56.1823
5688 1 48.2693 16.6173 57.7649
5689 1 49.8519 18.1999 59.3475
5690 1 48.2693 16.6173 60.9301
5691 1 49.8519 18.1999 62.5127
5692 1 48.2693 19.7825 0.7913
5693 1 49.8519 21.3651 2.3739
5694 1 48.2693 19.7825 3.9565
5695 1 49.8519 21.3651 5.5391
5696 1 48.2693 19.7825 7.1217
5697 1 49.8519 21.3651 8.7043
5698 1 48.2693 19.7825 10.2869
5699 1 49.8519 21.3651 11.8695
5700 1 48.2693 19.7825 13.4521
5701 1 49.8519 21.3651 15.0347
5702 1 48.2693 19.7825 16.6173
5703 1 49.8519 21.3651 18.1999
5704 1 48.2693 19.7825 19.7825
5705 1 49.8519 21.3651 21.3651
5706 1 48.2693 19.7825 22.9477
5707 1 49.8519 21.3651 24.5303
5708 1 48.2693 19.7825 26.1129
5709 1 49.8519 21.3651 27.6955
5710 1 48.2693 19.7825 29.2781
5711 1 49.8519 21.3651 30.8607
5712 1 48.2693 19.7825 32.4433
5713 1 49.8519 21.3651 34.0259
5714 1 48.2693 19.7825 35.6085
5715 1 49.8519 21.3651 37.1911
5716 1 48.2693 19.7825 38.7737
5717 1 49.8519 21.3651 40.3563
5718 1 48.2693 19.7825 41.9389
5719 1 49.8519 21.3651 43.5215
5720 1 48.2693 19.7825 45.1041
5721 1 49.8519 21.3651 46.6867
5722 1 48.2693 19.7825 48.2693
5723 1 49.8519 21.3651 49.8519
5724 1 48.2693 19.7825 51.4345
5725 1 49.8519 21.3651 53.0171
5726 1 48.2693 19.7825 54.5997
5727 1 49.8519 21.3651 56.1823
5728 1 48.2693 19.7825 57.7649
5729 1 49.8519 21.3651 59.3475
5730 1 48.2693 19.7825 60.9301
5731 1 49.8519 21.3651 62.5127
5732 1 48.2693 22.9477 0.7913
5733 1 49.8519 24.5303 2.3739
5734 1 48.2693 22.9477 3.9565
5735 1 49.8519 24.5303 5.5391
5736 1 48.2693 22.9477 7.1217
5737 1 49.8519 24.5303 8.7043
5738 1 48.2693 22.9477 10.2869
5739 1 49.8519 24.5303 11.8695
5740 1 48.2693 22.9477 13.4521
5741 1 49.8519 24.5303 15.0347
5742 1 48.2693 22.9477 16.6173
5743 1 49.8519 24.5303 18.1999
5744 1 48.2693 22.9477 19.7825
5745 1 49.8519 24.5303 21.3651
5746 1 48.2693 22.9477 22.9477
5747 1 49.8519 24.5303 24.5303
5748 1 48.2693 22.9477 26.1129
5749 1 49.8519 24.5303 27.6955
5750 1 48.2693 22.9477 29.2781
5751 1 49.8519 24.5303 30.8607
5752 1 48.2693 22.9477 32.4433
5753 1 49.8519 24.5303 34.0259
5754 1 48.2693 22.9477 35.6085
5755 1 49.8519 24.5303 37.1911
5756 1 48.2693 22.9477 38.7737
5757 1 49.8519 24.5303 40.3563
5758 1 48.2693 22.9477 41.9389
5759 1 49.8519 24.5303 43.5215
5760 1 48.2693 22.9477 45.1041
5761 1 49.8519 24.5303 46.6867
5762 1 48.2693 22.9477 48.2693
5763 1 49.8519 24.5303 49.8519
5764 1 48.2693 22.9477 51.4345
5765 1 49.8519 24.5303 53.0171
5766 1 48.2693 22.9477 54.5997
5767 1 49.8519 24.5303 56.1823
5768 1 48.2693 22.9477 57.7649
5769 1 49.8519 24.5303 59.3475
5770 1 48.2693 22.9477 60.9301
5771 1 49.8519 24.5303 62.5127
5772 1 48.2693 26.1129 0.7913
5773 1 49.8519 27.6955 2.3739
5774 1 48.2693 26.1129 3.9565
5775 1 49.8519 27.6955 5.5391
5776 1 48.2693 26.1129 7.1217
5777 1 49.8519 27.6955 8.7043
5778 1 48.2693 26.1129 10.2869
5779 1 49.8519 27.6955 11.8695
5780 1 48.2693 26.1129 13.4521
5781 1 49.8519 27.6955 15.0347
5782 1 48.2693 26.1129 16.6173
5783 1 49.8519 27.6955 18.1999
5784 1 48.2693 26.1129 19.7825
5785 1 49.8519 27.6955 21.3651
5786 1 48.2693 26.1129 22.9477
5787 1 49.8519 27.6955 24.5303
5788 1 48.2693 26.1129 26.1129
5789 1 49.8519 27.6955 27.6955
5790 1 48.2693 26.1129 29.2781
5791 1 49.8519 27.6955 30.8607
5792 1 48.2693 26.1129 32.4433
5793 1 49.8519 27.6955 34.0259
5794 1 48.2693 26.1129 35.6085
5795 1 49.8519 27.6955 37.1911
5796 1 48.2693 26.1129 38.7737
5797 1 49.8519 27.6955 40.3563
5798 1 48.2693 26.1129 41.9389
5799 1 49.8519 27.6955 43.5215
5800 1 48.2693 26.1129 45.1041
5801 1 49.8519 27.6955 46.6867
5802 1 48.2693 26.1129 48.2693
5803 1 49.8519 27.6955 49.8519
5804 1 48.2693 26.1129 51.4345
5805 1 49.8519 27.6955 53.0171
5806 1 48.2693 26.1129 54.5997
5807 1 49.8519 27.6955 56.1823
5808 1 48.2693 26.1129 57.7649
5809 1 49.8519 27.6955 59.3475
5810 1 48.2693 26.1129 60.9301
5811 1 49.8519 27.6955 62.5127
5812 1 48.2693 29.2781 0.7913
5813 1 49.8519 30.8607 2.3739
5814 1 48.2693 29.2781 3.9565
5815 1 49.8519 30.8607 5.5391
5816 1 48.2693 29.2781 7.1217
5817 1 49.8519 30.8607 8.7043
5818 1 48.2693 29.2781 10.2869
5819 1 49.8519 30.8607 11.8695
5820 1 48.2693 29.2781 13.4521
5821 1 49.8519 30.8607 15.0347
5822 1 48.2693 29.2781 16.6173
5823 1 49.8519 30.8607 18.1999
5824 1 48.2693 29.2781 19.7825
5825 1 49.8519 30.8607 21.3651
5826 1 48.2693 29.2781 22.9477
5827 1 49.8519 30.8607 24.5303
5828 1 48.2693 29.2781 26.1129
5829 1 49.8519 30.8607 27.6955
5830 1 48.2693 29.2781 29.2781
5831 1 49.8519 30.8607 30.8607
5832 1 48.2693 29.2781 32.4433
5833 1 49.8519 30.8607 34.0259
5834 1 48.2693 29.2781 35.6085
5835 1 49.8519 30.8607 37.1911
5836 1 48.2693 29.2781 38.7737
5837 1 49.8519 30.8607 40.3563
5838 1 48.2693 29.2781 41.9389
5839 1 49.8519 30.8607 43.5215
5840 1 48.2693 29.2781 45.1041
5841 1 49.8519 30.8607 46.6867
5842 1 48.2693 29.2781 48.2693
5843 1 49.8519 30.8607 49.8519
5844 1 48.2693 29.2781 51.4345
5845 1 49.8519 30.8607 53.0171
5846 1 48.2693 29.2781 54.5997
5847 1 49.8519 30.8607 56.1823
5848 1 48.2693 29.2781 57.7649
5849 1 49.8519 30.8607 59.3475
5850 1 48.2693 29.2781 60.9301
5851 1 49.8519 30.8607 62.5127
5852 1 48.2693 32.4433 0.7913
5853 1 49.8519 34.0259 2.3739
5854 1 48.2693 32.4433 3.9565
5855 1 49.8519 34.0259 5.5391
5856 1 48.2693 32.4433 7.1217
5857 1 49.8519 34.0259 8.7043
5858 1 48.2693 32.4433 10.2869
5859 1 49.8519 34.0259 11.8695
5860 1 48.2693 32.4433 13.4521
5861 1 49.8519 34.0259 15.0347
5862 1 48.2693 32.4433 16.6173
5863 1 49.8519 34.0259 18.1999
5864 1 48.2693 32.4433 19.7825
5865 1 49.8519 34.0259 21.3651
5866 1 48.2693 32.4433 22.9477
5867 1 49.8519 34.0259 24.5303
5868 1 48.2693 32.4433 26.1129
5869 1 49.8519 34.0259 27.6955
5870 1 48.2693 32.4433 29.2781
5871 1 49.8519 34.0259 30.8607
5872 1 48.2693 32.4433 32.4433
5873 1 49.8519 34.0259 34.0259
5874 1 48.2693 32.4433 35.6085
5875 1 49.8519 34.0259 37.1911
5876 1 48.2693 32.4433 38.7737
5877 1 49.8519 34.0259 40.3563
5878 1 48.2693 32.4433 41.9389
5879 1 49.8519 34.0259 43.5215
5880 1 48.2693 32.4433 45.1041
5881 1 49.8519 34.0259 46.6867
5882 1 48.2693 32.4433 48.2693
5883 1 49.8519 34.0259 49.8519
5884 1 48.2693 32.4433 51.4345
5885 1 49.8519 34.0259 53.0171
5886 1 48.2693 32.4433 54.5997
5887 1 49.8519 34.0259 56.1823
5888 1 48.2693 32.4433 57.7649
5889 1 49.8519 34.0259 59.3475
5890 1 48.2693 32.4433 60.9301
5891 1 49.8519 34.0259 62.5127
5892 1 48.2693 35.6085 0.7913
5893 1 49.8519 37.1911 2.3739
5894 1 48.2693 35.6085 3.9565
5895 1 49.8519 37.1911 5.5391
5896 1 48.2693 35.6085 7.1217
5897 1 49.8519 37.1911 8.7043
5898 1 48.2693 35.6085 10.2869
5899 1 49.8519 37.1911 11.8695
5900 1 48.2693 35.6085 13.4521
5901 1 49.8519 37.1911 15.0347
5902 1 48.2693 35.6085 16.6173
5903 1 49.8519 37.1911 18.1999
5904 1 48.2693 35.6085 19.7825
5905 1 49.8519 37.1911 21.3651
5906 1 48.2693 35.6085 22.9477
5907 1 49.8519 37.1911 24.5303
5908 1 48.2693 35.6085 26.1129
5909 1 49.8519 37.1911 27.6955
5910 1 48.2693 35.6085 29.2781
5911 1 49.8519 37.1911 30.8607
5912 1 48.2693 35.6085 32.4433
5913 1 49.8519 37.1911 34.0259
5914 1 48.2693 35.6085 35.6085
5915 1 49.8519 37.1911 37.1911
5916 1 48.2693 35.6085 38.7737
5917 1 49.8519 37.1911 40.3563
5918 1 48.2693 35.6085 41.9389
5919 1 49.8519 37.1911 43.5215
5920 1 48.2693 35.6085 45.1041
5921 1 49.8519 37.1911 46.6867
5922 1 48.2693 35.6085 48.2693
5923 1 49.8519 37.1911 49.8519
5924 1 48.2693 35.6085 51.4345
5925 1 49.8519 37.1911 53.0171
5926 1 48.2693 35.6085 54.5997
5927 1 49.8519 37.1911 56.1823
5928 1 48.2693 35.6085 57.7649
5929 1 49.8519 37.1911 59.3475
5930 1 48.2693 35.6085 60.9301
5931 1 49.8519 37.1911 62.5127
5932 1 48.2693 38.7737 0.7913
5933 1 49.8519 40.3563 2.3739
5934 1 48.2693 38.7737 3.9565
5935 1 49.8519 40.3563 5.5391
5936 1 48.2693 38.7737 7.1217
5937 1 49.8519 40.3563 8.7043
5938 1 48.2693 38.7737 10.2869
5939 1 49.8519 40.3563 11.8695
5940 1 48.2693 38.7737 13.4521
5941 1 49.8519 40.3563 15.0347
5942 1 48.2693 38.7737 16.6173
5943 1 49.8519 40.3563 18.1999
5944 1 48.2693 38.7737 19.7825
5945 1 49.8519 40.3563 21.3651
5946 1 48.2693 38.7737 22.9477
5947 1 49.8519 40.3563 24.5303
5948 1 48.2693 38.7737 26.1129
5949 1 49.8519 40.3563 27.6955
5950 1 48.2693 38.7737 29.2781
5951 1 49.8519 40.3563 30.8607
5952 1 48.2693 38.7737 32.4433
5953 1 49.8519 40.3563 34.0259
5954 1 48.2693 38.7737 35.6085
5955 1 49.8519 40.3563 37.1911
5956 1 48.2693 38.7737 38.7737
5957 1 49.8519 40.3563 40.3563
5958 1 48.2693 38.7737 41.9389
5959 1 49.8519 40.3563 43.5215
5960 1 48.2693 38.7737 45.1041
5961 1 49.8519 40.3563 46.6867
5962 1 48.2693 38.7737 48.2693
5963 1 49.8519 40.3563 49.8519
5964 1 48.2693 38.7737 51.4345
5965 1 49.8519 40.3563 53.0171
5966 1 48.2693 38.7737 54.5997
5967 1 49.8519 40.3563 56.1823
5968 1 48.2693 38.7737 57.7649
5969 1 49.8519 40.3563 59.3475
5970 1 48.2693 38.7737 60.9301
5971 1 49.8519 40.3563 62.5127
5972 1 48.2693 41.9389 0.7913
5973 1 49.8519 43.5215 2.3739
5974 1 48.2693 41.9389 3.9565
5975 1 49.8519 43.5215 5.5391
5976 1 48.2693 41.9389 7.1217
5977 1 49.8519 43.5215 8.7043
5978 1 48.2693 41.9389 10.2869
5979 1 49.8519 43.5215 11.8695
5980 1 48.2693 41.9389 13.4521
5981 1 49.8519 43.5215 15.0347
5982 1 48.2693 41.9389 16.6173
5983 1 49.8519 43.5215 18.1999
5984 1 48.2693 41.9389 19.7825
5985 1 49.8519 43.5215 21.3651
5986 1 48.2693 41.9389 22.9477
5987 1 49.8519 43.5215 24.5303
5988 1 48.2693 41.9389 26.1129
5989 1 49.8519 43.5215 27.6955
5990 1 48.2693 41.9389 29.2781
5991 1 49.8519 43.5215 30.8607
5992 1 48.2693 41.9389 32.4433
5993 1 49.8519 43.5215 34.0259
5994 1 48.2693 41.9389 35.6085
5995 1 49.8519 43.5215 37.1911
5996 1 48.2693 41.9389 38.7737
5997 1 49.8519 43.5215 40.3563
5998 1 48.2693 41.9389 41.9389
5999 1 49.8519 43.5215 43.5215
6000 1 48.2693 41.9389 45.1041
6001 1 49.8519 43.5215 46.6867
6002 1 48.2693 41.9389 48.2693
6003 1 49.8519 43.5215 49.8519
6004 1 48.2693 41.9389 51.4345
6005 1 49.8519 43.5215 53.0171
6006 1 48.2693 41.9389 54.5997
6007 1 49.8519 43.5215 56.1823
6008 1 48.2693 41.9389 57.7649
6009 1 49.8519 43.5215 59.3475
6010 1 48.2693 41.9389 60.9301
6011 1 49.8519 43.5215 62.5127
6012 1 48.2693 45.1041 0.7913
6013 1 49.8519 46.6867 2.3739
6014 1 48.2693 45.1041 3.9565
6015 1 49.8519 46.6867 5.5391
6016 1 48.2693 45.1041 7.1217
6017 1 49.8519 46.6867 8.7043
6018 1 48.2693 45.1041 10.2869
6019 1 49.8519 46.6867 11.8695
6020 1 48.2693 45.1041 13.4521
6021 1 49.8519 46.6867 15.0347
6022 1 48.2693 45.1041 16.6173
6023 1 49.8519 46.6867 18.1999
6024 1 48.2693 45.1041 19.7825
6025 1 49.8519 46.6867 21.3651
6026 1 48.2693 45.1041 22.9477
6027 1 49.8519 46.6867 24.5303
6028 1 48.2693 45.1041 26.1129
6029 1 49.8519 46.6867 27.6955
6030 1 48.2693 45.1041 29.2781
6031 1 49.8519 46.6867 30.8607
6032 1 48.2693 45.1041 32.4433
6033 1 49.8519 46.6867 34.0259
6034 1 48.2693 45.1041 35.6085
6035 1 49.8519 46.6867 37.1911
6036 1 48.2693 45.1041 38.7737
6037 1 49.8519 46.6867 40.3563
6038 1 48.2693 45.1041 41.9389
6039 1 49.8519 46.6867 43.5215
6040 1 48.2693 45.1041 45.1041
6041 1 49.8519 46.6867 46.6867
6042 1 48.2693 45.1041 48.2693
6043 1 49.8519 46.6867 49.8519
6044 1 48.2693 45.1041 51.4345
6045 1 49.8519 46.6867 53.0171
6046 1 48.2693 45.1041 54.5997
6047 1 49.8519 46.6867 56.1823
6048 1 48.2693 45.1041 57.7649
6049 1 49.8519 46.6867 59.3475
6050 1 48.2693 45.1041 60.9301
6051 1 49.8519 46.6867 62.5127
6052 1 48.2693 48.2693 0.7913
6053 1 49.8519 49.8519 2.3739
6054 1 48.2693 48.2693 3.9565
6055 1 49.8519 49.8519 5.5391
6056 1 48.2693 48.2693 7.1217
6057 1 49.8519 49.8519 8.7043
6058 1 48.2693 48.2693 10.2869
6059 1 49.8519 49.8519 11.8695
6060 1 48.2693 48.2693 13.4521
6061 1 49.8519 49.8519 15.0347
6062 1 48.2693 48.2693 16.6173
6063 1 49.8519 49.8519 18.1999
6064 1 48.2693 48.2693 19.7825
6065 1 49.8519 49.8519 21.3651
6066 1 48.2693 48.2693 22.9477
6067 1 49.8519 49.8519 24.5303
6068 1 48.2693 48.2693 26.1129
6069 1 49.8519 49.8519 27.6955
6070 1 48.2693 48.2693 29.2781
6071 1 49.8519 49.8519 30.8607
6072 1 48.2693 48.2693 32.4433
6073 1 49.8519 49.8519 34.0259
6074 1 48.2693 48.2693 35.6085
6075 1 49.8519 49.8519 37.1911
6076 1 48.2693 48.2693 38.7737
6077 1 49.8519 49.8519 40.3563
6078 1 48.2693 48.2693 41.9389
6079 1 49.8519 49.8519 43.5215
6080 1 48.2693 48.2693 45.1041
6081 1 49.8519 49.8519 46.6867
6082 1 48.2693 48.2693 48.2693
6083 1 49.8519 49.8519 49.8519
6084 1 48.2693 48.2693 51.4345
6085 1 49.8519 49.8519 53.0171
6086 1 48.2693 48.2693 54.5997
6087 1 49.8519 49.8519 56.1823
6088 1 48.2693 48.2693 57.7649
6089 1 49.8519 49.8519 59.3475
6090 1 48.2693 48.2693 60.9301
6091 1 49.8519 49.8519 62.5127
6092 1 48.2693 51.4345 0.7913
6093 1 49.8519 53.0171 2.3739
6094 1 48.2693 51.4345 3.9565
6095 1 49.8519 53.0171 5.5391
6096 1 48.2693 51.4345 7.1217
6097 1 49.8519 53.0171 8.7043
6098 1 48.2693 51.4345 10.2869
6099 1 49.8519 53.0171 11.8695
6100 1 48.2693 51.4345 13.4521
6101 1 49.8519 53.0171 15.0347
6102 1 48.2693 51.4345 16.6173
6103 1 49.8519 53.0171 18.1999
6104 1 48.2693 51.4345 19.7825
6105 1 49.8519 53.0171 21.3651
6106 1 48.2693 51.4345 22.9477
6107 1 49.8519 53.0171 24.5303
6108 1 48.2693 51.4345 26.1129
6109 1 49.8519 53.0171 27.6955
6110 1 48.2693 51.4345 29.2781
6111 1 49.8519 53.0171 30.8607
6112 1 48.2693 51.4345 32.4433
6113 1 49.8519 53.0171 34.0259
6114 1 48.2693 51.4345 35.6085
6115 1 49.8519 53.0171 37.1911
6116 1 48.2693 51.4345 38.7737
6117 1 49.8519 53.0171 40.3563
6118 1 48.2693 51.4345 41.9389
6119 1 49.8519 53.0171 43.5215
6120 1 48.2693 51.4345 45.1041
6121 1 49.8519 53.0171 46.6867
6122 1 48.2693 51.4345 48.2693
6123 1 49.8519 53.0171 49.8519
6124 1 48.2693 51.4345 51.4345
6125 1 49.8519 53.0171 53.0171
6126 1 48.2693 51.4345 54.5997
6127 1 49.8519 53.0171 56.1823
6128 1 48.2693 51.4345 57.7649
6129 1 49.8519 53.0171 59.3475
6130 1 48.2693 51.4345 60.9301
6131 1 49.8519 53.0171 62.5127
6132 1 48.2693 54.5997 0.7913
6133 1 49.8519 56.1823 2.3739
6134 1 48.2693 54.5997 3.9565
6135 1 49.8519 56.1823 5.5391
6136 1 48.2693 54.5997 7.1217
6137 1 49.8519 56.1823 8.7043
6138 1 48.2693 54.5997 10.2869
6139 1 49.8519 56.1823 11.8695
6140 1 48.2693 54.5997 13.4521
6141 1 49.8519 56.1823 15.0347
6142 1 48.2693 54.5997 16.6173
6143 1 49.8519 56.1823 18.1999
6144 1 48.2693 54.5997 19.7825
6145 1 49.8519 56.1823 21.3651
6146 1 48.2693 54.5997 22.9477
6147 1 49.8519 56.1823 24.5303
6148 1 48.2693 54.5997 26.1129
6149 1 49.8519 56.1823 27.6955
6150 1 48.2693 54.5997 29.2781
6151 1 49.8519 56.1823 30.8607
6152 1 48.2693 54.5997 32.4433
6153 1 49.8519 56.1823 34.0259
6154 1 48.2693 54.5997 35.6085
6155 1 49.8519 56.1823 37.1911
6156 1 48.2693 54.5997 38.7737
6157 1 49.8519 56.1823 40.3563
6158 1 48.2693 54.5997 41.9389
6159 1 49.8519 56.1823 43.5215
6160 1 48.2693 54.5997 45.1041
6161 1 49.8519 56.1823 46.6867
6162 1 48.2693 54.5997 48.2693
6163 1 49.8519 56.1823 49.8519
6164 1 48.2693 54.5997 51.4345
6165 1 49.8519 56.1823 53.0171
6166 1 48.2693 54.5997 54.5997
6167 1 49.8519 56.1823 56.1823
6168 1 48.2693 54.5997 57.7649
6169 1 49.8519 56.1823 59.3475
6170 1 48.2693 54.5997 60.9301
6171 1 49.8519 56.1823 62.5127
6172 1 48.2693 57.7649 0.7913
6173 1 49.8519 59.3475 2.3739
6174 1 48.2693 57.7649 3.9565
6175 1 49.8519 59.3475 5.5391
6176 1 48.2693 57.7649 7.1217
6177 1 49.8519 59.3475 8.7043
6178 1 48.2693 57.7649 10.2869
6179 1 49.8519 59.3475 11.8695
6180 1 48.2693 57.7649 13.4521
6181 1 49.8519 59.3475 15.0347
6182 1 48.2693 57.7649 16.6173
6183 1 49.8519 59.3475 18.1999
6184 1 48.2693 57.7649 19.7825
6185 1 49.8519 59.3475 21.3651
6186 1 48.2693 57.7649 22.9477
6187 1 49.8519 59.3475 24.5303
6188 1 48.2693 57.7649 26.1129
6189 1 49.8519 59.3475 27.6955
6190 1 48.2693 57.7649 29.2781
6191 1 49.8519 59.3475 30.8607
6192 1 48.2693 57.7649 32.4433
6193 1 49.8519 59.3475 34.0259
6194 1 48.2693 57.7649 35.6085
6195 1 49.8519 59.3475 37.1911
6196 1 48.2693 57.7649 38.7737
6197 1 49.8519 59.3475 40.3563
6198 1 48.2693 57.7649 41.9389
6199 1 49.8519 59.3475 43.5215
6200 1 48.2693 57.7649 45.1041
6201 1 49.8519 59.3475 46.6867
6202 1 48.2693 57.7649 48.2693
6203 1 49.8519 59.3475 49.8519
6204 1 48.2693 57.7649 51.4345
6205 1 49.8519 59.3475 53.0171
6206 1 48.2693 57.7649 54.5997
6207 1 49.8519 59.3475 56.1823
6208 1 48.2693 57.7649 57.7649
6209 1 49.8519 59.3475 59.3475
6210 1 48.2693 57.7649 60.9301
6211 1 49.8519 59.3475 62.5127
6212 1 48.2693 60.9301 0.7913
6213 1 49.8519 62.5127 2.3739
6214 1 48.2693 60.9301 3.9565
6215 1 49.8519 62.5127 5.5391
6216 1 48.2693 60.9301 7.1217
6217 1 49.8519 62.5127 8.7043
6218 1 48.2693 60.9301 10.2869
6219 1 49.8519 62.5127 11.8695
6220 1 48.2693 60.9301 13.4521
6221 1 49.8519 62.5127 15.0347
6222 1 48.2693 60.9301 16.6173
6223 1 49.8519 62.5127 18.1999
6224 1 48.2693 60.9301 19.7825
6225 1 49.8519 62.5127 21.3651
6226 1 48.2693 60.9301 22.9477
6227 1 49.8519 62.5127 24.5303
6228 1 48.2693 60.9301 26.1129
6229 1 49.8519 62.5127 27.6955
6230 1 48.2693 60.9301 29.2781
6231 1 49.8519 62.5127 30.8607
6232 1 48.2693 60.9301 32.4433
6233 1 49.8519 62.5127 34.0259
6234 1 48.2693 60.9301 35.6085
6235 1 49.8519 62.5127 37.1911
6236 1 48.2693 60.9301 38.7737
6237 1 49.8519 62.5127 40.3563
6238 1 48.2693 60.9301 41.9389
6239 1 49.8519 62.5127 43.5215
6240 1 48.2693 60.9301 45.1041
6241 1 49.8519 62.5127 46.6867
6242 1 48.2693 60.9301 48.2693
6243 1 49.8519 62.5127 49.8519
6244 1 48.2693 60.9301 51.4345
6245 1 49.8519 62.5127 53.0171
6246 1 48.2693 60.9301 54.5997
6247 1 49.8519 62.5127 56.1823
6248 1 48.2693 60.9301 57.7649
6249 1 49.8519 62.5127 59.3475
6250 1 48.2693 60.9301 60.9301
6251 1 49.8519 62.5127 62.5127
6252 1 51.4345 0.7913 0.7913
6253 1 53.0171 2.3739 2.3739
6254 1 51.4345 0.7913 3.9565
6255 1 53.0171 2.3739 5.5391
6256 1 51.4345 0.7913 7.1217
6257 1 53.0171 2.3739 8.7043
6258 1 51.4345 0.7913 10.2869
6259 1 53.0171 2.3739 11.8695
6260 1 51.4345 0.7913 13.4521
6261 1 53.0171 2.3739 15.0347
6262 1 51.4345 0.7913 16.6173
6263 1 53.0171 2.3739 18.1999
6264 1 51.4345 0.7913 19.7825
6265 1 53.0171 2.3739 21.3651
6266 1 51.4345 0.7913 22.9477
6267 1 53.0171 2.3739 24.5303
6268 1 51.4345 0.7913 26.1129
6269 1 53.0171 2.3739 27.6955
6270 1 51.4345 0.7913 29.2781
6271 1 53.0171 2.3739 30.8607
6272 1 51.4345 0.7913 32.4433
6273 1 53.0171 2.3739 34.0259
6274 1 51.4345 0.7913 35.6085
6275 1 53.0171 2.3739 37.1911
6276 1 51.4345 0.7913 38.7737
6277 1 53.0171 2.3739 40.3563
6278 1 51.4345 0.7913 41.9389
6279 1 53.0171 2.3739 43.5215
6280 1 51.4345 0.7913 45.1041
6281 1 53.0171 2.3739 46.6867
6282 1 51.4345 0.7913 48.2693
6283 1 53.0171 2.3739 49.8519
6284 1 51.4345 0.7913 51.4345
6285 1 53.0171 2.3739 53.0171
6286 1 51.4345 0.7913 54.5997
6287 1 53.0171 2.3739 56.1823
6288 1 51.4345 0.7913 57.7649
6289 1 53.0171 2.3739 59.3475
6290 1 51.4345 0.7913 60.9301
6291 1 53.0171 2.3739 62.5127
6292 1 51.4345 3.9565 0.7913
6293 1 53.0171 5.5391 2.3739
6294 1 51.4345 3.9565 3.9565
6295 1 53.0171 5.5391 5.5391
6296 1 51.4345 3.9565 7.1217
6297 1 53.0171 5.5391 8.7043
6298 1 51.4345 3.9565 10.2869
6299 1 53.0171 5.5391 11.8695
6300 1 51.4345 3.9565 13.4521
6301 1 53.0171 5.5391 15.0347
6302 1 51.4345 3.9565 16.6173
6303 1 53.0171 5.5391 18.1999
6304 1 51.4345 3.9565 19.7825
6305 1 53.0171 5.5391 21.3651
6306 1 51.4345 3.9565 22.9477
6307 1 53.0171 5.5391 24.5303
6308 1 51.4345 3.9565 26.1129
6309 1 53.0171 5.5391 27.6955
6310 1 51.4345 3.9565 29.2781
6311 1 53.0171 5.5391 30.8607
6312 1 51.4345 3.9565 32.4433
6313 1 53.0171 5.5391 34.0259
6314 1 51.4345 3.9565 35.6085
6315 1 53.0171 5.5391 37.1911
6316 1 51.4345 3.9565 38.7737
6317 1 53.0171 5.5391 40.3563
6318 1 51.4345 3.9565 41.9389
6319 1 53.0171 5.5391 43.5215
6320 1 51.4345 3.9565 45.1041
6321 1 53.0171 5.5391 46.6867
6322 1 51.4345 3.9565 48.2693
6323 1 53.0171 5.5391 49.8519
6324 1 51.4345 3.9565 51.4345
6325 1 53.0171 5.5391 53.0171
6326 1 51.4345 3.9565 54.5997
6327 1 53.0171 5.5391 56.1823
6328 1 51.4345 3.9565 57.7649
6329 1 53.0171 5.5391 59.3475
6330 1 51.4345 3.9565 60.9301
6331 1 53.0171 5.5391 62.5127
6332 1 51.4345 7.1217 0.7913
6333 1 53.0171 8.7043 2.3739
6334 1 51.4345 7.1217 3.9565
6335 1 53.0171 8.7043 5.5391
6336 1 51.4345 7.1217 7.1217
6337 1 53.0171 8.7043 8.7043
6338 1 51.4345 7.1217 10.2869
6339 1 53.0171 8.7043 11.8695
6340 1 51.4345 7.1217 13.4521
6341 1 53.0171 8.7043 15.0347
6342 1 51.4345 7.1217 16.6173
6343 1 53.0171 8.7043 18.1999
6344 1 51.4345 7.1217 19.7825
6345 1 53.0171 8.7043 21.3651
6346 1 51.4345 7.1217 22.9477
6347 1 53.0171 8.7043 24.5303
6348 1 51.4345 7.1217 26.1129
6349 1 53.0171 8.7043 27.6955
6350 1 51.4345 7.1217 29.2781
6351 1 53.0171 8.7043 30.8607
6352 1 51.4345 7.1217 32.4433
6353 1 53.0171 8.7043 34.0259
6354 1 51.4345 7.1217 35.6085
6355 1 53.0171 8.7043 37.1911
6356 1 51.4345 7.1217 38.7737
6357 1 53.0171 8.7043 40.3563
6358 1 51.4345 7.1217 41.9389
6359 1 53.0171 8.7043 43.5215
6360 1 51.4345 7.1217 45.1041
6361 1 53.0171 8.7043 46.6867
6362 1 51.4345 7.1217 48.2693
6363 1 53.0171 8.7043 49.8519
6364 1 51.4345 7.1217 51.4345
6365 1 53.0171 8.7043 53.0171
6366 1 51.4345 7.1217 54.5997
6367 1 53.0171 8.7043 56.1823
6368 1 51.4345 7.1217 57.7649
6369 1 53.0171 8.7043 59.3475
6370 1 51.4345 7.1217 60.9301
6371 1 53.0171 8.7043 62.5127
6372 1 51.4345 10.2869 0.7913
6373 1 53.0171 11.8695 2.3739
6374 1 51.4345 10.2869 3.9565
6375 1 53.0171 11.8695 5.5391
6376 1 51.4345 10.2869 7.1217
6377 1 53.0171 11.8695 8.7043
6378 1 51.4345 10.2869 10.2869
6379 1 53.0171 11.8695 11.8695
6380 1 51.4345 10.2869 13.4521
6381 1 53.0171 11.8695 15.0347
6382 1 51.4345 10.2869 16.6173
6383 1 53.0171 11.8695 18.1999
6384 1 51.4345 10.2869 19.7825
6385 1 53.0171 11.8695 21.3651
6386 1 51.4345 10.2869 22.9477
6387 1 53.0171 11.8695 24.5303
6388 1 51.4345 10.2869 26.1129
6389 1 53.0171 11.8695 27.6955
6390 1 51.4345 10.2869 29.2781
6391 1 53.0171 11.8695 30.8607
6392 1 51.4345 10.2869 32.4433
6393 1 53.0171 11.8695 34.0259
6394 1 51.4345 10.2869 35.6085
6395 1 53.0171 11.8695 37.1911
6396 1 51.4345 10.2869 38.7737
6397 1 53.0171 11.8695 40.3563
6398 1 51.4345 10.2869 41.9389
6399 1 53.0171 11.8695 43.5215
6400 1 51.4345 10.2869 45.1041
6401 1 53.0171 11.8695 46.6867
6402 1 51.4345 10.2869 48.2693
6403 1 53.0171 11.8695 49.8519
6404 1 51.4345 10.2869 51.4345
6405 1 53.0171 11.8695 53.0171
6406 1 51.4345 10.2869 54.5997
6407 1 53.0171 11.8695 56.1823
6408 1 51.4345 10.2869 57.7649
6409 1 53.0171 11.8695 59.3475
6410 1 51.4345 10.2869 60.9301
6411 1 53.0171 11.8695 62.5127
6412 1 51.4345 13.4521 0.7913
6413 1 53.0171 15.0347 2.3739
6414 1 51.4345 13.4521 3.9565
6415 1 53.0171 15.0347 5.5391
6416 1 51.4345 13.4521 7.1217
6417 1 53.0171 15.0347 8.7043
6418 1 51.4345 13.4521 10.2869
6419 1 53.0171 15.0347 11.8695
6420 1 51.4345 13.4521 13.4521
6421 1 53.0171 15.0347 15.0347
6422 1 51.4345 13.4521 16.6173
6423 1 53.0171 15.0347 18.1999
6424 1 51.4345 13.4521 19.7825
6425 1 53.0171 15.0347 21.3651
6426 1 51.4345 13.4521 22.9477
6427 1 53.0171 15.0347 24.5303
6428 1 51.4345 13.4521 26.1129
6429 1 53.0171 15.0347 27.6955
6430 1 51.4345 13.4521 29.2781
6431 1 53.0171 15.0347 30.8607
6432 1 51.4345 13.4521 32.4433
6433 1 53.0171 15.0347 34.0259
6434 1 51.4345 13.4521 35.6085
6435 1 53.0171 15.0347 37.1911
6436 1 51.4345 13.4521 38.7737
6437 1 53.0171 15.0347 40.3563
6438 1 51.4345 13.4521 41.9389
6439 1 53.0171 15.0347 43.5215
6440 1 51.4345 13.4521 45.1041
6441 1 53.0171 15.0347 46.6867
6442 1 51.4345 13.4521 48.2693
6443 1 53.0171 15.0347 49.8519
6444 1 51.4345 13.4521 51.4345
6445 1 53.0171 15.0347 53.0171
6446 1 51.4345 13.4521 54.5997
6447 1 53.0171 15.0347 56.1823
6448 1 51.4345 13.4521 57.7649
6449 1 53.0171 15.0347 59.3475
6450 1 51.4345 13.4521 60.9301
6451 1 53.0171 15.0347 62.5127
6452 1 51.4345 16.6173 0.7913
6453 1 53.0171 18.1999 2.3739
6454 1 51.4345 16.6173 3.9565
6455 1 53.0171 18.1999 5.5391
6456 1 51.4345 16.6173 7.1217
6457 1 53.0171 18.1999 8.7043
6458 1 51.4345 16.6173 10.2869
6459 1 53.0171 18.1999 11.8695
6460 1 51.4345 16.6173 13.4521
6461 1 53.0171 18.1999 15.0347
6462 1 51.4345 16.6173 16.6173
6463 1 53.0171 18.1999 18.1999
6464 1 51.4345 16.6173 19.7825
6465 1 53.0171 18.1999 21.3651
6466 1 51.4345 16.6173 22.9477
6467 1 53.0171 18.1999 24.5303
6468 1 51.4345 16.6173 26.1129
6469 1 53.0171 18.1999 27.6955
6470 1 51.4345 16.6173 29.2781
6471 1 53.0171 18.1999 30.8607
6472 1 51.4345 16.6173 32.4433
6473 1 53.0171 18.1999 34.0259
6474 1 51.4345 16.6173 35.6085
6475 1 53.0171 18.1999 37.1911
6476 1 51.4345 16.6173 38.7737
6477 1 53.0171 18.1999 40.3563
6478 1 51.4345 16.6173 41.9389
6479 1 53.0171 18.1999 43.5215
6480 1 51.4345 16.6173 45.1041
6481 1 53.0171 18.1999 46.6867
6482 1 51.4345 16.6173 48.2693
6483 1 53.0171 18.1999 49.8519
6484 1 51.4345 16.6173 51.4345
6485 1 53.0171 18.1999 53.0171
6486 1 51.4345 16.6173 54.5997
6487 1 53.0171 18.1999 56.1823
6488 1 51.4345 16.6173 57.7649
6489 1 53.0171 18.1999 59.3475
6490 1 51.4345 16.6173 60.9301
6491 1 53.0171 18.1999 62.5127
6492 1 51.4345 19.7825 0.7913
6493 1 53.0171 21.3651 2.3739
6494 1 51.4345 19.7825 3.9565
6495 1 53.0171 21.3651 5.5391
6496 1 51.4345 19.7825 7.1217
6497 1 53.0171 21.3651 8.7043
6498 1 51.4345 19.7825 10.2869
6499 1 53.0171 21.3651 11.8695
6500 1 51.4345 19.7825 13.4521
6501 1 53.0171 21.3651 15.0347
6502 1 51.4345 19.7825 16.6173
6503 1 53.0171 21.3651 18.1999
6504 1 51.4345 19.7825 19.7825
6505 1 53.0171 21.3651 21.3651
6506 1 51.4345 19.7825 22.9477
6507 1 53.0171 21.3651 24.5303
6508 1 51.4345 19.7825 26.1129
6509 1 53.0171 21.3651 27.6955
6510 1 51.4345 19.7825 29.2781
6511 1 53.0171 21.3651 30.8607
6512 1 51.4345 19.7825 32.4433
6513 1 53.0171 21.3651 34.0259
6514 1 51.4345 19.7825 35.6085
6515 1 53.0171 21.3651 37.1911
6516 1 51.4345 19.7825 38.7737
6517 1 53.0171 21.3651 40.3563
6518 1 51.4345 19.7825 41.9389
6519 1 53.0171 21.3651 43.5215
6520 1 51.4345 19.7825 45.1041
6521 1 53.0171 21.3651 46.6867
6522 1 51.4345 19.7825 48.2693
6523 1 53.0171 21.3651 49.8519
6524 1 51.4345 19.7825 51.4345
6525 1 53.0171 21.3651 53.0171
6526 1 51.4345 19.7825 54.5997
6527 1 53.0171 21.3651 56.1823
6528 1 51.4345 19.7825 57.7649
6529 1 53.0171 21.3651 59.3475
6530 1 51.4345 19.7825 60.9301
6531 1 53.0171 21.3651 62.5127
6532 1 51.4345 22.9477 0.7913
6533 1 53.0171 24.5303 2.3739
6534 1 51.4345 22.9477 3.9565
6535 1 53.0171 24.5303 5.5391
6536 1 51.4345 22.9477 7.1217
6537 1 53.0171 24.5303 8.7043
6538 1 51.4345 22.9477 10.2869
6539 1 53.0171 24.5303 11.8695
6540 1 51.4345 22.9477 13.4521
6541 1 53.0171 24.5303 15.0347
6542 1 51.4345 22.9477 16.6173
6543 1 53.0171 24.5303 18.1999
6544 1 51.4345 22.9477 19.7825
6545 1 53.0171 24.5303 21.3651
6546 1 51.4345 22.9477 22.9477
6547 1 53.0171 24.5303 24.5303
6548 1 51.4345 22.9477 26.1129
6549 1 53.0171 24.5303 27.6955
6550 1 51.4345 22.9477 29.2781
6551 1 53.0171 24.5303 30.8607
6552 1 51.4345 22.9477 32.4433
6553 1 53.0171 24.5303 34.0259
6554 1 51.4345 22.9477 35.6085
6555 1 53.0171 24.5303 37.1911
6556 1 51.4345 22.9477 38.7737
6557 1 53.0171 24.5303 40.3563
6558 1 51.4345 22.9477 41.9389
6559 1 53.0171 24.5303 43.5215
6560 1 51.4345 22.9477 45.1041
6561 1 53.0171 24.5303 46.6867
6562 1 51.4345 22.9477 48.2693
6563 1 53.0171 24.5303 49.8519
6564 1 51.4345 22.9477 51.4345
6565 1 53.0171 24.5303 53.0171
6566 1 51.4345 22.9477 54.5997
6567 1 53.0171 24.5303 56.1823
6568 1 51.4345 22.9477 57.7649
6569 1 53.0171 24.5303 59.3475
6570 1 51.4345 22.9477 60.9301
6571 1 53.0171 24.5303 62.5127
6572 1 51.4345 26.1129 0.7913
6573 1 53.0171 27.6955 2.3739
6574 1 51.4345 26.1129 3.9565
6575 1 53.0171 27.6955 5.5391
6576 1 51.4345 26.1129 7.1217
6577 1 53.0171 27.6955 8.7043
6578 1 51.4345 26.1129 10.2869
6579 1 53.0171 27.6955 11.8695
6580 1 51.4345 26.1129 13.4521
6581 1 53.0171 27.6955 15.0347
6582 1 51.4345 26.1129 16.6173
6583 1 53.0171 27.6955 18.1999
6584 1 51.4345 26.1129 19.7825
6585 1 53.0171 27.6955 21.3651
6586 1 51.4345 26.1129 22.9477
6587 1 53.0171 27.6955 24.5303
6588 1 51.4345 26.1129 26.1129
6589 1 53.0171 27.6955 27.6955
6590 1 51.4345 26.1129 29.2781
6591 1 53.0171 27.6955 30.8607
6592 1 51.4345 26.1129 32.4433
6593 1 53.0171 27.6955 34.0259
6594 1 51.4345 26.1129 35.6085
6595 1 53.0171 27.6955 37.1911
6596 1 51.4345 26.1129 38.7737
6597 1 53.0171 27.6955 40.3563
6598 1 51.4345 26.1129 41.9389
6599 1 53.0171 27.6955 43.5215
6600 1 51.4345 26.1129 45.1041
6601 1 53.0171 27.6955 46.6867
6602 1 51.4345 26.1129 48.2693
6603 1 53.0171 27.6955 49.8519
6604 1 51.4345 26.1129 51.4345
6605 1 53.0171 27.6955 53.0171
6606 1 51.4345 26.1129 54.5997
6607 1 53.0171 27.6955 56.1823
6608 1 51.4345 26.1129 57.7649
6609 1 53.0171 27.6955 59.3475
6610 1 51.4345 26.1129 60.9301
6611 1 53.0171 27.6955 62.5127
6612 1 51.4345 29.2781 0.7913
6613 1 53.0171 30.8607 2.3739
6614 1 51.4345 29.2781 3.9565
6615 1 53.0171 30.8607 5.5391
6616 1 51.4345 29.2781 7.1217
6617 1 53.0171 30.8607 8.7043
6618 1 51.4345 29.2781 10.2869
6619 1 53.0171 30.8607 11.8695
6620 1 51.4345 29.2781 13.4521
6621 1 53.0171 30.8607 15.0347
6622 1 51.4345 29.2781 16.6173
6623 1 53.0171 30.8607 18.1999
6624 1 51.4345 29.2781 19.7825
6625 1 53.0171 30.8607 21.3651
6626 1 51.4345 29.2781 22.9477
6627 1 53.0171 30.8607 24.5303
6628 1 51.4345 29.2781 26.1129
6629 1 53.0171 30.8607 27.6955
6630 1 51.4345 29.2781 29.2781
6631 1 53.0171 30.8607 30.8607
6632 1 51.4345 29.2781 32.4433
6633 1 53.0171 30.8607 34.0259
6634 1 51.4345 29.2781 35.6085
6635 1 53.0171 30.8607 37.1911
6636 1 51.4345 29.2781 38.7737
6637 1 53.0171 30.8607 40.3563
6638 1 51.4345 29.2781 41.9389
6639 1 53.0171 30.8607 43.5215
6640 1 51.4345 29.2781 45.1041
6641 1 53.0171 30.8607 46.6867
6642 1 51.4345 29.2781 48.2693
6643 1 53.0171 30.8607 49.8519
6644 1 51.4345 29.2781 51.4345
6645 1 53.0171 30.8607 53.0171
6646 1 51.4345 29.2781 54.5997
6647 1 53.0171 30.8607 56.1823
6648 1 51.4345 29.2781 57.7649
6649 1 53.0171 30.8607 59.3475
6650 1 51.4345 29.2781 60.9301
6651 1 53.0171 30.8607 62.5127
6652 1 51.4345 32.4433 0.7913
6653 1 53.0171 34.0259 2.3739
6654 1 51.4345 32.4433 3.9565
6655 1 53.0171 34.0259 5.5391
6656 1 51.4345 32.4433 7.1217
6657 1 53.0171 34.0259 8.7043
6658 1 51.4345 32.4433 10.2869
6659 1 53.0171 34.0259 11.8695
6660 1 51.4345 32.4433 13.4521
6661 1 53.0171 34.0259 15.0347
6662 1 51.4345 32.4433 16.6173
6663 1 53.0171 34.0259 18.1999
6664 1 51.4345 32.4433 19.7825
6665 1 53.0171 34.0259 21.3651
6666 1 51.4345 32.4433 22.9477
6667 1 53.0171 34.0259 24.5303
6668 1 51.4345 32.4433 26.1129
6669 1 53.0171 34.0259 27.6955
6670 1 51.4345 32.4433 29.2781
6671 1 53.0171 34.0259 30.8607
6672 1 51.4345 32.4433 32.4433
6673 1 53.0171 34.0259 34.0259
6674 1 51.4345 32.4433 35.6085
6675 1 53.0171 34.0259 37.1911
6676 1 51.4345 32.4433 38.7737
6677 1 53.0171 34.0259 40.3563
6678 1 51.4345 32.4433 41.9389
6679 1 53.0171 34.0259 43.5215
6680 1 51.4345 32.4433 45.1041
6681 1 53.0171 34.0259 46.6867
6682 1 51.4345 32.4433 48.2693
6683 1 53.0171 34.0259 49.8519
6684 1 51.4345 32.4433 51.4345
6685 1 53.0171 34.0259 53.0171
6686 1 51.4345 32.4433 54.5997
6687 1 53.0171 34.0259 56.1823
6688 1 51.4345 32.4433 57.7649
6689 1 53.0171 34.0259 59.3475
6690 1 51.4345 32.4433 60.9301
6691 1 53.0171 34.0259 62.5127
6692 1 51.4345 35.6085 0.7913
6693 1 53.0171 37.1911 2.3739
6694 1 51.4345 35.6085 3.9565
6695 1 53.0171 37.1911 5.5391
6696 1 51.4345 35.6085 7.1217
6697 1 53.0171 37.1911 8.7043
6698 1 51.4345 35.6085 10.2869
6699 1 53.0171 37.1911 11.8695
6700 1 51.4345 35.6085 13.4521
6701 1 53.0171 37.1911 15.0347
6702 1 51.4345 35.6085 16.6173
6703 1 53.0171 37.1911 18.1999
6704 1 51.4345 35.6085 19.7825
6705 1 53.0171 37.1911 21.3651
6706 1 51.4345 35.6085 22.9477
6707 1 53.0171 37.1911 24.5303
6708 1 51.4345 35.6085 26.1129
6709 1 53.0171 37.1911 27.6955
6710 1 51.4345 35.6085 29.2781
6711 1 53.0171 37.1911 30.8607
6712 1 51.4345 35.6085 32.4433
6713 1 53.0171 37.1911 34.0259
6714 1 51.4345 35.6085 35.6085
6715 1 53.0171 37.1911 37.1911
6716 1 51.4345 35.6085 38.7737
6717 1 53.0171 37.1911 40.3563
6718 1 51.4345 35.6085 41.9389
6719 1 53.0171 37.1911 43.5215
6720 1 51.4345 35.6085 45.1041
6721 1 53.0171 37.1911 46.6867
6722 1 51.4345 35.6085 48.2693
6723 1 53.0171 37.1911 49.8519
6724 1 51.4345 35.6085 51.4345
6725 1 53.0171 37.1911 53.0171
6726 1 51.4345 35.6085 54.5997
6727 1 53.0171 37.1911 56.1823
6728 1 51.4345 35.6085 57.7649
6729 1 53.0171 37.1911 59.3475
6730 1 51.4345 35.6085 60.9301
6731 1 53.0171 37.1911 62.5127
6732 1 51.4345 38.7737 0.7913
6733 1 53.0171 40.3563 2.3739
6734 1 51.4345 38.7737 3.9565
6735 1 53.0171 40.3563 5.5391
6736 1 51.4345 38.7737 7.1217
6737 1 53.0171 40.3563 8.7043
6738 1 51.4345 38.7737 10.2869
6739 1 53.0171 40.3563 11.8695
6740 1 51.4345 38.7737 13.4521
6741 1 53.0171 40.3563 15.0347
6742 1 51.4345 38.7737 16.6173
6743 1 53.0171 40.3563 18.1999
6744 1 51.4345 38.7737 19.7825
6745 1 53.0171 40.3563 21.3651
6746 1 51.4345 38.7737 22.9477
6747 1 53.0171 40.3563 24.5303
6748 1 51.4345 38.7737 26.1129
6749 1 53.0171 40.3563 27.6955
6750 1 51.4345 38.7737 29.2781
6751 1 53.0171 40.3563 30.8607
6752 1 51.4345 38.7737 32.4433
6753 1 53.0171 40.3563 34.0259
6754 1 51.4345 38.7737 35.6085
6755 1 53.0171 40.3563 37.1911
6756 1 51.4345 38.7737 38.7737
6757 1 53.0171 40.3563 40.3563
6758 1 51.4345 38.7737 41.9389
6759 1 53.0171 40.3563 43.5215
6760 1 51.4345 38.7737 45.1041
6761 1 53.0171 40.3563 46.6867
6762 1 51.4345 38.7737 48.2693
6763 1 53.0171 40.3563 49.8519
6764 1 51.4345 38.7737 51.4345
6765 1 53.0171 40.3563 53.0171
6766 1 51.4345 38.7737 54.5997
6767 1 53.0171 40.3563 56.1823
6768 1 51.4345 38.7737 57.7649
6769 1 53.0171 40.3563 59.3475
6770 1 51.4345 38.7737 60.9301
6771 1 53.0171 40.3563 62.5127
6772 1 51.4345 41.9389 0.7913
6773 1 53.0171 43.5215 2.3739
6774 1 51.4345 41.9389 3.9565
6775 1 53.0171 43.5215 5.5391
6776 1 51.4345 41.9389 7.1217
6777 1 53.0171 43.5215 8.7043
6778 1 51.4345 41.9389 10.2869
6779 1 53.0171 43.5215 11.8695
6780 1 51.4345 41.9389 13.4521
6781 1 53.0171 43.5215 15.0347
6782 1 51.4345 41.9389 16.6173
6783 1 53.0171 43.5215 18.1999
6784 1 51.4345 41.9389 19.7825
6785 1 53.0171 43.5215 21.3651
6786 1 51.4345 41.9389 22.9477
6787 1 53.0171 43.5215 24.5303
6788 1 51.4345 41.9389 26.1129
6789 1 53.0171 43.5215 27.6955
6790 1 51.4345 41.9389 29.2781
6791 1 53.0171 43.5215 30.8607
6792 1 51.4345 41.9389 32.4433
6793 1 53.0171 43.5215 34.0259
6794 1 51.4345 41.9389 35.6085
6795 1 53.0171 43.5215 37.1911
6796 1 51.4345 41.9389 38.7737
6797 1 53.0171 43.5215 40.3563
6798 1 51.4345 41.9389 41.9389
6799 1 53.0171 43.5215 43.5215
6800 1 51.4345 41.9389 45.1041
6801 1 53.0171 43.5215 46.6867
6802 1 51.4345 41.9389 48.2693
6803 1 53.0171 43.5215 49.8519
6804 1 51.4345 41.9389 51.4345
6805 1 53.0171 43.5215 53.0171
6806 1 51.4345 41.9389 54.5997
6807 1 53.0171 43.5215 56.1823
6808 1 51.4345 41.9389 57.7649
6809 1 53.0171 43.5215 59.3475
6810 1 51.4345 41.9389 60.9301
6811 1 53.0171 43.5215 62.5127
6812 1 51.4345 45.1041 0.7913
6813 1 53.0171 46.6867 2.3739
6814 1 51.4345 45.1041 3.9565
6815 1 53.0171 46.6867 5.5391
6816 1 51.4345 45.1041 7.1217
6817 1 53.0171 46.6867 8.7043
6818 1 51.4345 45.1041 10.2869
6819 1 53.0171 46.6867 11.8695
6820 1 51.4345 45.1041 13.4521
6821 1 53.0171 46.6867 15.0347
6822 1 51.4345 45.1041 16.6173
6823 1 53.0171 46.6867 18.1999
6824 1 51.4345 45.1041 19.7825
6825 1 53.0171 46.6867 21.3651
6826 1 51.4345 45.1041 22.9477
6827 1 53.0171 46.6867 24.5303
6828 1 51.4345 45.1041 26.1129
6829 1 53.0171 46.6867 27.6955
6830 1 51.4345 45.1041 29.2781
6831 1 53.0171 46.6867 30.8607
6832 1 51.4345 45.1041 32.4433
6833 1 53.0171 46.6867 34.0259
6834 1 51.4345 45.1041 35.6085
6835 1 53.0171 46.6867 37.1911
6836 1 51.4345 45.1041 38.7737
6837 1 53.0171 46.6867 40.3563
6838 1 51.4345 45.1041 41.9389
6839 1 53.0171 46.6867 43.5215
6840 1 51.4345 45.1041 45.1041
6841 1 53.0171 46.6867 46.6867
6842 1 51.4345 45.1041 48.2693
6843 1 53.0171 46.6867 49.8519
6844 1 51.4345 45.1041 51.4345
6845 1 53.0171 46.6867 53.0171
6846 1 51.4345 45.1041 54.5997
6847 1 53.0171 46.6867 56.1823
6848 1 51.4345 45.1041 57.7649
6849 1 53.0171 46.6867 59.3475
6850 1 51.4345 45.1041 60.9301
6851 1 53.0171 46.6867 62.5127
6852 1 51.4345 48.2693 0.7913
6853 1 53.0171 49.8519 2.3739
6854 1 51.4345 48.2693 3.9565
6855 1 53.0171 49.8519 5.5391
6856 1 51.4345 48.2693 7.1217
6857 1 53.0171 49.8519 8.7043
6858 1 51.4345 48.2693 10.2869
6859 1 53.0171 49.8519 11.8695
6860 1 51.4345 48.2693 13.4521
6861 1 53.0171 49.8519 15.0347
6862 1 51.4345 48.2693 16.6173
6863 1 53.0171 49.8519 18.1999
6864 1 51.4345 48.2693 19.7825
6865 1 53.0171 49.8519 21.3651
6866 1 51.4345 48.2693 22.9477
6867 1 53.0171 49.8519 24.5303
6868 1 51.4345 48.2693 26.1129
6869 1 53.0171 49.8519 27.6955
6870 1 51.4345 48.2693 29.2781
6871 1 53.0171 49.8519 30.8607
6872 1 51.4345 48.2693 32.4433
6873 1 53.0171 49.8519 34.0259
6874 1 51.4345 48.2693 35.6085
6875 1 53.0171 49.8519 37.1911
6876 1 51.4345 48.2693 38.7737
6877 1 53.0171 49.8519 40.3563
6878 1 51.4345 48.2693 41.9389
6879 1 53.0171 49.8519 43.5215
6880 1 51.4345 48.2693 45.1041
6881 1 53.0171 49.8519 46.6867
6882 1 51.4345 48.2693 48.2693
6883 1 53.0171 49.8519 49.8519
6884 1 51.4345 48.2693 51.4345
6885 1 53.0171 49.8519 53.0171
6886 1 51.4345 48.2693 54.5997
6887 1 53.0171 49.8519 56.1823
6888 1 51.4345 48.2693 57.7649
6889 1 53.0171 49.8519 59.3475
6890 1 51.4345 48.2693 60.9301
6891 1 53.0171 49.8519 62.5127
6892 1 51.4345 51.4345 0.7913
6893 1 53.0171 53.0171 2.3739
6894 1 51.4345 51.4345 3.9565
6895 1 53.0171 53.0171 5.5391
6896 1 51.4345 51.4345 7.1217
6897 1 53.0171 53.0171 8.7043
6898 1 51.4345 51.4345 10.2869
6899 1 53.0171 53.0171 11.8695
6900 1 51.4345 51.4345 13.4521
6901 1 53.0171 53.0171 15.0347
6902 1 51.4345 51.4345 16.6173
6903 1 53.0171 53.0171 18.1999
6904 1 51.4345 51.4345 19.7825
6905 1 53.0171 53.0171 21.3651
6906 1 51.4345 51.4345 22.9477
6907 1 53.0171 53.0171 24.5303
6908 1 51.4345 51.4345 26.1129
6909 1 53.0171 53.0171 27.6955
6910 1 51.4345 51.4345 29.2781
6911 1 53.0171 53.0171 30.8607
6912 1 51.4345 51.4345 32.4433
6913 1 53.0171 53.0171 34.0259
6914 1 51.4345 51.4345 35.6085
6915 1 53.0171 53.0171 37.1911
6916 1 51.4345 51.4345 38.7737
6917 1 53.0171 53.0171 40.3563
6918 1 51.4345 51.4345 41.9389
6919 1 53.0171 53.0171 43.5215
6920 1 51.4345 51.4345 45.1041
6921 1 53.0171 53.0171 46.6867
6922 1 51.4345 51.4345 48.2693
6923 1 53.0171 53.0171 49.8519
6924 1 51.4345 51.4345 51.4345
6925 1 53.0171 53.0171 53.0171
6926 1 51.4345 51.4345 54.5997
6927 1 53.0171 53.0171 56.1823
6928 1 51.4345 51.4345 57.7649
6929 1 53.0171 53.0171 59.3475
6930 1 51.4345 51.4345 60.9301
6931 1 53.0171 53.0171 62.5127
6932 1 51.4345 54.5997 0.7913
6933 1 53.0171 56.1823 2.3739
6934 1 51.4345 54.5997 3.9565
6935 1 53.0171 56.1823 5.5391
6936 1 51.4345 54.5997 7.1217
6937 1 53.0171 56.1823 8.7043
6938 1 51.4345 54.5997 10.2869
6939 1 53.0171 56.1823 11.8695
6940 1 51.4345 54.5997 13.4521
6941 1 53.0171 56.1823 15.0347
6942 1 51.4345 54.5997 16.6173
6943 1 53.0171 56.1823 18.1999
6944 1 51.4345 54.5997 19.7825
6945 1 53.0171 56.1823 21.3651
6946 1 51.4345 54.5997 22.9477
6947 1 53.0171 56.1823 24.5303
6948 1 51.4345 54.5997 26.1129
6949 1 53.0171 56.1823 27.6955
6950 1 51.4345 54.5997 29.2781
6951 1 53.0171 56.1823 30.8607
6952 1 51.4345 54.5997 32.4433
6953 1 53.0171 56.1823 34.0259
6954 1 51.4345 54.5997 35.6085
6955 1 53.0171 56.1823 37.1911
6956 1 51.4345 54.5997 38.7737
6957 1 53.0171 56.1823 40.3563
6958 1 51.4345 54.5997 41.9389
6959 1 53.0171 56.1823 43.5215
6960 1 51.4345 54.5997 45.1041
6961 1 53.0171 56.1823 46.6867
6962 1 51.4345 54.5997 48.2693
6963 1 53.0171 56.1823 49.8519
6964 1 51.4345 54.5997 51.4345
6965 1 53.0171 56.1823 53.0171
6966 1 51.4345 54.5997 54.5997
6967 1 53.0171 56.1823 56.1823
6968 1 51.4345 54.5997 57.7649
6969 1 53.0171 56.1823 59.3475
6970 1 51.4345 54.5997 60.9301
6971 1 53.0171 56.1823 62.5127
6972 1 51.4345 57.7649 0.7913
6973 1 53.0171 59.3475 2.3739
6974 1 51.4345 57.7649 3.9565
6975 1 53.0171 59.3475 5.5391
6976 1 51.4345 57.7649 7.1217
6977 1 53.0171 59.3475 8.7043
6978 1 51.4345 57.7649 10.2869
6979 1 53.0171 59.3475 11.8695
6980 1 51.4345 57.7649 13.4521
6981 1 53.0171 59.3475 15.0347
6982 1 51.4345 57.7649 16.6173
6983 1 53.0171 59.3475 18.1999
6984 1 51.4345 57.7649 19.7825
6985 1 53.0171 59.3475 21.3651
6986 1 51.4345 57.7649 22.9477
6987 1 53.0171 59.3475 24.5303
6988 1 51.4345 57.7649 26.1129
6989 1 53.0171 59.3475 27.6955
6990 1 51.4345 57.7649 29.2781
6991 1 53.0171 59.3475 30.8607
6992 1 51.4345 57.7649 32.4433
6993 1 53.0171 59.3475 34.0259
6994 1 51.4345 57.7649 35.6085
6995 1 53.0171 59.3475 37.1911
6996 1 51.4345 57.7649 38.7737
6997 1 53.0171 59.3475 40.3563
6998 1 51.4345 57.7649 41.9389
6999 1 53.0171 59.3475 43.5215
7000 1 51.4345 57.7649 45.1041
7001 1 53.0171 59.3475 46.6867
7002 1 51.4345 57.7649 48.2693
7003 1 53.0171 59.3475 49.8519
7004 1 51.4345 57.7649 51.4345
7005 1 53.0171 59.3475 53.0171
7006 1 51.4345 57.7649 54.5997
7007 1 53.0171 59.3475 56.1823
7008 1 51.4345 57.7649 57.7649
7009 1 53.0171 59.3475 59.3475
7010 1 51.4345 57.7649 60.9301
7011 1 53.0171 59.3475 62.5127
7012 1 51.4345 60.9301 0.7913
7013 1 53.0171 62.5127 2.3739
7014 1 51.4345 60.9301 3.9565
7015 1 53.0171 62.5127 5.5391
7016 1 51.4345 60.9301 7.1217
7017 1 53.0171 62.5127 8.7043
7018 1 51.4345 60.9301 10.2869
7019 1 53.0171 62.5127 11.8695
7020 1 51.4345 60.9301 13.4521
7021 1 53.0171 62.5127 15.0347
7022 1 51.4345 60.9301 16.6173
7023 1 53.0171 62.5127 18.1999
7024 1 51.4345 60.9301 19.7825
7025 1 53.0171 62.5127 21.3651
7026 1 51.4345 60.9301 22.9477
7027 1 53.0171 62.5127 24.5303
7028 1 51.4345 60.9301 26.1129
7029 1 53.0171 62.5127 27.6955
7030 1 51.4345 60.9301 29.2781
7031 1 53.0171 62.5127 30.8607
7032 1 51.4345 60.9301 32.4433
7033 1 53.0171 62.5127 34.0259
7034 1 51.4345 60.9301 35.6085
7035 1 53.0171 62.5127 37.1911
7036 1 51.4345 60.9301 38.7737
7037 1 53.0171 62.5127 40.3563
7038 1 51.4345 60.9301 41.9389
7039 1 53.0171 62.5127 43.5215
7040 1 51.4345 60.9301 45.1041
7041 1 53.0171 62.5127 46.6867
7042 1 51.4345 60.9301 48.2693
7043 1 53.0171 62.5127 49.8519
7044 1 51.4345 60.9301 51.4345
7045 1 53.0171 62.5127 53.0171
7046 1 51.4345 60.9301 54.5997
7047 1 53.0171 62.5127 56.1823
7048 1 51.4345 60.9301 57.7649
7049 1 53.0171 62.5127 59.3475
7050 1 51.4345 60.9301 60.9301
7051 1 53.0171 62.5127 62.5127
7052 1 54.5997 0.7913 0.7913
7053 1 56.1823 2.3739 2.3739
7054 1 54.5997 0.7913 3.9565
7055 1 56.1823 2.3739 5.5391
7056 1 54.5997 0.7913 7.1217
7057 1 56.1823 2.3739 8.7043
7058 1 54.5997 0.7913 10.2869
7059 1 56.1823 2.3739 11.8695
7060 1 54.5997 0.7913 13.4521
7061 1 56.1823 2.3739 15.0347
7062 1 54.5997 0.7913 16.6173
7063 1 56.1823 2.3739 18.1999
7064 1 54.5997 0.7913 19.7825
7065 1 56.1823 2.3739 21.3651
7066 1 54.5997 0.7913 22.9477
7067 1 56.1823 2.3739 24.5303
7068 1 54.5997 0.7913 26.1129
7069 1 56.1823 2.3739 27.6955
7070 1 54.5997 0.7913 29.2781
7071 1 56.1823 2.3739 30.8607
7072 1 54.5997 0.7913 32.4433
7073 1 56.1823 2.3739 34.0259
7074 1 54.5997 0.7913 35.6085
7075 1 56.1823 2.3739 37.1911
7076 1 54.5997 0.7913 38.7737
7077 1 56.1823 2.3739 40.3563
7078 1 54.5997 0.7913 41.9389
7079 1 56.1823 2.3739 43.5215
7080 1 54.5997 0.7913 45.1041
7081 1 56.1823 2.3739 46.6867
7082 1 54.5997 0.7913 48.2693
7083 1 56.1823 2.3739 49.8519
7084 1 54.5997 0.7913 51.4345
7085 1 56.1823 2.3739 53.0171
7086 1 54.5997 0.7913 54.5997
7087 1 56.1823 2.3739 56.1823
7088 1 54.5997 0.7913 57.7649
7089 1 56.1823 2.3739 59.3475
7090 1 54.5997 0.7913 60.9301
7091 1 56.1823 2.3739 62.5127
7092 1 54.5997 3.9565 0.7913
7093 1 56.1823 5.5391 2.3739
7094 1 54.5997 3.9565 3.9565
7095 1 56.1823 5.5391 5.5391
7096 1 54.5997 3.9565 7.1217
7097 1 56.1823 5.5391 8.7043
7098 1 54.5997 3.9565 10.2869
7099 1 56.1823 5.5391 11.8695
7100 1 54.5997 3.9565 13.4521
7101 1 56.1823 5.5391 15.0347
7102 1 54.5997 3.9565 16.6173
7103 1 56.1823 5.5391 18.1999
7104 1 54.5997 3.9565 19.7825
7105 1 56.1823 5.5391 21.3651
7106 1 54.5997 3.9565 22.9477
7107 1 56.1823 5.5391 24.5303
7108 1 54.5997 3.9565 26.1129
7109 1 56.1823 5.5391 27.6955
7110 1 54.5997 3.9565 29.2781
7111 1 56.1823 5.5391 30.8607
7112 1 54.5997 3.9565 32.4433
7113 1 56.1823 5.5391 34.0259
7114 1 54.5997 3.9565 35.6085
7115 1 56.1823 5.5391 37.1911
7116 1 54.5997 3.9565 38.7737
7117 1 56.1823 5.5391 40.3563
7118 1 54.5997 3.9565 41.9389
7119 1 56.1823 5.5391 43.5215
7120 1 54.5997 3.9565 45.1041
7121 1 56.1823 5.5391 46.6867
7122 1 54.5997 3.9565 48.2693
7123 1 56.1823 5.5391 49.8519
7124 1 54.5997 3.9565 51.4345
7125 1 56.1823 5.5391 53.0171
7126 1 54.5997 3.9565 54.5997
7127 1 56.1823 5.5391 56.1823
7128 1 54.5997 3.9565 57.7649
7129 1 56.1823 5.5391 59.3475
7130 1 54.5997 3.9565 60.9301
7131 1 56.1823 5.5391 62.5127
7132 1 54.5997 7.1217 0.7913
7133 1 56.1823 8.7043 2.3739
7134 1 54.5997 7.1217 3.9565
7135 1 56.1823 8.7043 5.5391
7136 1 54.5997 7.1217 7.1217
7137 1 56.1823 8.7043 8.7043
7138 1 54.5997 7.1217 10.2869
7139 1 56.1823 8.7043 11.8695
7140 1 54.5997 7.1217 13.4521
7141 1 56.1823 8.7043 15.0347
7142 1 54.5997 7.1217 16.6173
7143 1 56.1823 8.7043 18.1999
7144 1 54.5997 7.1217 19.7825
7145 1 56.1823 8.7043 21.3651
7146 1 54.5997 7.1217 22.9477
7147 1 56.1823 8.7043 24.5303
7148 1 54.5997 7.1217 26.1129
7149 1 56.1823 8.7043 27.6955
7150 1 54.5997 7.1217 29.2781
7151 1 56.1823 8.7043 30.8607
7152 1 54.5997 7.1217 32.4433
7153 1 56.1823 8.7043 34.0259
7154 1 54.5997 7.1217 35.6085
7155 1 56.1823 8.7043 37.1911
7156 1 54.5997 7.1217 38.7737
7157 1 56.1823 8.7043 40.3563
7158 1 54.5997 7.1217 41.9389
7159 1 56.1823 8.7043 43.5215
7160 1 54.5997 7.1217 45.1041
7161 1 56.1823 8.7043 46.6867
7162 1 54.5997 7.1217 48.2693
7163 1 56.1823 8.7043 49.8519
7164 1 54.5997 7.1217 51.4345
7165 1 56.1823 8.7043 53.0171
7166 1 54.5997 7.1217 54.5997
7167 1 56.1823 8.7043 56.1823
7168 1 54.5997 7.1217 57.7649
7169 1 56.1823 8.7043 59.3475
7170 1 54.5997 7.1217 60.9301
7171 1 56.1823 8.7043 62.5127
7172 1 54.5997 10.2869 0.7913
7173 1 56.1823 11.8695 2.3739
7174 1 54.5997 10.2869 3.9565
7175 1 56.1823 11.8695 5.5391
7176 1 54.5997 10.2869 7.1217
7177 1 56.1823 11.8695 8.7043
7178 1 54.5997 10.2869 10.2869
7179 1 56.1823 11.8695 11.8695
7180 1 54.5997 10.2869 13.4521
7181 1 56.1823 11.8695 15.0347
7182 1 54.5997 10.2869 16.6173
7183 1 56.1823 11.8695 18.1999
7184 1 54.5997 10.2869 19.7825
7185 1 56.1823 11.8695 21.3651
7186 1 54.5997 10.2869 22.9477
7187 1 56.1823 11.8695 24.5303
7188 1 54.5997 10.2869 26.1129
7189 1 56.1823 11.8695 27.6955
7190 1 54.5997 10.2869 29.2781
7191 1 56.1823 11.8695 30.8607
7192 1 54.5997 10.2869 32.4433
7193 1 56.1823 11.8695 34.0259
7194 1 54.5997 10.2869 35.6085
7195 1 56.1823 11.8695 37.1911
7196 1 54.5997 10.2869 38.7737
7197 1 56.1823 11.8695 40.3563
7198 1 54.5997 10.2869 41.9389
7199 1 56.1823 11.8695 43.5215
7200 1 54.5997 10.2869 45.1041
7201 1 56.1823 11.8695 46.6867
7202 1 54.5997 10.2869 48.2693
7203 1 56.1823 11.8695 49.8519
7204 1 54.5997 10.2869 51.4345
7205 1 56.1823 11.8695 53.0171
7206 1 54.5997 10.2869 54.5997
7207 1 56.1823 11.8695 56.1823
7208 1 54.5997 10.2869 57.7649
7209 1 56.1823 11.8695 59.3475
7210 1 54.5997 10.2869 60.9301
7211 1 56.1823 11.8695 62.5127
7212 1 54.5997 13.4521 0.7913
7213 1 56.1823 15.0347 2.3739
7214 1 54.5997 13.4521 3.9565
7215 1 56.1823 15.0347 5.5391
7216 1 54.5997 13.4521 7.1217
7217 1 56.1823 15.0347 8.7043
7218 1 54.5997 13.4521 10.2869
7219 1 56.1823 15.0347 11.8695
7220 1 54.5997 13.4521 13.4521
7221 1 56.1823 15.0347 15.0347
7222 1 54.5997 13.4521 16.6173
7223 1 56.1823 15.0347 18.1999
7224 1 54.5997 13.4521 19.7825
7225 1 56.1823 15.0347 21.3651
7226 1 54.5997 13.4521 22.9477
7227 1 56.1823 15.0347 24.5303
7228 1 54.5997 13.4521 26.1129
7229 1 56.1823 15.0347 27.6955
7230 1 54.5997 13.4521 29.2781
7231 1 56.1823 15.0347 30.8607
7232 1 54.5997 13.4521 32.4433
7233 1 56.1823 15.0347 34.0259
7234 1 54.5997 13.4521 35.6085
7235 1 56.1823 15.0347 37.1911
7236 1 54.5997 13.4521 38.7737
7237 1 56.1823 15.0347 40.3563
7238 1 54.5997 13.4521 41.9389
7239 1 56.1823 15.0347 43.5215
7240 1 54.5997 13.4521 45.1041
7241 1 56.1823 15.0347 46.6867
7242 1 54.5997 13.4521 48.2693
7243 1 56.1823 15.0347 49.8519
7244 1 54.5997 13.4521 51.4345
7245 1 56.1823 15.0347 53.0171
7246 1 54.5997 13.4521 54.5997
7247 1 56.1823 15.0347 56.1823
7248 1 54.5997 13.4521 57.7649
7249 1 56.1823 15.0347 59.3475
7250 1 54.5997 13.4521 60.9301
7251 1 56.1823 15.0347 62.5127
7252 1 54.5997 16.6173 0.7913
7253 1 56.1823 18.1999 2.3739
7254 1 54.5997 16.6173 3.9565
7255 1 56.1823 18.1999 5.5391
7256 1 54.5997 16.6173 7.1217
7257 1 56.1823 18.1999 8.7043
7258 1 54.5997 16.6173 10.2869
7259 1 56.1823 18.1999 11.8695
7260 1 54.5997 16.6173 13.4521
7261 1 56.1823 18.1999 15.0347
7262 1 54.5997 16.6173 16.6173
7263 1 56.1823 18.1999 18.1999
7264 1 54.5997 16.6173 19.7825
7265 1 56.1823 18.1999 21.3651
7266 1 54.5997 16.6173 22.9477
7267 1 56.1823 18.1999 24.5303
7268 1 54.5997 16.6173 26.1129
7269 1 56.1823 18.1999 27.6955
7270 1 54.5997 16.6173 29.2781
7271 1 56.1823 18.1999 30.8607
7272 1 54.5997 16.6173 32.4433
7273 1 56.1823 18.1999 34.0259
7274 1 54.5997 16.6173 35.6085
7275 1 56.1823 18.1999 37.1911
7276 1 54.5997 16.6173 38.7737
7277 1 56.1823 18.1999 40.3563
7278 1 54.5997 16.6173 41.9389
7279 1 56.1823 18.1999 43.5215
7280 1 54.5997 16.6173 45.1041
7281 1 56.1823 18.1999 46.6867
7282 1 54.5997 16.6173 48.2693
7283 1 56.1823 18.1999 49.8519
7284 1 54.5997 16.6173 51.4345
7285 1 56.1823 18.1999 53.0171
7286 1 54.5997 16.6173 54.5997
7287 1 56.1823 18.1999 56.1823
7288 1 54.5997 16.6173 57.7649
7289 1 56.1823 18.1999 59.3475
7290 1 54.5997 16.6173 60.9301
7291 1 56.1823 18.1999 62.5127
7292 1 54.5997 19.7825 0.7913
7293 1 56.1823 21.3651 2.3739
7294 1 54.5997 19.7825 3.9565
7295 1 56.1823 21.3651 5.5391
7296 1 54.5997 19.7825 7.1217
7297 1 56.1823 21.3651 8.7043
7298 1 54.5997 19.7825 10.2869
7299 1 56.1823 21.3651 11.8695
7300 1 54.5997 19.7825 13.4521
7301 1 56.1823 21.3651 15.0347
7302 1 54.5997 19.7825 16.6173
7303 1 56.1823 21.3651 18.1999
7304 1 54.5997 19.7825 19.7825
7305 1 56.1823 21.3651 21.3651
7306 1 54.5997 19.7825 22.9477
7307 1 56.1823 21.3651 24.5303
7308 1 54.5997 19.7825 26.1129
7309 1 56.1823 21.3651 27.6955
7310 1 54.5997 19.7825 29.2781
7311 1 56.1823 21.3651 30.8607
7312 1 54.5997 19.7825 32.4433
7313 1 56.1823 21.3651 34.0259
7314 1 54.5997 19.7825 35.6085
7315 1 56.1823 21.3651 37.1911
7316 1 54.5997 19.7825 38.7737
7317 1 56.1823 21.3651 40.3563
7318 1 54.5997 19.7825 41.9389
7319 1 56.1823 21.3651 43.5215
7320 1 54.5997 19.7825 45.1041
7321 1 56.1823 21.3651 46.6867
7322 1 54.5997 19.7825 48.2693
7323 1 56.1823 21.3651 49.8519
7324 1 54.5997 19.7825 51.4345
7325 1 56.1823 21.3651 53.0171
7326 1 54.5997 19.7825 54.5997
7327 1 56.1823 21.3651 56.1823
7328 1 54.5997 19.7825 57.7649
7329 1 56.1823 21.3651 59.3475
7330 1 54.5997 19.7825 60.9301
7331 1 56.1823 21.3651 62.5127
7332 1 54.5997 22.9477 0.7913
7333 1 56.1823 24.5303 2.3739
7334 1 54.5997 22.9477 3.9565
7335 1 56.1823 24.5303 5.5391
7336 1 54.5997 22.9477 7.1217
7337 1 56.1823 24.5303 8.7043
7338 1 54.5997 22.9477 10.2869
7339 1 56.1823 24.5303 11.8695
7340 1 54.5997 22.9477 13.4521
7341 1 56.1823 24.5303 15.0347
7342 1 54.5997 22.9477 16.6173
7343 1 56.1823 24.5303 18.1999
7344 1 54.5997 22.9477 19.7825
7345 1 56.1823 24.5303 21.3651
7346 1 54.5997 22.9477 22.9477
7347 1 56.1823 24.5303 24.5303
7348 1 54.5997 22.9477 26.1129
7349 1 56.1823 24.5303 27.6955
7350 1 54.5997 22.9477 29.2781
7351 1 56.1823 24.5303 30.8607
7352 1 54.5997 22.9477 32.4433
7353 1 56.1823 24.5303 34.0259
7354 1 54.5997 22.9477 35.6085
7355 1 56.1823 24.5303 37.1911
7356 1 54.5997 22.9477 38.7737
7357 1 56.1823 24.5303 40.3563
7358 1 54.5997 22.9477 41.9389
7359 1 56.1823 24.5303 43.5215
7360 1 54.5997 22.9477 45.1041
7361 1 56.1823 24.5303 46.6867
7362 1 54.5997 22.9477 48.2693
7363 1 56.1823 24.5303 49.8519
7364 1 54.5997 22.9477 51.4345
7365 1 56.1823 24.5303 53.0171
7366 1 54.5997 22.9477 54.5997
7367 1 56.1823 24.5303 56.1823
7368 1 54.5997 22.9477 57.7649
7369 1 56.1823 24.5303 59.3475
7370 1 54.5997 22.9477 60.9301
7371 1 56.1823 24.5303 62.5127
7372 1 54.5997 26.1129 0.7913
7373 1 56.1823 27.6955 2.3739
7374 1 54.5997 26.1129 3.9565
7375 1 56.1823 27.6955 5.5391
7376 1 54.5997 26.1129 7.1217
7377 1 56.1823 27.6955 8.7043
7378 1 54.5997 26.1129 10.2869
7379 1 56.1823 27.6955 11.8695
7380 1 54.5997 26.1129 13.4521
7381 1 56.1823 27.6955 15.0347
7382 1 54.5997 26.1129 16.6173
7383 1 56.1823 27.6955 18.1999
7384 1 54.5997 26.1129 19.7825
7385 1 56.1823 27.6955 21.3651
7386 1 54.5997 26.1129 22.9477
7387 1 56.1823 27.6955 24.5303
7388 1 54.5997 26.1129 26.1129
7389 1 56.1823 27.6955 27.6955
7390 1 54.5997 26.1129 29.2781
7391 1 56.1823 27.6955 30.8607
7392 1 54.5997 26.1129 32.4433
7393 1 56.1823 27.6955 34.0259
7394 1 54.5997 26.1129 35.6085
7395 1 56.1823 27.6955 37.1911
7396 1 54.5997 26.1129 38.7737
7397 1 56.1823 27.6955 40.3563
7398 1 54.5997 26.1129 41.9389
7399 1 56.1823 27.6955 43.5215
7400 1 54.5997 26.1129 45.1041
7401 1 56.1823 27.6955 46.6867
7402 1 54.5997 26.1129 48.2693
7403 1 56.1823 27.6955 49.8519
7404 1 54.5997 26.1129 51.4345
7405 1 56.1823 27.6955 53.0171
7406 1 54.5997 26.1129 54.5997
7407 1 56.1823 27.6955 56.1823
7408 1 54.5997 26.1129 57.7649
7409 1 56.1823 27.6955 59.3475
7410 1 54.5997 26.1129 60.9301
7411 1 56.1823 27.6955 62.5127
7412 1 54.5997 29.2781 0.7913
7413 1 56.1823 30.8607 2.3739
7414 1 54.5997 29.2781 3.9565
7415 1 56.1823 30.8607 5.5391
7416 1 54.5997 29.2781 7.1217
7417 1 56.1823 30.8607 8.7043
7418 1 54.5997 29.2781 10.2869
7419 1 56.1823 30.8607 11.8695
7420 1 54.5997 29.2781 13.4521
7421 1 56.1823 30.8607 15.0347
7422 1 54.5997 29.2781 16.6173
7423 1 56.1823 30.8607 18.1999
7424 1 54.5997 29.2781 19.7825
7425 1 56.1823 30.8607 21.3651
7426 1 54.5997 29.2781 22.9477
7427 1 56.1823 30.8607 24.5303
7428 1 54.5997 29.2781 26.1129
7429 1 56.1823 30.8607 27.6955
7430 1 54.5997 29.2781 29.2781
7431 1 56.1823 30.8607 30.8607
7432 1 54.5997 29.2781 32.4433
7433 1 56.1823 30.8607 34.0259
7434 1 54.5997 29.2781 35.6085
7435 1 56.1823 30.8607 37.1911
7436 1 54.5997 29.2781 38.7737
7437 1 56.1823 30.8607 40.3563
7438 1 54.5997 29.2781 41.9389
7439 1 56.1823 30.8607 43.5215
7440 1 54.5997 29.2781 45.1041
7441 1 56.1823 30.8607 46.6867
7442 1 54.5997 29.2781 48.2693
7443 1 56.1823 30.8607 49.8519
7444 1 54.5997 29.2781 51.4345
7445 1 56.1823 30.8607 53.0171
7446 1 54.5997 29.2781 54.5997
7447 1 56.1823 30.8607 56.1823
7448 1 54.5997 29.2781 57.7649
7449 1 56.1823 30.8607 59.3475
7450 1 54.5997 29.2781 60.9301
7451 1 56.1823 30.8607 62.5127
7452 1 54.5997 32.4433 0.7913
7453 1 56.1823 34.0259 2.3739
7454 1 54.5997 32.4433 3.9565
7455 1 56.1823 34.0259 5.5391
7456 1 54.5997 32.4433 7.1217
7457 1 56.1823 34.0259 8.7043
7458 1 54.5997 32.4433 10.2869
7459 1 56.1823 34.0259 11.8695
7460 1 54.5997 32.4433 13.4521
7461 1 56.1823 34.0259 15.0347
7462 1 54.5997 32.4433 16.6173
7463 1 56.1823 34.0259 18.1999
7464 1 54.5997 32.4433 19.7825
7465 1 56.1823 34.0259 21.3651
7466 1 54.5997 32.4433 22.9477
7467 1 56.1823 34.0259 24.5303
7468 1 54.5997 32.4433 26.1129
7469 1 56.1823 34.0259 27.6955
7470 1 54.5997 32.4433 29.2781
7471 1 56.1823 34.0259 30.8607
7472 1 54.5997 32.4433 32.4433
7473 1 56.1823 34.0259 34.0259
7474 1 54.5997 32.4433 35.6085
7475 1 56.1823 34.0259 37.1911
7476 1 54.5997 32.4433 38.7737
7477 1 56.1823 34.0259 40.3563
7478 1 54.5997 32.4433 41.9389
7479 1 56.1823 34.0259 43.5215
7480 1 54.5997 32.4433 45.1041
7481 1 56.1823 34.0259 46.6867
7482 1 54.5997 32.4433 48.2693
7483 1 56.1823 34.0259 49.8519
7484 1 54.5997 32.4433 51.4345
7485 1 56.1823 34.0259 53.0171
7486 1 54.5997 32.4433 54.5997
7487 1 56.1823 34.0259 56.1823
7488 1 54.5997 32.4433 57.7649
7489 1 56.1823 34.0259 59.3475
7490 1 54.5997 32.4433 60.9301
7491 1 56.1823 34.0259 62.5127
7492 1 54.5997 35.6085 0.7913
7493 1 56.1823 37.1911 2.3739
7494 1 54.5997 35.6085 3.9565
7495 1 56.1823 37.1911 5.5391
7496 1 54.5997 35.6085 7.1217
7497 1 56.1823 37.1911 8.7043
7498 1 54.5997 35.6085 10.2869
7499 1 56.1823 37.1911 11.8695
7500 1 54.5997 35.6085 13.4521
7501 1 56.1823 37.1911 15.0347
7502 1 54.5997 35.6085 16.6173
7503 1 56.1823 37.1911 18.1999
7504 1 54.5997 35.6085 19.7825
7505 1 56.1823 37.1911 21.3651
7506 1 54.5997 35.6085 22.9477
7507 1 56.1823 37.1911 24.5303
7508 1 54.5997 35.6085 26.1129
7509 1 56.1823 37.1911 27.6955
7510 1 54.5997 35.6085 29.2781
7511 1 56.1823 37.1911 30.8607
7512 1 54.5997 35.6085 32.4433
7513 1 56.1823 37.1911 34.0259
7514 1 54.5997 35.6085 35.6085
7515 1 56.1823 37.1911 37.1911
7516 1 54.5997 35.6085 38.7737
7517 1 56.1823 37.1911 40.3563
7518 1 54.5997 35.6085 41.9389
7519 1 56.1823 37.1911 43.5215
7520 1 54.5997 35.6085 45.1041
7521 1 56.1823 37.1911 46.6867
7522 1 54.5997 35.6085 48.2693
7523 1 56.1823 37.1911 49.8519
7524 1 54.5997 35.6085 51.4345
7525 1 56.1823 37.1911 53.0171
7526 1 54.5997 35.6085 54.5997
7527 1 56.1823 37.1911 56.1823
7528 1 54.5997 35.6085 57.7649
7529 1 56.1823 37.1911 59.3475
7530 1 54.5997 35.6085 60.9301
7531 1 56.1823 37.1911 62.5127
7532 1 54.5997 38.7737 0.7913
7533 1 56.1823 40.3563 2.3739
7534 1 54.5997 38.7737 3.9565
7535 1 56.1823 40.3563 5.5391
7536 1 54.5997 38.7737 7.1217
7537 1 56.1823 40.3563 8.7043
7538 1 54.5997 38.7737 10.2869
7539 1 56.1823 40.3563 11.8695
7540 1 54.5997 38.7737 13.4521
7541 1 56.1823 40.3563 15.0347
7542 1 54.5997 38.7737 16.6173
7543 1 56.1823 40.3563 18.1999
7544 1 54.5997 38.7737 19.7825
7545 1 56.1823 40.3563 21.3651
7546 1 54.5997 38.7737 22.9477
7547 1 56.1823 40.3563 24.5303
7548 1 54.5997 38.7737 26.1129
7549 1 56.1823 40.3563 27.6955
7550 1 54.5997 38.7737 29.2781
7551 1 56.1823 40.3563 30.8607
7552 1 54.5997 38.7737 32.4433
7553 1 56.1823 40.3563 34.0259
7554 1 54.5997 38.7737 35.6085
7555 1 56.1823 40.3563 37.1911
7556 1 54.5997 38.7737 38.7737
7557 1 56.1823 40.3563 40.3563
7558 1 54.5997 38.7737 41.9389
7559 1 56.1823 40.3563 43.5215
7560 1 54.5997 38.7737 45.1041
7561 1 56.1823 40.3563 46.6867
7562 1 54.5997 38.7737 48.2693
7563 1 56.1823 40.3563 49.8519
7564 1 54.5997 38.7737 51.4345
7565 1 56.1823 40.3563 53.0171
7566 1 54.5997 38.7737 54.5997
7567 1 56.1823 40.3563 56.1823
7568 1 54.5997 38.7737 57.7649
7569 1 56.1823 40.3563 59.3475
7570 1 54.5997 38.7737 60.9301
7571 1 56.1823 40.3563 62.5127
7572 1 54.5997 41.9389 0.7913
7573 1 56.1823 43.5215 2.3739
7574 1 54.5997 41.9389 3.9565
7575 1 56.1823 43.5215 5.5391
7576 1 54.5997 41.9389 7.1217
7577 1 56.1823 43.5215 8.7043
7578 1 54.5997 41.9389 10.2869
7579 1 56.1823 43.5215 11.8695
7580 1 54.5997 41.9389 13.4521
7581 1 56.1823 43.5215 15.0347
7582 1 54.5997 41.9389 16.6173
7583 1 56.1823 43.5215 18.1999
7584 1 54.5997 41.9389 19.7825
7585 1 56.1823 43.5215 21.3651
7586 1 54.5997 41.9389 22.9477
7587 1 56.1823 43.5215 24.5303
7588 1 54.5997 41.9389 26.1129
7589 1 56.1823 43.5215 27.6955
7590 1 54.5997 41.9389 29.2781
7591 1 56.1823 43.5215 30.8607
7592 1 54.5997 41.9389 32.4433
7593 1 56.1823 43.5215 34.0259
7594 1 54.5997 41.9389 35.6085
7595 1 56.1823 43.5215 37.1911
7596 1 54.5997 41.9389 38.7737
7597 1 56.1823 43.5215 40.3563
7598 1 54.5997 41.9389 41.9389
7599 1 56.1823 43.5215 43.5215
7600 1 54.5997 41.9389 45.1041
7601 1 56.1823 43.5215 46.6867
7602 1 54.5997 41.9389 48.2693
7603 1 56.1823 43.5215 49.8519
7604 1 54.5997 41.9389 51.4345
7605 1 56.1823 43.5215 53.0171
7606 1 54.5997 41.9389 54.5997
7607 1 56.1823 43.5215 56.1823
7608 1 54.5997 41.9389 57.7649
7609 1 56.1823 43.5215 59.3475
7610 1 54.5997 41.9389 60.9301
7611 1 56.1823 43.5215 62.5127
7612 1 54.5997 45.1041 0.7913
7613 1 56.1823 46.6867 2.3739
7614 1 54.5997 45.1041 3.9565
7615 1 56.1823 46.6867 5.5391
7616 1 54.5997 45.1041 7.1217
7617 1 56.1823 46.6867 8.7043
7618 1 54.5997 45.1041 10.2869
7619 1 56.1823 46.6867 11.8695
7620 1 54.5997 45.1041 13.4521
7621 1 56.1823 46.6867 15.0347
7622 1 54.5997 45.1041 16.6173
7623 1 56.1823 46.6867 18.1999
7624 1 54.5997 45.1041 19.7825
7625 1 56.1823 46.6867 21.3651
7626 1 54.5997 45.1041 22.9477
7627 1 56.1823 46.6867 24.5303
7628 1 54.5997 45.1041 26.1129
7629 1 56.1823 46.6867 27.6955
7630 1 54.5997 45.1041 29.2781
7631 1 56.1823 46.6867 30.8607
7632 1 54.5997 45.1041 32.4433
7633 1 56.1823 46.6867 34.0259
7634 1 54.5997 45.1041 35.6085
7635 1 56.1823 46.6867 37.1911
7636 1 54.5997 45.1041 38.7737
7637 1 56.1823 46.6867 40.3563
7638 1 54.5997 45.1041 41.9389
7639 1 56.1823 46.6867 43.5215
7640 1 54.5997 45.1041 45.1041
7641 1 56.1823 46.6867 46.6867
7642 1 54.5997 45.1041 48.2693
7643 1 56.1823 46.6867 49.8519
7644 1 54.5997 45.1041 51.4345
7645 1 56.1823 46.6867 53.0171
7646 1 54.5997 45.1041 54.5997
7647 1 56.1823 46.6867 56.1823
7648 1 54.5997 45.1041 57.7649
7649 1 56.1823 46.6867 59.3475
7650 1 54.5997 45.1041 60.9301
7651 1 56.1823 46.6867 62.5127
7652 1 54.5997 48.2693 0.7913
7653 1 56.1823 49.8519 2.3739
7654 1 54.5997 48.2693 3.9565
7655 1 56.1823 49.8519 5.5391
7656 1 54.5997 48.2693 7.1217
7657 1 56.1823 49.8519 8.7043
7658 1 54.5997 48.2693 10.2869
7659 1 56.1823 49.8519 11.8695
7660 1 54.5997 48.2693 13.4521
7661 1 56.1823 49.8519 15.0347
7662 1 54.5997 48.2693 16.6173
7663 1 56.1823 49.8519 18.1999
7664 1 54.5997 48.2693 19.7825
7665 1 56.1823 49.8519 21.3651
7666 1 54.5997 48.2693 22.9477
7667 1 56.1823 49.8519 24.5303
7668 1 54.5997 48.2693 26.1129
7669 1 56.1823 49.8519 27.6955
7670 1 54.5997 48.2693 29.2781
7671 1 56.1823 49.8519 30.8607
7672 1 54.5997 48.2693 32.4433
7673 1 56.1823 49.8519 34.0259
7674 1 54.5997 48.2693 35.6085
7675 1 56.1823 49.8519 37.1911
7676 1 54.5997 48.2693 38.7737
7677 1 56.1823 49.8519 40.3563
7678 1 54.5997 48.2693 41.9389
7679 1 56.1823 49.8519 43.5215
7680 1 54.5997 48.2693 45.1041
7681 1 56.1823 49.8519 46.6867
7682 1 54.5997 48.2693 48.2693
7683 1 56.1823 49.8519 49.8519
7684 1 54.5997 48.2693 51.4345
7685 1 56.1823 49.8519 53.0171
7686 1 54.5997 48.2693 54.5997
7687 1 56.1823 49.8519 56.1823
7688 1 54.5997 48.2693 57.7649
7689 1 56.1823 49.8519 59.3475
7690 1 54.5997 48.2693 60.9301
7691 1 56.1823 49.8519 62.5127
7692 1 54.5997 51.4345 0.7913
7693 1 56.1823 53.0171 2.3739
7694 1 54.5997 51.4345 3.9565
7695 1 56.1823 53.0171 5.5391
7696 1 54.5997 51.4345 7.1217
7697 1 56.1823 53.0171 8.7043
7698 1 54.5997 51.4345 10.2869
7699 1 56.1823 53.0171 11.8695
7700 1 54.5997 51.4345 13.4521
7701 1 56.1823 53.0171 15.0347
7702 1 54.5997 51.4345 16.6173
7703 1 56.1823 53.0171 18.1999
7704 1 54.5997 51.4345 19.7825
7705 1 56.1823 53.0171 21.3651
7706 1 54.5997 51.4345 22.9477
7707 1 56.1823 53.0171 24.5303
7708 1 54.5997 51.4345 26.1129
7709 1 56.1823 53.0171 27.6955
7710 1 54.5997 51.4345 29.2781
7711 1 56.1823 53.0171 30.8607
7712 1 54.5997 51.4345 32.4433
7713 1 56.1823 53.0171 34.0259
7714 1 54.5997 51.4345 35.6085
7715 1 56.1823 53.0171 37.1911
7716 1 54.5997 51.4345 38.7737
7717 1 56.1823 53.0171 40.3563
7718 1 54.5997 51.4345 41.9389
7719 1 56.1823 53.0171 43.5215
7720 1 54.5997 51.4345 45.1041
7721 1 56.1823 53.0171 46.6867
7722 1 54.5997 51.4345 48.2693
7723 1 56.1823 53.0171 49.8519
7724 1 54.5997 51.4345 51.4345
7725 1 56.1823 53.0171 53.0171
7726 1 54.5997 51.4345 54.5997
7727 1 56.1823 53.0171 56.1823
7728 1 54.5997 51.4345 57.7649
7729 1 56.1823 53.0171 59.3475
7730 1 54.5997 51.4345 60.9301
7731 1 56.1823 53.0171 62.5127
7732 1 54.5997 54.5997 0.7913
7733 1 56.1823 56.1823 2.3739
7734 1 54.5997 54.5997 3.9565
7735 1 56.1823 56.1823 5.5391
7736 1 54.5997 54.5997 7.1217
7737 1 56.1823 56.1823 8.7043
7738 1 54.5997 54.5997 10.2869
7739 1 56.1823 56.1823 11.8695
7740 1 54.5997 54.5997 13.4521
7741 1 56.1823 56.1823 15.0347
7742 1 54.5997 54.5997 16.6173
7743 1 56.1823 56.1823 18.1999
7744 1 54.5997 54.5997 19.7825
7745 1 56.1823 56.1823 21.3651
7746 1 54.5997 54.5997 22.9477
7747 1 56.1823 56.1823 24.5303
7748 1 54.5997 54.5997 26.1129
7749 1 56.1823 56.1823 27.6955
7750 1 54.5997 54.5997 29.2781
7751 1 56.1823 56.1823 30.8607
7752 1 54.5997 54.5997 32.4433
7753 1 56.1823 56.1823 34.0259
7754 1 54.5997 54.5997 35.6085
7755 1 56.1823 56.1823 37.1911
7756 1 54.5997 54.5997 38.7737
7757 1 56.1823 56.1823 40.3563
7758 1 54.5997 54.5997 41.9389
7759 1 56.1823 56.1823 43.5215
7760 1 54.5997 54.5997 45.1041
7761 1 56.1823 56.1823 46.6867
7762 1 54.5997 54.5997 48.2693
7763 1 56.1823 56.1823 49.8519
7764 1 54.5997 54.5997 51.4345
7765 1 56.1823 56.1823 53.0171
7766 1 54.5997 54.5997 54.5997
7767 1 56.1823 56.1823 56.1823
7768 1 54.5997 54.5997 57.7649
7769 1 56.1823 56.1823 59.3475
7770 1 54.5997 54.5997 60.9301
7771 1 56.1823 56.1823 62.5127
7772 1 54.5997 57.7649 0.7913
7773 1 56.1823 59.3475 2.3739
7774 1 54.5997 57.7649 3.9565
7775 1 56.1823 59.3475 5.5391
7776 1 54.5997 57.7649 7.1217
7777 1 56.1823 59.3475 8.7043
7778 1 54.5997 57.7649 10.2869
7779 1 56.1823 59.3475 11.8695
7780 1 54.5997 57.7649 13.4521
7781 1 56.1823 59.3475 15.0347
7782 1 54.5997 57.7649 16.6173
7783 1 56.1823 59.3475 18.1999
7784 1 54.5997 57.7649 19.7825
7785 1 56.1823 59.3475 21.3651
7786 1 54.5997 57.7649 22.9477
7787 1 56.1823 59.3475 24.5303
7788 1 54.5997 57.7649 26.1129
7789 1 56.1823 59.3475 27.6955
7790 1 54.5997 57.7649 29.2781
7791 1 56.1823 59.3475 30.8607
7792 1 54.5997 57.7649 32.4433
7793 1 56.1823 59.3475 34.0259
7794 1 54.5997 57.7649 35.6085
7795 1 56.1823 59.3475 37.1911
7796 1 54.5997 57.7649 38.7737
7797 1 56.1823 59.3475 40.3563
7798 1 54.5997 57.7649 41.9389
7799 1 56.1823 59.3475 43.5215
7800 1 54.5997 57.7649 45.1041
7801 1 56.1823 59.3475 46.6867
7802 1 54.5997 57.7649 48.2693
7803 1 56.1823 59.3475 49.8519
7804 1 54.5997 57.7649 51.4345
7805 1 56.1823 59.3475 53.0171
7806 1 54.5997 57.7649 54.5997
7807 1 56.1823 59.3475 56.1823
7808 1 54.5997 57.7649 57.7649
7809 1 56.1823 59.3475 59.3475
7810 1 54.5997 57.7649 60.9301
7811 1 56.1823 59.3475 62.5127
7812 1 54.5997 60.9301 0.7913
7813 1 56.1823 62.5127 2.3739
7814 1 54.5997 60.9301 3.9565
7815 1 56.1823 62.5127 5.5391
7816 1 54.5997 60.9301 7.1217
7817 1 56.1823 62.5127 8.7043
7818 1 54.5997 60.9301 10.2869
7819 1 56.1823 62.5127 11.8695
7820 1 54.5997 60.9301 13.4521
7821 1 56.1823 62.5127 15.0347
7822 1 54.5997 60.9301 16.6173
7823 1 56.1823 62.5127 18.1999
7824 1 54.5997 60.9301 19.7825
7825 1 56.1823 62.5127 21.3651
7826 1 54.5997 60.9301 22.9477
7827 1 56.1823 62.5127 24.5303
7828 1 54.5997 60.9301 26.1129
7829 1 56.1823 62.5127 27.6955
7830 1 54.5997 60.9301 29.2781
7831 1 56.1823 62.5127 30.8607
7832 1 54.5997 60.9301 32.4433
7833 1 56.1823 62.5127 34.0259
7834 1 54.5997 60.9301 35.6085
7835 1 56.1823 62.5127 37.1911
7836 1 54.5997 60.9301 38.7737
7837 1 56.1823 62.5127 40.3563
7838 1 54.5997 60.9301 41.9389
7839 1 56.1823 62.5127 43.5215
7840 1 54.5997 60.9301 45.1041
7841 1 56.1823 62.5127 46.6867
7842 1 54.5997 60.9301 48.2693
7843 1 56.1823 62.5127 49.8519
7844 1 54.5997 60.9301 51.4345
7845 1 56.1823 62.5127 53.0171
7846 1 54.5997 60.9301 54.5997
7847 1 56.1823 62.5127 56.1823
7848 1 54.5997 60.9301 57.7649
7849 1 56.1823 62.5127 59.3475
7850 1 54.5997 60.9301 60.9301
7851 1 56.1823 62.5127 62.5127
7852 1 57.7649 0.7913 0.7913
7853 1 59.3475 2.3739 2.3739
7854 1 57.7649 0.7913 3.9565
7855 1 59.3475 2.3739 5.5391
7856 1 57.7649 0.7913 7.1217
7857 1 59.3475 2.3739 8.7043
7858 1 57.7649 0.7913 10.2869
7859 1 59.3475 2.3739 11.8695
7860 1 57.7649 0.7913 13.4521
7861 1 59.3475 2.3739 15.0347
7862 1 57.7649 0.7913 16.6173
7863 1 59.3475 2.3739 18.1999
7864 1 57.7649 0.7913 19.7825
7865 1 59.3475 2.3739 21.3651
7866 1 57.7649 0.7913 22.9477
7867 1 59.3475 2.3739 24.5303
7868 1 57.7649 0.7913 26.1129
7869 1 59.3475 2.3739 27.6955
7870 1 57.7649 0.7913 29.2781
7871 1 59.3475 2.3739 30.8607
7872 1 57.7649 0.7913 32.4433
7873 1 59.3475 2.3739 34.0259
7874 1 57.7649 0.7913 35.6085
7875 1 59.3475 2.3739 37.1911
7876 1 57.7649 0.7913 38.7737
7877 1 59.3475 2.3739 40.3563
7878 1 57.7649 0.7913 41.9389
7879 1 59.3475 2.3739 43.5215
7880 1 57.7649 0.7913 45.1041
7881 1 59.3475 2.3739 46.6867
7882 1 57.7649 0.7913 48.2693
7883 1 59.3475 2.3739 49.8519
7884 1 57.7649 0.7913 51.4345
7885 1 59.3475 2.3739 53.0171
7886 1 57.7649 0.7913 54.5997
7887 1 59.3475 2.3739 56.1823
7888 1 57.7649 0.7913 57.7649
7889 1 59.3475 2.3739 59.3475
7890 1 57.7649 0.7913 60.9301
7891 1 59.3475 2.3739 62.5127
7892 1 57.7649 3.9565 0.7913
7893 1 59.3475 5.5391 2.3739
7894 1 57.7649 3.9565 3.9565
7895 1 59.3475 5.5391 5.5391
7896 1 57.7649 3.9565 7.1217
7897 1 59.3475 5.5391 8.7043
7898 1 57.7649 3.9565 10.2869
7899 1 59.3475 5.5391 11.8695
7900 1 57.7649 3.9565 13.4521
7901 1 59.3475 5.5391 15.0347
7902 1 57.7649 3.9565 16.6173
7903 1 59.3475 5.5391 18.1999
7904 1 57.7649 3.9565 19.7825
7905 1 59.3475 5.5391 21.3651
7906 1 57.7649 3.9565 22.9477
7907 1 59.3475 5.5391 24.5303
7908 1 57.7649 3.9565 26.1129
7909 1 59.3475 5.5391 27.6955
7910 1 57.7649 3.9565 29.2781
7911 1 59.3475 5.5391 30.8607
7912 1 57.7649 3.9565 32.4433
7913 1 59.3475 5.5391 34.0259
7914 1 57.7649 3.9565 35.6085
7915 1 59.3475 5.5391 37.1911
7916 1 57.7649 3.9565 38.7737
7917 1 59.3475 5.5391 40.3563
7918 1 57.7649 3.9565 41.9389
7919 1 59.3475 5.5391 43.5215
7920 1 57.7649 3.9565 45.1041
7921 1 59.3475 5.5391 46.6867
7922 1 57.7649 3.9565 48.2693
7923 1 59.3475 5.5391 49.8519
7924 1 57.7649 3.9565 51.4345
7925 1 59.3475 5.5391 53.0171
7926 1 57.7649 3.9565 54.5997
7927 1 59.3475 5.5391 56.1823
7928 1 57.7649 3.9565 57.7649
7929 1 59.3475 5.5391 59.3475
7930 1 57.7649 3.9565 60.9301
7931 1 59.3475 5.5391 62.5127
7932 1 57.7649 7.1217 0.7913
7933 1 59.3475 8.7043 2.3739
7934 1 57.7649 7.1217 3.9565
7935 1 59.3475 8.7043 5.5391
7936 1 57.7649 7.1217 7.1217
7937 1 59.3475 8.7043 8.7043
7938 1 57.7649 7.1217 10.2869
7939 1 59.3475 8.7043 11.8695
7940 1 57.7649 7.1217 13.4521
7941 1 59.3475 8.7043 15.0347
7942 1 57.7649 7.1217 16.6173
7943 1 59.3475 8.7043 18.1999
7944 1 57.7649 7.1217 19.7825
7945 1 59.3475 8.7043 21.3651
7946 1 57.7649 7.1217 22.9477
7947 1 59.3475 8.7043 24.5303
7948 1 57.7649 7.1217 26.1129
7949 1 59.3475 8.7043 27.6955
7950 1 57.7649 7.1217 29.2781
7951 1 59.3475 8.7043 30.8607
7952 1 57.7649 7.1217 32.4433
7953 1 59.3475 8.7043 34.0259
7954 1 57.7649 7.1217 35.6085
7955 1 59.3475 8.7043 37.1911
7956 1 57.7649 7.1217 38.7737
7957 1 59.3475 8.7043 40.3563
7958 1 57.7649 7.1217 41.9389
7959 1 59.3475 8.7043 43.5215
7960 1 57.7649 7.1217 45.1041
7961 1 59.3475 8.7043 46.6867
7962 1 57.7649 7.1217 48.2693
7963 1 59.3475 8.7043 49.8519
7964 1 57.7649 7.1217 51.4345
7965 1 59.3475 8.7043 53.0171
7966 1 57.7649 7.1217 54.5997
7967 1 59.3475 8.7043 56.1823
7968 1 57.7649 7.1217 57.7649
7969 1 59.3475 8.7043 59.3475
7970 1 57.7649 7.1217 60.9301
7971 1 59.3475 8.7043 62.5127
7972 1 57.7649 10.2869 0.7913
7973 1 59.3475 11.8695 2.3739
7974 1 57.7649 10.2869 3.9565
7975 1 59.3475 11.8695 5.5391
7976 1 57.7649 10.2869 7.1217
7977 1 59.3475 11.8695 8.7043
7978 1 57.7649 10.2869 10.2869
7979 1 59.3475 11.8695 11.8695
7980 1 57.7649 10.2869 13.4521
7981 1 59.3475 11.8695 15.0347
7982 1 57.7649 10.2869 16.6173
7983 1 59.3475 11.8695 18.1999
7984 1 57.7649 10.2869 19.7825
7985 1 59.3475 11.8695 21.3651
7986 1 57.7649 10.2869 22.9477
7987 1 59.3475 11.8695 24.5303
7988 1 57.7649 10.2869 26.1129
7989 1 59.3475 11.8695 27.6955
7990 1 57.7649 10.2869 29.2781
7991 1 59.3475 11.8695 30.8607
7992 1 57.7649 10.2869 32.4433
7993 1 59.3475 11.8695 34.0259
7994 1 57.7649 10.2869 35.6085
7995 1 59.3475 11.8695 37.1911
7996 1 57.7649 10.2869 38.7737
7997 1 59.3475 11.8695 40.3563
7998 1 57.7649 10.2869 41.9389
7999 1 59.3475 11.8695 43.5215
8000 1 57.7649 10.2869 45.1041
8001 1 59.3475 11.8695 46.6867
8002 1 57.7649 10.2869 48.2693
8003 1 59.3475 11.8695 49.8519
8004 1 57.7649 10.2869 51.4345
8005 1 59.3475 11.8695 53.0171
8006 1 57.7649 10.2869 54.5997
8007 1 59.3475 11.8695 56.1823
8008 1 57.7649 10.2869 57.7649
8009 1 59.3475 11.8695 59.3475
8010 1 57.7649 10.2869 60.9301
8011 1 59.3475 11.8695 62.5127
8012 1 57.7649 13.4521 0.7913
8013 1 59.3475 15.0347 2.3739
8014 1 57.7649 13.4521 3.9565
8015 1 59.3475 15.0347 5.5391
8016 1 57.7649 13.4521 7.1217
8017 1 59.3475 15.0347 8.7043
8018 1 57.7649 13.4521 10.2869
8019 1 59.3475 15.0347 11.8695
8020 1 57.7649 13.4521 13.4521
8021 1 59.3475 15.0347 15.0347
8022 1 57.7649 13.4521 16.6173
8023 1 59.3475 15.0347 18.1999
8024 1 57.7649 13.4521 19.7825
8025 1 59.3475 15.0347 21.3651
8026 1 57.7649 13.4521 22.9477
8027 1 59.3475 15.0347 24.5303
8028 1 57.7649 13.4521 26.1129
8029 1 59.3475 15.0347 27.6955
8030 1 57.7649 13.4521 29.2781
8031 1 59.3475 15.0347 30.8607
8032 1 57.7649 13.4521 32.4433
8033 1 59.3475 15.0347 34.0259
8034 1 57.7649 13.4521 35.6085
8035 1 59.3475 15.0347 37.1911
8036 1 57.7649 13.4521 38.7737
8037 1 59.3475 15.0347 40.3563
8038 1 57.7649 13.4521 41.9389
8039 1 59.3475 15.0347 43.5215
8040 1 57.7649 13.4521 45.1041
8041 1 59.3475 15.0347 46.6867
8042 1 57.7649 13.4521 48.2693
8043 1 59.3475 15.0347 49.8519
8044 1 57.7649 13.4521 51.4345
8045 1 59.3475 15.0347 53.0171
8046 1 57.7649 13.4521 54.5997
8047 1 59.3475 15.0347 56.1823
8048 1 57.7649 13.4521 57.7649
8049 1 59.3475 15.0347 59.3475
8050 1 57.7649 13.4521 60.9301
8051 1 59.3475 15.0347 62.5127
8052 1 57.7649 16.6173 0.7913
8053 1 59.3475 18.1999 2.3739
8054 1 57.7649 16.6173 3.9565
8055 1 59.3475 18.1999 5.5391
8056 1 57.7649 16.6173 7.1217
8057 1 59.3475 18.1999 8.7043
8058 1 57.7649 16.6173 10.2869
8059 1 59.3475 18.1999 11.8695
8060 1 57.7649 16.6173 13.4521
8061 1 59.3475 18.1999 15.0347
8062 1 57.7649 16.6173 16.6173
8063 1 59.3475 18.1999 18.1999
8064 1 57.7649 16.6173 19.7825
8065 1 59.3475 18.1999 21.3651
8066 1 57.7649 16.6173 22.9477
8067 1 59.3475 18.1999 24.5303
8068 1 57.7649 16.6173 26.1129
8069 1 59.3475 18.1999 27.6955
8070 1 57.7649 16.6173 29.2781
8071 1 59.3475 18.1999 30.8607
8072 1 57.7649 16.6173 32.4433
8073 1 59.3475 18.1999 34.0259
8074 1 57.7649 16.6173 35.6085
8075 1 59.3475 18.1999 37.1911
8076 1 57.7649 16.6173 38.7737
8077 1 59.3475 18.1999 40.3563
8078 1 57.7649 16.6173 41.9389
8079 1 59.3475 18.1999 43.5215
8080 1 57.7649 16.6173 45.1041
8081 1 59.3475 18.1999 46.6867
8082 1 57.7649 16.6173 48.2693
8083 1 59.3475 18.1999 49.8519
8084 1 57.7649 16.6173 51.4345
8085 1 59.3475 18.1999 53.0171
8086 1 57.7649 16.6173 54.5997
8087 1 59.3475 18.1999 56.1823
8088 1 57.7649 16.6173 57.7649
8089 1 59.3475 18.1999 59.3475
8090 1 57.7649 16.6173 60.9301
8091 1 59.3475 18.1999 62.5127
8092 1 57.7649 19.7825 0.7913
8093 1 59.3475 21.3651 2.3739
8094 1 57.7649 19.7825 3.9565
8095 1 59.3475 21.3651 5.5391
8096 1 57.7649 19.7825 7.1217
8097 1 59.3475 21.3651 8.7043
8098 1 57.7649 19.7825 10.2869
8099 1 59.3475 21.3651 11.8695
8100 1 57.7649 19.7825 13.4521
8101 1 59.3475 21.3651 15.0347
8102 1 57.7649 19.7825 16.6173
8103 1 59.3475 21.3651 18.1999
8104 1 57.7649 19.7825 19.7825
8105 1 59.3475 21.3651 21.3651
8106 1 57.7649 19.7825 22.9477
8107 1 59.3475 21.3651 24.5303
8108 1 57.7649 19.7825 26.1129
8109 1 59.3475 21.3651 27.6955
8110 1 57.7649 19.7825 29.2781
8111 1 59.3475 21.3651 30.8607
8112 1 57.7649 19.7825 32.4433
8113 1 59.3475 21.3651 34.0259
8114 1 57.7649 19.7825 35.6085
8115 1 59.3475 21.3651 37.1911
8116 1 57.7649 19.7825 38.7737
8117 1 59.3475 21.3651 40.3563
8118 1 57.7649 19.7825 41.9389
8119 1 59.3475 21.3651 43.5215
8120 1 57.7649 19.7825 45.1041
8121 1 59.3475 21.3651 46.6867
8122 1 57.7649 19.7825 48.2693
8123 1 59.3475 21.3651 49.8519
8124 1 57.7649 19.7825 51.4345
8125 1 59.3475 21.3651 53.0171
8126 1 57.7649 19.7825 54.5997
8127 1 59.3475 21.3651 56.1823
8128 1 57.7649 19.7825 57.7649
8129 1 59.3475 21.3651 59.3475
8130 1 57.7649 19.7825 60.9301
8131 1 59.3475 21.3651 62.5127
8132 1 57.7649 22.9477 0.7913
8133 1 59.3475 24.5303 2.3739
8134 1 57.7649 22.9477 3.9565
8135 1 59.3475 24.5303 5.5391
8136 1 57.7649 22.9477 7.1217
8137 1 59.3475 24.5303 8.7043
8138 1 57.7649 22.9477 10.2869
8139 1 59.3475 24.5303 11.8695
8140 1 57.7649 22.9477 13.4521
8141 1 59.3475 24.5303 15.0347
8142 1 57.7649 22.9477 16.6173
8143 1 59.3475 24.5303 18.1999
8144 1 57.7649 22.9477 19.7825
8145 1 59.3475 24.5303 21.3651
8146 1 57.7649 22.9477 22.9477
8147 1 59.3475 24.5303 24.5303
8148 1 57.7649 22.9477 26.1129
8149 1 59.3475 24.5303 27.6955
8150 1 57.7649 22.9477 29.2781
8151 1 59.3475 24.5303 30.8607
8152 1 57.7649 22.9477 32.4433
8153 1 59.3475 24.5303 34.0259
8154 1 57.7649 22.9477 35.6085
8155 1 59.3475 24.5303 37.1911
8156 1 57.7649 22.9477 38.7737
8157 1 59.3475 24.5303 40.3563
8158 1 57.7649 22.9477 41.9389
8159 1 59.3475 24.5303 43.5215
8160 1 57.7649 22.9477 45.1041
8161 1 59.3475 24.5303 46.6867
8162 1 57.7649 22.9477 48.2693
8163 1 59.3475 24.5303 49.8519
8164 1 57.7649 22.9477 51.4345
8165 1 59.3475 24.5303 53.0171
8166 1 57.7649 22.9477 54.5997
8167 1 59.3475 24.5303 56.1823
8168 1 57.7649 22.9477 57.7649
8169 1 59.3475 24.5303 59.3475
8170 1 57.7649 22.9477 60.9301
8171 1 59.3475 24.5303 62.5127
8172 1 57.7649 26.1129 0.7913
8173 1 59.3475 27.6955 2.3739
8174 1 57.7649 26.1129 3.9565
8175 1 59.3475 27.6955 5.5391
8176 1 57.7649 26.1129 7.1217
8177 1 59.3475 27.6955 8.7043
8178 1 57.7649 26.1129 10.2869
8179 1 59.3475 27.6955 11.8695
8180 1 57.7649 26.1129 13.4521
8181 1 59.3475 27.6955 15.0347
8182 1 57.7649 26.1129 16.6173
8183 1 59.3475 27.6955 18.1999
8184 1 57.7649 26.1129 19.7825
8185 1 59.3475 27.6955 21.3651
8186 1 57.7649 26.1129 22.9477
8187 1 59.3475 27.6955 24.5303
8188 1 57.7649 26.1129 26.1129
8189 1 59.3475 27.6955 27.6955
8190 1 57.7649 26.1129 29.2781
8191 1 59.3475 27.6955 30.8607
8192 1 57.7649 26.1129 32.4433
8193 1 59.3475 27.6955 34.0259
8194 1 57.7649 26.1129 35.6085
8195 1 59.3475 27.6955 37.1911
8196 1 57.7649 26.1129 38.7737
8197 1 59.3475 27.6955 40.3563
8198 1 57.7649 26.1129 41.9389
8199 1 59.3475 27.6955 43.5215
8200 1 57.7649 26.1129 45.1041
8201 1 59.3475 27.6955 46.6867
8202 1 57.7649 26.1129 48.2693
8203 1 59.3475 27.6955 49.8519
8204 1 57.7649 26.1129 51.4345
8205 1 59.3475 27.6955 53.0171
8206 1 57.7649 26.1129 54.5997
8207 1 59.3475 27.6955 56.1823
8208 1 57.7649 26.1129 57.7649
8209 1 59.3475 27.6955 59.3475
8210 1 57.7649 26.1129 60.9301
8211 1 59.3475 27.6955 62.5127
8212 1 57.7649 29.2781 0.7913
8213 1 59.3475 30.8607 2.3739
8214 1 57.7649 29.2781 3.9565
8215 1 59.3475 30.8607 5.5391
8216 1 57.7649 29.2781 7.1217
8217 1 59.3475 30.8607 8.7043
8218 1 57.7649 29.2781 10.2869
8219 1 59.3475 30.8607 11.8695
8220 1 57.7649 29.2781 13.4521
8221 1 59.3475 30.8607 15.0347
8222 1 57.7649 29.2781 16.6173
8223 1 59.3475 30.8607 18.1999
8224 1 57.7649 29.2781 19.7825
8225 1 59.3475 30.8607 21.3651
8226 1 57.7649 29.2781 22.9477
8227 1 59.3475 30.8607 24.5303
8228 1 57.7649 29.2781 26.1129
8229 1 59.3475 30.8607 27.6955
8230 1 57.7649 29.2781 29.2781
8231 1 59.3475 30.8607 30.8607
8232 1 57.7649 29.2781 32.4433
8233 1 59.3475 30.8607 34.0259
8234 1 57.7649 29.2781 35.6085
8235 1 59.3475 30.8607 37.1911
8236 1 57.7649 29.2781 38.7737
8237 1 59.3475 30.8607 40.3563
8238 1 57.7649 29.2781 41.9389
8239 1 59.3475 30.8607 43.5215
8240 1 57.7649 29.2781 45.1041
8241 1 59.3475 30.8607 46.6867
8242 1 57.7649 29.2781 48.2693
8243 1 59.3475 30.8607 49.8519
8244 1 57.7649 29.2781 51.4345
8245 1 59.3475 30.8607 53.0171
8246 1 57.7649 29.2781 54.5997
8247 1 59.3475 30.8607 56.1823
8248 1 57.7649 29.2781 57.7649
8249 1 59.3475 30.8607 59.3475
8250 1 57.7649 29.2781 60.9301
8251 1 59.3475 30.8607 62.5127
8252 1 57.7649 32.4433 0.7913
8253 1 59.3475 34.0259 2.3739
8254 1 57.7649 32.4433 3.9565
8255 1 59.3475 34.0259 5.5391
8256 1 57.7649 32.4433 7.1217
8257 1 59.3475 34.0259 8.7043
8258 1 57.7649 32.4433 10.2869
8259 1 59.3475 34.0259 11.8695
8260 1 57.7649 32.4433 13.4521
8261 1 59.3475 34.0259 15.0347
8262 1 57.7649 32.4433 16.6173
8263 1 59.3475 34.0259 18.1999
8264 1 57.7649 32.4433 19.7825
8265 1 59.3475 34.0259 21.3651
8266 1 57.7649 32.4433 22.9477
8267 1 59.3475 34.0259 24.5303
8268 1 57.7649 32.4433 26.1129
8269 1 59.3475 34.0259 27.6955
8270 1 57.7649 32.4433 29.2781
8271 1 59.3475 34.0259 30.8607
8272 1 57.7649 32.4433 32.4433
8273 1 59.3475 34.0259 34.0259
8274 1 57.7649 32.4433 35.6085
8275 1 59.3475 34.0259 37.1911
8276 1 57.7649 32.4433 38.7737
8277 1 59.3475 34.0259 40.3563
8278 1 57.7649 32.4433 41.9389
8279 1 59.3475 34.0259 43.5215
8280 1 57.7649 32.4433 45.1041
8281 1 59.3475 34.0259 46.6867
8282 1 57.7649 32.4433 48.2693
8283 1 59.3475 34.0259 49.8519
8284 1 57.7649 32.4433 51.4345
8285 1 59.3475 34.0259 53.0171
8286 1 57.7649 32.4433 54.5997
8287 1 59.3475 34.0259 56.1823
8288 1 57.7649 32.4433 57.7649
8289 1 59.3475 34.0259 59.3475
8290 1 57.7649 32.4433 60.9301
8291 1 59.3475 34.0259 62.5127
8292 1 57.7649 35.6085 0.7913
8293 1 59.3475 37.1911 2.3739
8294 1 57.7649 35.6085 3.9565
8295 1 59.3475 37.1911 5.5391
8296 1 57.7649 35.6085 7.1217
8297 1 59.3475 37.1911 8.7043
8298 1 57.7649 35.6085 10.2869
8299 1 59.3475 37.1911 11.8695
8300 1 57.7649 35.6085 13.4521
8301 1 59.3475 37.1911 15.0347
8302 1 57.7649 35.6085 16.6173
8303 1 59.3475 37.1911 18.1999
8304 1 57.7649 35.6085 19.7825
8305 1 59.3475 37.1911 21.3651
8306 1 57.7649 35.6085 22.9477
8307 1 59.3475 37.1911 24.5303
8308 1 57.7649 35.6085 26.1129
8309 1 59.3475 37.1911 27.6955
8310 1 57.7649 35.6085 29.2781
8311 1 59.3475 37.1911 30.8607
8312 1 57.7649 35.6085 32.4433
8313 1 59.3475 37.1911 34.0259
8314 1 57.7649 35.6085 35.6085
8315 1 59.3475 37.1911 37.1911
8316 1 57.7649 35.6085 38.7737
8317 1 59.3475 37.1911 40.3563
8318 1 57.7649 35.6085 41.9389
8319 1 59.3475 37.1911 43.5215
8320 1 57.7649 35.6085 45.1041
8321 1 59.3475 37.1911 46.6867
8322 1 57.7649 35.6085 48.2693
8323 1 59.3475 37.1911 49.8519
8324 1 57.7649 35.6085 51.4345
8325 1 59.3475 37.1911 53.0171
8326 1 57.7649 35.6085 54.5997
8327 1 59.3475 37.1911 56.1823
8328 1 57.7649 35.6085 57.7649
8329 1 59.3475 37.1911 59.3475
8330 1 57.7649 35.6085 60.9301
8331 1 59.3475 37.1911 62.5127
8332 1 57.7649 38.7737 0.7913
8333 1 59.3475 40.3563 2.3739
8334 1 57.7649 38.7737 3.9565
8335 1 59.3475 40.3563 5.5391
8336 1 57.7649 38.7737 7.1217
8337 1 59.3475 40.3563 8.7043
8338 1 57.7649 38.7737 10.2869
8339 1 59.3475 40.3563 11.8695
8340 1 57.7649 38.7737 13.4521
8341 1 59.3475 40.3563 15.0347
8342 1 57.7649 38.7737 16.6173
8343 1 59.3475 40.3563 18.1999
8344 1 57.7649 38.7737 19.7825
8345 1 59.3475 40.3563 21.3651
8346 1 57.7649 38.7737 22.9477
8347 1 59.3475 40.3563 24.5303
8348 1 57.7649 38.7737 26.1129
8349 1 59.3475 40.3563 27.6955
8350 1 57.7649 38.7737 29.2781
8351 1 59.3475 40.3563 30.8607
8352 1 57.7649 38.7737 32.4433
8353 1 59.3475 40.3563 34.0259
8354 1 57.7649 38.7737 35.6085
8355 1 59.3475 40.3563 37.1911
8356 1 57.7649 38.7737 38.7737
8357 1 59.3475 40.3563 40.3563
8358 1 57.7649 38.7737 41.9389
8359 1 59.3475 40.3563 43.5215
8360 1 57.7649 38.7737 45.1041
8361 1 59.3475 40.3563 46.6867
8362 1 57.7649 38.7737 48.2693
8363 1 59.3475 40.3563 49.8519
8364 1 57.7649 38.7737 51.4345
8365 1 59.3475 40.3563 53.0171
8366 1 57.7649 38.7737 54.5997
8367 1 59.3475 40.3563 56.1823
8368 1 57.7649 38.7737 57.7649
8369 1 59.3475 40.3563 59.3475
8370 1 57.7649 38.7737 60.9301
8371 1 59.3475 40.3563 62.5127
8372 1 57.7649 41.9389 0.7913
8373 1 59.3475 43.5215 2.3739
8374 1 57.7649 41.9389 3.9565
8375 1 59.3475 43.5215 5.5391
8376 1 57.7649 41.9389 7.1217
8377 1 59.3475 43.5215 8.7043
8378 1 57.7649 41.9389 10.2869
8379 1 59.3475 43.5215 11.8695
8380 1 57.7649 41.9389 13.4521
8381 1 59.3475 43.5215 15.0347
8382 1 57.7649 41.9389 16.6173
8383 1 59.3475 43.5215 18.1999
8384 1 57.7649 41.9389 19.7825
8385 1 59.3475 43.5215 21.3651
8386 1 57.7649 41.9389 22.9477
8387 1 59.3475 43.5215 24.5303
8388 1 57.7649 41.9389 26.1129
8389 1 59.3475 43.5215 27.6955
8390 1 57.7649 41.9389 29.2781
8391 1 59.3475 43.5215 30.8607
8392 1 57.7649 41.9389 32.4433
8393 1 59.3475 43.5215 34.0259
8394 1 57.7649 41.9389 35.6085
8395 1 59.3475 43.5215 37.1911
8396 1 57.7649 41.9389 38.7737
8397 1 59.3475 43.5215 40.3563
8398 1 57.7649 41.9389 41.9389
8399 1 59.3475 43.5215 43.5215
8400 1 57.7649 41.9389 45.1041
8401 1 59.3475 43.5215 46.6867
8402 1 57.7649 41.9389 48.2693
8403 1 59.3475 43.5215 49.8519
8404 1 57.7649 41.9389 51.4345
8405 1 59.3475 43.5215 53.0171
8406 1 57.7649 41.9389 54.5997
8407 1 59.3475 43.5215 56.1823
8408 1 57.7649 41.9389 57.7649
8409 1 59.3475 43.5215 59.3475
8410 1 57.7649 41.9389 60.9301
8411 1 59.3475 43.5215 62.5127
8412 1 57.7649 45.1041 0.7913
8413 1 59.3475 46.6867 2.3739
8414 1 57.7649 45.1041 3.9565
8415 1 59.3475 46.6867 5.5391
8416 1 57.7649 45.1041 7.1217
8417 1 59.3475 46.6867 8.7043
8418 1 57.7649 45.1041 10.2869
8419 1 59.3475 46.6867 11.8695
8420 1 57.7649 45.1041 13.4521
8421 1 59.3475 46.6867 15.0347
8422 1 57.7649 45.1041 16.6173
8423 1 59.3475 46.6867 18.1999
8424 1 57.7649 45.1041 19.7825
8425 1 59.3475 46.6867 21.3651
8426 1 57.7649 45.1041 22.9477
8427 1 59.3475 46.6867 24.5303
8428 1 57.7649 45.1041 26.1129
8429 1 59.3475 46.6867 27.6955
8430 1 57.7649 45.1041 29.2781
8431 1 59.3475 46.6867 30.8607
8432 1 57.7649 45.1041 32.4433
8433 1 59.3475 46.6867 34.0259
8434 1 57.7649 45.1041 35.6085
8435 1 59.3475 46.6867 37.1911
8436 1 57.7649 45.1041 38.7737
8437 1 59.3475 46.6867 40.3563
8438 1 57.7649 45.1041 41.9389
8439 1 59.3475 46.6867 43.5215
8440 1 57.7649 45.1041 45.1041
8441 1 59.3475 46.6867 46.6867
8442 1 57.7649 45.1041 48.2693
8443 1 59.3475 46.6867 49.8519
8444 1 57.7649 45.1041 51.4345
8445 1 59.3475 46.6867 53.0171
8446 1 57.7649 45.1041 54.5997
8447 1 59.3475 46.6867 56.1823
8448 1 57.7649 45.1041 57.7649
8449 1 59.3475 46.6867 59.3475
8450 1 57.7649 45.1041 60.9301
8451 1 59.3475 46.6867 62.5127
8452 1 57.7649 48.2693 0.7913
8453 1 59.3475 49.8519 2.3739
8454 1 57.7649 48.2693 3.9565
8455 1 59.3475 49.8519 5.5391
8456 1 57.7649 48.2693 7.1217
8457 1 59.3475 49.8519 8.7043
8458 1 57.7649 48.2693 10.2869
8459 1 59.3475 49.8519 11.8695
8460 1 57.7649 48.2693 13.4521
8461 1 59.3475 49.8519 15.0347
8462 1 57.7649 48.2693 16.6173
8463 1 59.3475 49.8519 18.1999
8464 1 57.7649 48.2693 19.7825
8465 1 59.3475 49.8519 21.3651
8466 1 57.7649 48.2693 22.9477
8467 1 59.3475 49.8519 24.5303
8468 1 57.7649 48.2693 26.1129
8469 1 59.3475 49.8519 27.6955
8470 1 57.7649 48.2693 29.2781
8471 1 59.3475 49.8519 30.8607
8472 1 57.7649 48.2693 32.4433
8473 1 59.3475 49.8519 34.0259
8474 1 57.7649 48.2693 35.6085
8475 1 59.3475 49.8519 37.1911
8476 1 57.7649 48.2693 38.7737
8477 1 59.3475 49.8519 40.3563
8478 1 57.7649 48.2693 41.9389
8479 1 59.3475 49.8519 43.5215
8480 1 57.7649 48.2693 45.1041
8481 1 59.3475 49.8519 46.6867
8482 1 57.7649 48.2693 48.2693
8483 1 59.3475 49.8519 49.8519
8484 1 57.7649 48.2693 51.4345
8485 1 59.3475 49.8519 53.0171
8486 1 57.7649 48.2693 54.5997
8487 1 59.3475 49.8519 56.1823
8488 1 57.7649 48.2693 57.7649
8489 1 59.3475 49.8519 59.3475
8490 1 57.7649 48.2693 60.9301
8491 1 59.3475 49.8519 62.5127
8492 1 57.7649 51.4345 0.7913
8493 1 59.3475 53.0171 2.3739
8494 1 57.7649 51.4345 3.9565
8495 1 59.3475 53.0171 5.5391
8496 1 57.7649 51.4345 7.1217
8497 1 59.3475 53.0171 8.7043
8498 1 57.7649 51.4345 10.2869
8499 1 59.3475 53.0171 11.8695
8500 1 57.7649 51.4345 13.4521
8501 1 59.3475 53.0171 15.0347
8502 1 57.7649 51.4345 16.6173
8503 1 59.3475 53.0171 18.1999
8504 1 57.7649 51.4345 19.7825
8505 1 59.3475 53.0171 21.3651
8506 1 57.7649 51.4345 22.9477
8507 1 59.3475 53.0171 24.5303
8508 1 57.7649 51.4345 26.1129
8509 1 59.3475 53.0171 27.6955
8510 1 57.7649 51.4345 29.2781
8511 1 59.3475 53.0171 30.8607
8512 1 57.7649 51.4345 32.4433
8513 1 59.3475 53.0171 34.0259
8514 1 57.7649 51.4345 35.6085
8515 1 59.3475 53.0171 37.1911
8516 1 57.7649 51.4345 38.7737
8517 1 59.3475 53.0171 40.3563
8518 1 57.7649 51.4345 41.9389
8519 1 59.3475 53.0171 43.5215
8520 1 57.7649 51.4345 45.1041
8521 1 59.3475 53.0171 46.6867
8522 1 57.7649 51.4345 48.2693
8523 1 59.3475 53.0171 49.8519
8524 1 57.7649 51.4345 51.4345
8525 1 59.3475 53.0171 53.0171
8526 1 57.7649 51.4345 54.5997
8527 1 59.3475 53.0171 56.1823
8528 1 57.7649 51.4345 57.7649
8529 1 59.3475 53.0171 59.3475
8530 1 57.7649 51.4345 60.9301
8531 1 59.3475 53.0171 62.5127
8532 1 57.7649 54.5997 0.7913
8533 1 59.3475 56.1823 2.3739
8534 1 57.7649 54.5997 3.9565
8535 1 59.3475 56.1823 5.5391
8536 1 57.7649 54.5997 7.1217
8537 1 59.3475 56.1823 8.7043
8538 1 57.7649 54.5997 10.2869
8539 1 59.3475 56.1823 11.8695
8540 1 57.7649 54.5997 13.4521
8541 1 59.3475 56.1823 15.0347
8542 1 57.7649 54.5997 16.6173
8543 1 59.3475 56.1823 18.1999
8544 1 57.7649 54.5997 19.7825
8545 1 59.3475 56.1823 21.3651
8546 1 57.7649 54.5997 22.9477
8547 1 59.3475 56.1823 24.5303
8548 1 57.7649 54.5997 26.1129
8549 1 59.3475 56.1823 27.6955
8550 1 57.7649 54.5997 29.2781
8551 1 59.3475 56.1823 30.8607
8552 1 57.7649 54.5997 32.4433
8553 1 59.3475 56.1823 34.0259
8554 1 57.7649 54.5997 35.6085
8555 1 59.3475 56.1823 37.1911
8556 1 57.7649 54.5997 38.7737
8557 1 59.3475 56.1823 40.3563
8558 1 57.7649 54.5997 41.9389
8559 1 59.3475 56.1823 43.5215
8560 1 57.7649 54.5997 45.1041
8561 1 59.3475 56.1823 46.6867
8562 1 57.7649 54.5997 48.2693
8563 1 59.3475 56.1823 49.8519
8564 1 57.7649 54.5997 51.4345
8565 1 59.3475 56.1823 53.0171
8566 1 57.7649 54.5997 54.5997
8567 1 59.3475 56.1823 56.1823
8568 1 57.7649 54.5997 57.7649
8569 1 59.3475 56.1823 59.3475
8570 1 57.7649 54.5997 60.9301
8571 1 59.3475 56.1823 62.5127
8572 1 57.7649 57.7649 0.7913
8573 1 59.3475 59.3475 2.3739
8574 1 57.7649 57.7649 3.9565
8575 1 59.3475 59.3475 5.5391
8576 1 57.7649 57.7649 7.1217
8577 1 59.3475 59.3475 8.7043
8578 1 57.7649 57.7649 10.2869
8579 1 59.3475 59.3475 11.8695
8580 1 57.7649 57.7649 13.4521
8581 1 59.3475 59.3475 15.0347
8582 1 57.7649 57.7649 16.6173
8583 1 59.3475 59.3475 18.1999
8584 1 57.7649 57.7649 19.7825
8585 1 59.3475 59.3475 21.3651
8586 1 57.7649 57.7649 22.9477
8587 1 59.3475 59.3475 24.5303
8588 1 57.7649 57.7649 26.1129
8589 1 59.3475 59.3475 27.6955
8590 1 57.7649 57.7649 29.2781
8591 1 59.3475 59.3475 30.8607
8592 1 57.7649 57.7649 32.4433
8593 1 59.3475 59.3475 34.0259
8594 1 57.7649 57.7649 35.6085
8595 1 59.3475 59.3475 37.1911
8596 1 57.7649 57.7649 38.7737
8597 1 59.3475 59.3475 40.3563
8598 1 57.7649 57.7649 41.9389
8599 1 59.3475 59.3475 43.5215
8600 1 57.7649 57.7649 45.1041
8601 1 59.3475 59.3475 46.6867
8602 1 57.7649 57.7649 48.2693
8603 1 59.3475 59.3475 49.8519
8604 1 57.7649 57.7649 51.4345
8605 1 59.3475 59.3475 53.0171
8606 1 57.7649 57.7649 54.5997
8607 1 59.3475 59.3475 56.1823
8608 1 57.7649 57.7649 57.7649
8609 1 59.3475 59.3475 59.3475
8610 1 57.7649 57.7649 60.9301
8611 1 59.3475 59.3475 62.5127
8612 1 57.7649 60.9301 0.7913
8613 1 59.3475 62.5127 2.3739
8614 1 57.7649 60.9301 3.9565
8615 1 59.3475 62.5127 5.5391
8616 1 57.7649 60.9301 7.1217
8617 1 59.3475 62.5127 8.7043
8618 1 57.7649 60.9301 10.2869
8619 1 59.3475 62.5127 11.8695
8620 1 57.7649 60.9301 13.4521
8621 1 59.3475 62.5127 15.0347
8622 1 57.7649 60.9301 16.6173
8623 1 59.3475 62.5127 18.1999
8624 1 57.7649 60.9301 19.7825
8625 1 59.3475 62.5127 21.3651
8626 1 57.7649 60.9301 22.9477
8627 1 59.3475 62.5127 24.5303
8628 1 57.7649 60.9301 26.1129
8629 1 59.3475 62.5127 27.6955
8630 1 57.7649 60.9301 29.2781
8631 1 59.3475 62.5127 30.8607
8632 1 57.7649 60.9301 32.4433
8633 1 59.3475 62.5127 34.0259
8634 1 57.7649 60.9301 35.6085
8635 1 59.3475 62.5127 37.1911
8636 1 57.7649 60.9301 38.7737
8637 1 59.3475 62.5127 40.3563
8638 1 57.7649 60.9301 41.9389
8639 1 59.3475 62.5127 43.5215
8640 1 57.7649 60.9301 45.1041
8641 1 59.3475 62.5127 46.6867
8642 1 57.7649 60.9301 48.2693
8643 1 59.3475 62.5127 49.8519
8644 1 57.7649 60.9301 51.4345
8645 1 59.3475 62.5127 53.0171
8646 1 57.7649 60.9301 54.5997
8647 1 59.3475 62.5127 56.1823
8648 1 57.7649 60.9301 57.7649
8649 1 59.3475 62.5127 59.3475
8650 1 57.7649 60.9301 60.9301
8651 1 59.3475 62.5127 62.5127
8652 1 60.9301 0.7913 0.7913
8653 1 62.5127 2.3739 2.3739
8654 1 60.9301 0.7913 3.9565
8655 1 62.5127 2.3739 5.5391
8656 1 60.9301 0.7913 7.1217
8657 1 62.5127 2.3739 8.7043
8658 1 60.9301 0.7913 10.2869
8659 1 62.5127 2.3739 11.8695
8660 1 60.9301 0.7913 13.4521
8661 1 62.5127 2.3739 15.0347
8662 1 60.9301 0.7913 16.6173
8663 1 62.5127 2.3739 18.1999
8664 1 60.9301 0.7913 19.7825
8665 1 62.5127 2.3739 21.3651
8666 1 60.9301 0.7913 22.9477
8667 1 62.5127 2.3739 24.5303
8668 1 60.9301 0.7913 26.1129
8669 1 62.5127 2.3739 27.6955
8670 1 60.9301 0.7913 29.2781
8671 1 62.5127 2.3739 30.8607
8672 1 60.9301 0.7913 32.4433
8673 1 62.5127 2.3739 34.0259
8674 1 60.9301 0.7913 35.6085
8675 1 62.5127 2.3739 37.1911
8676 1 60.9301 0.7913 38.7737
8677 1 62.5127 2.3739 40.3563
8678 1 60.9301 0.7913 41.9389
8679 1 62.5127 2.3739 43.5215
8680 1 60.9301 0.7913 45.1041
8681 1 62.5127 2.3739 46.6867
8682 1 60.9301 0.7913 48.2693
8683 1 62.5127 2.3739 49.8519
8684 1 60.9301 0.7913 51.4345
8685 1 62.5127 2.3739 53.0171
8686 1 60.9301 0.7913 54.5997
8687 1 62.5127 2.3739 56.1823
8688 1 60.9301 0.7913 57.7649
8689 1 62.5127 2.3739 59.3475
8690 1 60.9301 0.7913 60.9301
8691 1 62.5127 2.3739 62.5127
8692 1 60.9301 3.9565 0.7913
8693 1 62.5127 5.5391 2.3739
8694 1 60.9301 3.9565 3.9565
8695 1 62.5127 5.5391 5.5391
8696 1 60.9301 3.9565 7.1217
8697 1 62.5127 5.5391 8.7043
8698 1 60.9301 3.9565 10.2869
8699 1 62.5127 5.5391 11.8695
8700 1 60.9301 3.9565 13.4521
8701 1 62.5127 5.5391 15.0347
8702 1 60.9301 3.9565 16.6173
8703 1 62.5127 5.5391 18.1999
8704 1 60.9301 3.9565 19.7825
8705 1 62.5127 5.5391 21.3651
8706 1 60.9301 3.9565 22.9477
8707 1 62.5127 5.5391 24.5303
8708 1 60.9301 3.9565 26.1129
8709 1 62.5127 5.5391 27.6955
8710 1 60.9301 3.9565 29.2781
8711 1 62.5127 5.5391 30.8607
8712 1 60.9301 3.9565 32.4433
8713 1 62.5127 5.5391 34.0259
8714 1 60.9301 3.9565 35.6085
8715 1 62.5127 5.5391 37.1911
8716 1 60.9301 3.9565 38.7737
8717 1 62.5127 5.5391 40.3563
8718 1 60.9301 3.9565 41.9389
8719 1 62.5127 5.5391 43.5215
8720 1 60.9301 3.9565 45.1041
8721 1 62.5127 5.5391 46.6867
8722 1 60.9301 3.9565 48.2693
8723 1 62.5127 5.5391 49.8519
8724 1 60.9301 3.9565 51.4345
8725 1 62.5127 5.5391 53.0171
8726 1 60.9301 3.9565 54.5997
8727 1 62.5127 5.5391 56.1823
8728 1 60.9301 3.9565 57.7649
8729 1 62.5127 5.5391 59.3475
8730 1 60.9301 3.9565 60.9301
8731 1 62.5127 5.5391 62.5127
8732 1 60.9301 7.1217 0.7913
8733 1 62.5127 8.7043 2.3739
8734 1 60.9301 7.1217 3.9565
8735 1 62.5127 8.7043 5.5391
8736 1 60.9301 7.1217 7.1217
8737 1 62.5127 8.7043 8.7043
8738 1 60.9301 7.1217 10.2869
8739 1 62.5127 8.7043 11.8695
8740 1 60.9301 7.1217 13.4521
8741 1 62.5127 8.7043 15.0347
8742 1 60.9301 7.1217 16.6173
8743 1 62.5127 8.7043 18.1999
8744 1 60.9301 7.1217 19.7825
8745 1 62.5127 8.7043 21.3651
8746 1 60.9301 7.1217 22.9477
8747 1 62.5127 8.7043 24.5303
8748 1 60.9301 7.1217 26.1129
8749 1 62.5127 8.7043 27.6955
8750 1 60.9301 7.1217 29.2781
8751 1 62.5127 8.7043 30.8607
8752 1 60.9301 7.1217 32.4433
8753 1 62.5127 8.7043 34.0259
8754 1 60.9301 7.1217 35.6085
8755 1 62.5127 8.7043 37.1911
8756 1 60.9301 7.1217 38.7737
8757 1 62.5127 8.7043 40.3563
8758 1 60.9301 7.1217 41.9389
8759 1 62.5127 8.7043 43.5215
8760 1 60.9301 7.1217 45.1041
8761 1 62.5127 8.7043 46.6867
8762 1 60.9301 7.1217 48.2693
8763 1 62.5127 8.7043 49.8519
8764 1 60.9301 7.1217 51.4345
8765 1 62.5127 8.7043 53.0171
8766 1 60.9301 7.1217 54.5997
8767 1 62.5127 8.7043 56.1823
8768 1 60.9301 7.1217 57.7649
8769 1 62.5127 8.7043 59.3475
8770 1 60.9301 7.1217 60.9301
8771 1 62.5127 8.7043 62.5127
8772 1 60.9301 10.2869 0.7913
8773 1 62.5127 11.8695 2.3739
8774 1 60.9301 10.2869 3.9565
8775 1 62.5127 11.8695 5.5391
8776 1 60.9301 10.2869 7.1217
8777 1 62.5127 11.8695 8.7043
8778 1 60.9301 10.2869 10.2869
8779 1 62.5127 11.8695 11.8695
8780 1 60.9301 10.2869 13.4521
8781 1 62.5127 11.8695 15.0347
8782 1 60.9301 10.2869 16.6173
8783 1 62.5127 11.8695 18.1999
8784 1 60.9301 10.2869 19.7825
8785 1 62.5127 11.8695 21.3651
8786 1 60.9301 10.2869 22.9477
8787 1 62.5127 11.8695 24.5303
8788 1 60.9301 10.2869 26.1129
8789 1 62.5127 11.8695 27.6955
8790 1 60.9301 10.2869 29.2781
8791 1 62.5127 11.8695 30.8607
8792 1 60.9301 10.2869 32.4433
8793 1 62.5127 11.8695 34.0259
8794 1 60.9301 10.2869 35.6085
8795 1 62.5127 11.8695 37.1911
8796 1 60.9301 10.2869 38.7737
8797 1 62.5127 11.8695 40.3563
8798 1 60.9301 10.2869 41.9389
8799 1 62.5127 11.8695 43.5215
8800 1 60.9301 10.2869 45.1041
8801 1 62.5127 11.8695 46.6867
8802 1 60.9301 10.2869 48.2693
8803 1 62.5127 11.8695 49.8519
8804 1 60.9301 10.2869 51.4345
8805 1 62.5127 11.8695 53.0171
8806 1 60.9301 10.2869 54.5997
8807 1 62.5127 11.8695 56.1823
8808 1 60.9301 10.2869 57.7649
8809 1 62.5127 11.8695 59.3475
8810 1 60.9301 10.2869 60.9301
8811 1 62.5127 11.8695 62.5127
8812 1 60.9301 13.4521 0.7913
8813 1 62.5127 15.0347 2.3739
8814 1 60.9301 13.4521 3.9565
8815 1 62.5127 15.0347 5.5391
8816 1 60.9301 13.4521 7.1217
8817 1 62.5127 15.0347 8.7043
8818 1 60.9301 13.4521 10.2869
8819 1 62.5127 15.0347 11.8695
8820 1 60.9301 13.4521 13.4521
8821 1 62.5127 15.0347 15.0347
8822 1 60.9301 13.4521 16.6173
8823 1 62.5127 15.0347 18.1999
8824 1 60.9301 13.4521 19.7825
8825 1 62.5127 15.0347 21.3651
8826 1 60.9301 13.4521 22.9477
8827 1 62.5127 15.0347 24.5303
8828 1 60.9301 13.4521 26.1129
8829 1 62.5127 15.0347 27.6955
8830 1 60.9301 13.4521 29.2781
8831 1 62.5127 15.0347 30.8607
8832 1 60.9301 13.4521 32.4433
8833 1 62.5127 15.0347 34.0259
8834 1 60.9301 13.4521 35.6085
8835 1 62.5127 15.0347 37.1911
8836 1 60.9301 13.4521 38.7737
8837 1 62.5127 15.0347 40.3563
8838 1 60.9301 13.4521 41.9389
8839 1 62.5127 15.0347 43.5215
8840 1 60.9301 13.4521 45.1041
8841 1 62.5127 15.0347 46.6867
8842 1 60.9301 13.4521 48.2693
8843 1 62.5127 15.0347 49.8519
8844 1 60.9301 13.4521 51.4345
8845 1 62.5127 15.0347 53.0171
8846 1 60.9301 13.4521 54.5997
8847 1 62.5127 15.0347 56.1823
8848 1 60.9301 13.4521 57.7649
8849 1 62.5127 15.0347 59.3475
8850 1 60.9301 13.4521 60.9301
8851 1 62.5127 15.0347 62.5127
8852 1 60.9301 16.6173 0.7913
8853 1 62.5127 18.1999 2.3739
8854 1 60.9301 16.6173 3.9565
8855 1 62.5127 18.1999 5.5391
8856 1 60.9301 16.6173 7.1217
8857 1 62.5127 18.1999 8.7043
8858 1 60.9301 16.6173 10.2869
8859 1 62.5127 18.1999 11.8695
8860 1 60.9301 16.6173 13.4521
8861 1 62.5127 18.1999 15.0347
8862 1 60.9301 16.6173 16.6173
8863 1 62.5127 18.1999 18.1999
8864 1 60.9301 16.6173 19.7825
8865 1 62.5127 18.1999 21.3651
8866 1 60.9301 16.6173 22.9477
8867 1 62.5127 18.1999 24.5303
8868 1 60.9301 16.6173 26.1129
8869 1 62.5127 18.1999 27.6955
8870 1 60.9301 16.6173 29.2781
8871 1 62.5127 18.1999 30.8607
8872 1 60.9301 16.6173 32.4433
8873 1 62.5127 18.1999 34.0259
8874 1 60.9301 16.6173 35.6085
8875 1 62.5127 18.1999 37.1911
8876 1 60.9301 16.6173 38.7737
8877 1 62.5127 18.1999 40.3563
8878 1 60.9301 16.6173 41.9389
8879 1 62.5127 18.1999 43.5215
8880 1 60.9301 16.6173 45.1041
8881 1 62.5127 18.1999 46.6867
8882 1 60.9301 16.6173 48.2693
8883 1 62.5127 18.1999 49.8519
8884 1 60.9301 16.6173 51.4345
8885 1 62.5127 18.1999 53.0171
8886 1 60.9301 16.6173 54.5997
8887 1 62.5127 18.1999 56.1823
8888 1 60.9301 16.6173 57.7649
8889 1 62.5127 18.1999 59.3475
8890 1 60.9301 16.6173 60.9301
8891 1 62.5127 18.1999 62.5127
8892 1 60.9301 19.7825 0.7913
8893 1 62.5127 21.3651 2.3739
8894 1 60.9301 19.7825 3.9565
8895 1 62.5127 21.3651 5.5391
8896 1 60.9301 19.7825 7.1217
8897 1 62.5127 21.3651 8.7043
8898 1 60.9301 19.7825 10.2869
8899 1 62.5127 21.3651 11.8695
8900 1 60.9301 19.7825 13.4521
8901 1 62.5127 21.3651 15.0347
8902 1 60.9301 19.7825 16.6173
8903 1 62.5127 21.3651 18.1999
8904 1 60.9301 19.7825 19.7825
8905 1 62.5127 21.3651 21.3651
8906 1 60.9301 19.7825 22.9477
8907 1 62.5127 21.3651 24.5303
8908 1 60.9301 19.7825 26.1129
8909 1 62.5127 21.3651 27.6955
8910 1 60.9301 19.7825 29.2781
8911 1 62.5127 21.3651 30.8607
8912 1 60.9301 19.7825 32.4433
8913 1 62.5127 21.3651 34.0259
8914 1 60.9301 19.7825 35.6085
8915 1 62.5127 21.3651 37.1911
8916 1 60.9301 19.7825 38.7737
8917 1 62.5127 21.3651 40.3563
8918 1 60.9301 19.7825 41.9389
8919 1 62.5127 21.3651 43.5215
8920 1 60.9301 19.7825 45.1041
8921 1 62.5127 21.3651 46.6867
8922 1 60.9301 19.7825 48.2693
8923 1 62.5127 21.3651 49.8519
8924 1 60.9301 19.7825 51.4345
8925 1 62.5127 21.3651 53.0171
8926 1 60.9301 19.7825 54.5997
8927 1 62.5127 21.3651 56.1823
8928 1 60.9301 19.7825 57.7649
8929 1 62.5127 21.3651 59.3475
8930 1 60.9301 19.7825 60.9301
8931 1 62.5127 21.3651 62.5127
8932 1 60.9301 22.9477 0.7913
8933 1 62.5127 24.5303 2.3739
8934 1 60.9301 22.9477 3.9565
8935 1 62.5127 24.5303 5.5391
8936 1 60.9301 22.9477 7.1217
8937 1 62.5127 24.5303 8.7043
8938 1 60.9301 22.9477 10.2869
8939 1 62.5127 24.5303 11.8695
8940 1 60.9301 22.9477 13.4521
8941 1 62.5127 24.5303 15.0347
8942 1 60.9301 22.9477 16.6173
8943 1 62.5127 24.5303 18.1999
8944 1 60.9301 22.9477 19.7825
8945 1 62.5127 24.5303 21.3651
8946 1 60.9301 22.9477 22.9477
8947 1 62.5127 24.5303 24.5303
8948 1 60.9301 22.9477 26.1129
8949 1 62.5127 24.5303 27.6955
8950 1 60.9301 22.9477 29.2781
8951 1 62.5127 24.5303 30.8607
8952 1 60.9301 22.9477 32.4433
8953 1 62.5127 24.5303 34.0259
8954 1 60.9301 22.9477 35.6085
8955 1 62.5127 24.5303 37.1911
8956 1 60.9301 22.9477 38.7737
8957 1 62.5127 24.5303 40.3563
8958 1 60.9301 22.9477 41.9389
8959 1 62.5127 24.5303 43.5215
8960 1 60.9301 22.9477 45.1041
8961 1 62.5127 24.5303 46.6867
8962 1 60.9301 22.9477 48.2693
8963 1 62.5127 24.5303 49.8519
8964 1 60.9301 22.9477 51.4345
8965 1 62.5127 24.5303 53.0171
8966 1 60.9301 22.9477 54.5997
8967 1 62.5127 24.5303 56.1823
8968 1 60.9301 22.9477 57.7649
8969 1 62.5127 24.5303 59.3475
8970 1 60.9301 22.9477 60.9301
8971 1 62.5127 24.5303 62.5127
8972 1 60.9301 26.1129 0.7913
8973 1 62.5127 27.6955 2.3739
8974 1 60.9301 26.1129 3.9565
8975 1 62.5127 27.6955 5.5391
8976 1 60.9301 26.1129 7.1217
8977 1 62.5127 27.6955 8.7043
8978 1 60.9301 26.1129 10.2869
8979 1 62.5127 27.6955 11.8695
8980 1 60.9301 26.1129 13.4521
8981 1 62.5127 27.6955 15.0347
8982 1 60.9301 26.1129 16.6173
8983 1 62.5127 27.6955 18.1999
8984 1 60.9301 26.1129 19.7825
8985 1 62.5127 27.6955 21.3651
8986 1 60.9301 26.1129 22.9477
8987 1 62.5127 27.6955 24.5303
8988 1 60.9301 26.1129 26.1129
8989 1 62.5127 27.6955 27.6955
8990 1 60.9301 26.1129 29.2781
8991 1 62.5127 27.6955 30.8607
8992 1 60.9301 26.1129 32.4433
8993 1 62.5127 27.6955 34.0259
8994 1 60.9301 26.1129 35.6085
8995 1 62.5127 27.6955 37.1911
8996 1 60.9301 26.1129 38.7737
8997 1 62.5127 27.6955 40.3563
8998 1 60.9301 26.1129 41.9389
8999 1 62.5127 27.6955 43.5215
9000 1 60.9301 26.1129 45.1041
9001 1 62.5127 27.6955 46.6867
9002 1 60.9301 26.1129 48.2693
9003 1 62.5127 27.6955 49.8519
9004 1 60.9301 26.1129 51.4345
9005 1 62.5127 27.6955 53.0171
9006 1 60.9301 26.1129 54.5997
9007 1 62.5127 27.6955 56.1823
9008 1 60.9301 26.1129 57.7649
9009 1 62.5127 27.6955 59.3475
9010 1 60.9301 26.1129 60.9301
9011 1 62.5127 27.6955 62.5127
9012 1 60.9301 29.2781 0.7913
9013 1 62.5127 30.8607 2.3739
9014 1 60.9301 29.2781 3.9565
9015 1 62.5127 30.8607 5.5391
9016 1 60.9301 29.2781 7.1217
9017 1 62.5127 30.8607 8.7043
9018 1 60.9301 29.2781 10.2869
9019 1 62.5127 30.8607 11.8695
9020 1 60.9301 29.2781 13.4521
9021 1 62.5127 30.8607 15.0347
9022 1 60.9301 29.2781 16.6173
9023 1 62.5127 30.8607 18.1999
9024 1 60.9301 29.2781 19.7825
9025 1 62.5127 30.8607 21.3651
9026 1 60.9301 29.2781 22.9477
9027 1 62.5127 30.8607 24.5303
9028 1 60.9301 29.2781 26.1129
9029 1 62.5127 30.8607 27.6955
9030 1 60.9301 29.2781 29.2781
9031 1 62.5127 30.8607 30.8607
9032 1 60.9301 29.2781 32.4433
9033 1 62.5127 30.8607 34.0259
9034 1 60.9301 29.2781 35.6085
9035 1 62.5127 30.8607 37.1911
9036 1 60.9301 29.2781 38.7737
9037 1 62.5127 30.8607 40.3563
9038 1 60.9301 29.2781 41.9389
9039 1 62.5127 30.8607 43.5215
9040 1 60.9301 29.2781 45.1041
9041 1 62.5127 30.8607 46.6867
9042 1 60.9301 29.2781 48.2693
9043 1 62.5127 30.8607 49.8519
9044 1 60.9301 29.2781 51.4345
9045 1 62.5127 30.8607 53.0171
9046 1 60.9301 29.2781 54.5997
9047 1 62.5127 30.8607 56.1823
9048 1 60.9301 29.2781 57.7649
9049 1 62.5127 30.8607 59.3475
9050 1 60.9301 29.2781 60.9301
9051 1 62.5127 30.8607 62.5127
9052 1 60.9301 32.4433 0.7913
9053 1 62.5127 34.0259 2.3739
9054 1 60.9301 32.4433 3.9565
9055 1 62.5127 34.0259 5.5391
9056 1 60.9301 32.4433 7.1217
9057 1 62.5127 34.0259 8.7043
9058 1 60.9301 32.4433 10.2869
9059 1 62.5127 34.0259 11.8695
9060 1 60.9301 32.4433 13.4521
9061 1 62.5127 34.0259 15.0347
9062 1 60.9301 32.4433 16.6173
9063 1 62.5127 34.0259 18.1999
9064 1 60.9301 32.4433 19.7825
9065 1 62.5127 34.0259 21.3651
9066 1 60.9301 32.4433 22.9477
9067 1 62.5127 34.0259 24.5303
9068 1 60.9301 32.4433 26.1129
9069 1 62.5127 34.0259 27.6955
9070 1 60.9301 32.4433 29.2781
9071 1 62.5127 34.0259 30.8607
9072 1 60.9301 32.4433 32.4433
9073 1 62.5127 34.0259 34.0259
9074 1 60.9301 32.4433 35.6085
9075 1 62.5127 34.0259 37.1911
9076 1 60.9301 32.4433 38.7737
9077 1 62.5127 34.0259 40.3563
9078 1 60.9301 32.4433 41.9389
9079 1 62.5127 34.0259 43.5215
9080 1 60.9301 32.4433 45.1041
9081 1 62.5127 34.0259 46.6867
9082 1 60.9301 32.4433 48.2693
9083 1 62.5127 34.0259 49.8519
9084 1 60.9301 32.4433 51.4345
9085 1 62.5127 34.0259 53.0171
9086 1 60.9301 32.4433 54.5997
9087 1 62.5127 34.0259 56.1823
9088 1 60.9301 32.4433 57.7649
9089 1 62.5127 34.0259 59.3475
9090 1 60.9301 32.4433 60.9301
9091 1 62.5127 34.0259 62.5127
9092 1 60.9301 35.6085 0.7913
9093 1 62.5127 37.1911 2.3739
9094 1 60.9301 35.6085 3.9565
9095 1 62.5127 37.1911 5.5391
9096 1 60.9301 35.6085 7.1217
9097 1 62.5127 37.1911 8.7043
9098 1 60.9301 35.6085 10.2869
9099 1 62.5127 37.1911 11.8695
9100 1 60.9301 35.6085 13.4521
9101 1 62.5127 37.1911 15.0347
9102 1 60.9301 35.6085 16.6173
9103 1 62.5127 37.1911 18.1999
9104 1 60.9301 35.6085 19.7825
9105 1 62.5127 37.1911 21.3651
9106 1 60.9301 35.6085 22.9477
9107 1 62.5127 37.1911 24.5303
9108 1 60.9301 35.6085 26.1129
9109 1 62.5127 37.1911 27.6955
9110 1 60.9301 35.6085 29.2781
9111 1 62.5127 37.1911 30.8607
9112 1 60.9301 35.6085 32.4433
9113 1 62.5127 37.1911 34.0259
9114 1 60.9301 35.6085 35.6085
9115 1 62.5127 37.1911 37.1911
9116 1 60.9301 35.6085 38.7737
9117 1 62.5127 37.1911 40.3563
9118 1 60.9301 35.6085 41.9389
9119 1 62.5127 37.1911 43.5215
9120 1 60.9301 35.6085 45.1041
9121 1 62.5127 37.1911 46.6867
9122 1 60.9301 35.6085 48.2693
9123 1 62.5127 37.1911 49.8519
9124 1 60.9301 35.6085 51.4345
9125 1 62.5127 37.1911 53.0171
9126 1 60.9301 35.6085 54.5997
9127 1 62.5127 37.1911 56.1823
9128 1 60.9301 35.6085 57.7649
9129 1 62.5127 37.1911 59.3475
9130 1 60.9301 35.6085 60.9301
9131 1 62.5127 37.1911 62.5127
9132 1 60.9301 38.7737 0.7913
9133 1 62.5127 40.3563 2.3739
9134 1 60.9301 38.7737 3.9565
9135 1 62.5127 40.3563 5.5391
9136 1 60.9301 38.7737 7.1217
9137 1 62.5127 40.3563 8.7043
9138 1 60.9301 38.7737 10.2869
9139 1 62.5127 40.3563 11.8695
9140 1 60.9301 38.7737 13.4521
9141 1 62.5127 40.3563 15.0347
9142 1 60.9301 38.7737 16.6173
9143 1 62.5127 40.3563 18.1999
9144 1 60.9301 38.7737 19.7825
9145 1 62.5127 40.3563 21.3651
9146 1 60.9301 38.7737 22.9477
9147 1 62.5127 40.3563 24.5303
9148 1 60.9301 38.7737 26.1129
9149 1 62.5127 40.3563 27.6955
9150 1 60.9301 38.7737 29.2781
9151 1 62.5127 40.3563 30.8607
9152 1 60.9301 38.7737 32.4433
9153 1 62.5127 40.3563 34.0259
9154 1 60.9301 38.7737 35.6085
9155 1 62.5127 40.3563 37.1911
9156 1 60.9301 38.7737 38.7737
9157 1 62.5127 40.3563 40.3563
9158 1 60.9301 38.7737 41.9389
9159 1 62.5127 40.3563 43.5215
9160 1 60.9301 38.7737 45.1041
9161 1 62.5127 40.3563 46.6867
9162 1 60.9301 38.7737 48.2693
9163 1 62.5127 40.3563 49.8519
9164 1 60.9301 38.7737 51.4345
9165 1 62.5127 40.3563 53.0171
9166 1 60.9301 38.7737 54.5997
9167 1 62.5127 40.3563 56.1823
9168 1 60.9301 38.7737 57.7649
9169 1 62.5127 40.3563 59.3475
9170 1 60.9301 38.7737 60.9301
9171 1 62.5127 40.3563 62.5127
9172 1 60.9301 41.9389 0.7913
9173 1 62.5127 43.5215 2.3739
9174 1 60.9301 41.9389 3.9565
9175 1 62.5127 43.5215 5.5391
9176 1 60.9301 41.9389 7.1217
9177 1 62.5127 43.5215 8.7043
9178 1 60.9301 41.9389 10.2869
9179 1 62.5127 43.5215 11.8695
9180 1 60.9301 41.9389 13.4521
9181 1 62.5127 43.5215 15.0347
9182 1 60.9301 41.9389 16.6173
9183 1 62.5127 43.5215 18.1999
9184 1 60.9301 41.9389 19.7825
9185 1 62.5127 43.5215 21.3651
9186 1 60.9301 41.9389 22.9477
9187 1 62.5127 43.5215 24.5303
9188 1 60.9301 41.9389 26.1129
9189 1 62.5127 43.5215 27.6955
9190 1 60.9301 41.9389 29.2781
9191 1 62.5127 43.5215 30.8607
9192 1 60.9301 41.9389 32.4433
9193 1 62.5127 43.5215 34.0259
9194 1 60.9301 41.9389 35.6085
9195 1 62.5127 43.5215 37.1911
9196 1 60.9301 41.9389 38.7737
9197 1 62.5127 43.5215 40.3563
9198 1 60.9301 41.9389 41.9389
9199 1 62.5127 43.5215 43.5215
9200 1 60.9301 41.9389 45.1041
9201 1 62.5127 43.5215 46.6867
9202 1 60.9301 41.9389 48.2693
9203 1 62.5127 43.5215 49.8519
9204 1 60.9301 41.9389 51.4345
9205 1 62.5127 43.5215 53.0171
9206 1 60.9301 41.9389 54.5997
9207 1 62.5127 43.5215 56.1823
9208 1 60.9301 41.9389 57.7649
9209 1 62.5127 43.5215 59.3475
9210 1 60.9301 41.9389 60.9301
9211 1 62.5127 43.5215 62.5127
9212 1 60.9301 45.1041 0.7913
9213 1 62.5127 46.6867 2.3739
9214 1 60.9301 45.1041 3.9565
9215 1 62.5127 46.6867 5.5391
9216 1 60.9301 45.1041 7.1217
9217 1 62.5127 46.6867 8.7043
9218 1 60.9301 45.1041 10.2869
9219 1 62.5127 46.6867 11.8695
9220 1 60.9301 45.1041 13.4521
9221 1 62.5127 46.6867 15.0347
9222 1 60.9301 45.1041 16.6173
9223 1 62.5127 46.6867 18.1999
9224 1 60.9301 45.1041 19.7825
9225 1 62.5127 46.6867 21.3651
9226 1 60.9301 45.1041 22.9477
9227 1 62.5127 46.6867 24.5303
9228 1 60.9301 45.1041 26.1129
9229 1 62.5127 46.6867 27.6955
9230 1 60.9301 45.1041 29.2781
9231 1 62.5127 46.6867 30.8607
9232 1 60.9301 45.1041 32.4433
9233 1 62.5127 46.6867 34.0259
9234 1 60.9301 45.1041 35.6085
9235 1 62.5127 46.6867 37.1911
9236 1 60.9301 45.1041 38.7737
9237 1 62.5127 46.6867 40.3563
9238 1 60.9301 45.1041 41.9389
9239 1 62.5127 46.6867 43.5215
9240 1 60.9301 45.1041 45.1041
9241 1 62.5127 46.6867 46.6867
9242 1 60.9301 45.1041 48.2693
9243 1 62.5127 46.6867 49.8519
9244 1 60.9301 45.1041 51.4345
9245 1 62.5127 46.6867 53.0171
9246 1 60.9301 45.1041 54.5997
9247 1 62.5127 46.6867 56.1823
9248 1 60.9301 45.1041 57.7649
9249 1 62.5127 46.6867 59.3475
9250 1 60.9301 45.1041 60.9301
9251 1 62.5127 46.6867 62.5127
9252 1 60.9301 48.2693 0.7913
9253 1 62.5127 49.8519 2.3739
9254 1 60.9301 48.2693 3.9565
9255 1 62.5127 49.8519 5.5391
9256 1 60.9301 48.2693 7.1217
9257 1 62.5127 49.8519 8.7043
9258 1 60.9301 48.2693 10.2869
9259 1 62.5127 49.8519 11.8695
9260 1 60.9301 48.2693 13.4521
9261 1 62.5127 49.8519 15.0347
9262 1 60.9301 48.2693 16.6173
9263 1 62.5127 49.8519 18.1999
9264 1 60.9301 48.2693 19.7825
9265 1 62.5127 49.8519 21.3651
9266 1 60.9301 48.2693 22.9477
9267 1 62.5127 49.8519 24.5303
9268 1 60.9301 48.2693 26.1129
9269 1 62.5127 49.8519 27.6955
9270 1 60.9301 48.2693 29.2781
9271 1 62.5127 49.8519 30.8607
9272 1 60.9301 48.2693 32.4433
9273 1 62.5127 49.8519 34.0259
9274 1 60.9301 48.2693 35.6085
9275 1 62.5127 49.8519 37.1911
9276 1 60.9301 48.2693 38.7737
9277 1 62.5127 49.8519 40.3563
9278 1 60.9301 48.2693 41.9389
9279 1 62.5127 49.8519 43.5215
9280 1 60.9301 48.2693 45.1041
9281 1 62.5127 49.8519 46.6867
9282 1 60.9301 48.2693 48.2693
9283 1 62.5127 49.8519 49.8519
9284 1 60.9301 48.2693 51.4345
9285 1 62.5127 49.8519 53.0171
9286 1 60.9301 48.2693 54.5997
9287 1 62.5127 49.8519 56.1823
9288 1 60.9301 48.2693 57.7649
9289 1 62.5127 49.8519 59.3475
9290 1 60.9301 48.2693 60.9301
9291 1 62.5127 49.8519 62.5127
9292 1 60.9301 51.4345 0.7913
9293 1 62.5127 53.0171 2.3739
9294 1 60.9301 51.4345 3.9565
9295 1 62.5127 53.0171 5.5391
9296 1 60.9301 51.4345 7.1217
9297 1 62.5127 53.0171 8.7043
9298 1 60.9301 51.4345 10.2869
9299 1 62.5127 53.0171 11.8695
9300 1 60.9301 51.4345 13.4521
9301 1 62.5127 53.0171 15.0347
9302 1 60.9301 51.4345 16.6173
9303 1 62.5127 53.0171 18.1999
9304 1 60.9301 51.4345 19.7825
9305 1 62.5127 53.0171 21.3651
9306 1 60.9301 51.4345 22.9477
9307 1 62.5127 53.0171 24.5303
9308 1 60.9301 51.4345 26.1129
9309 1 62.5127 53.0171 27.6955
9310 1 60.9301 51.4345 29.2781
9311 1 62.5127 53.0171 30.8607
9312 1 60.9301 51.4345 32.4433
9313 1 62.5127 53.0171 34.0259
9314 1 60.9301 51.4345 35.6085
9315 1 62.5127 53.0171 37.1911
9316 1 60.9301 51.4345 38.7737
9317 1 62.5127 53.0171 40.3563
9318 1 60.9301 51.4345 41.9389
9319 1 62.5127 53.0171 43.5215
9320 1 60.9301 51.4345 45.1041
9321 1 62.5127 53.0171 46.6867
9322 1 60.9301 51.4345 48.2693
9323 1 62.5127 53.0171 49.8519
9324 1 60.9301 51.4345 51.4345
9325 1 62.5127 53.0171 53.0171
9326 1 60.9301 51.4345 54.5997
9327 1 62.5127 53.0171 56.1823
9328 1 60.9301 51.4345 57.7649
9329 1 62.5127 53.0171 59.3475
9330 1 60.9301 51.4345 60.9301
9331 1 62.5127 53.0171 62.5127
9332 1 60.9301 54.5997 0.7913
9333 1 62.5127 56.1823 2.3739
9334 1 60.9301 54.5997 3.9565
9335 1 62.5127 56.1823 5.5391
9336 1 60.9301 54.5997 7.1217
9337 1 62.5127 56.1823 8.7043
9338 1 60.9301 54.5997 10.2869
9339 1 62.5127 56.1823 11.8695
9340 1 60.9301 54.5997 13.4521
9341 1 62.5127 56.1823 15.0347
9342 1 60.9301 54.5997 16.6173
9343 1 62.5127 56.1823 18.1999
9344 1 60.9301 54.5997 19.7825
9345 1 62.5127 56.1823 21.3651
9346 1 60.9301 54.5997 22.9477
9347 1 62.5127 56.1823 24.5303
9348 1 60.9301 54.5997 26.1129
9349 1 62.5127 56.1823 27.6955
9350 1 60.9301 54.5997 29.2781
9351 1 62.5127 56.1823 30.8607
9352 1 60.9301 54.5997 32.4433
9353 1 62.5127 56.1823 34.0259
9354 1 60.9301 54.5997 35.6085
9355 1 62.5127 56.1823 37.1911
9356 1 60.9301 54.5997 38.7737
9357 1 62.5127 56.1823 40.3563
9358 1 60.9301 54.5997 41.9389
9359 1 62.5127 56.1823 43.5215
9360 1 60.9301 54.5997 45.1041
9361 1 62.5127 56.1823 46.6867
9362 1 60.9301 54.5997 48.2693
9363 1 62.5127 56.1823 49.8519
9364 1 60.9301 54.5997 51.4345
9365 1 62.5127 56.1823 53.0171
9366 1 60.9301 54.5997 54.5997
9367 1 62.5127 56.1823 56.1823
9368 1 60.9301 54.5997 57.7649
9369 1 62.5127 56.1823 59.3475
9370 1 60.9301 54.5997 60.9301
9371 1 62.5127 56.1823 62.5127
9372 1 60.9301 57.7649 0.7913
9373 1 62.5127 59.3475 2.3739
9374 1 60.9301 57.7649 3.9565
9375 1 62.5127 59.3475 5.5391
9376 1 60.9301 57.7649 7.1217
9377 1 62.5127 59.3475 8.7043
9378 1 60.9301 57.7649 10.2869
9379 1 62.5127 59.3475 11.8695
9380 1 60.9301 57.7649 13.4521
9381 1 62.5127 59.3475 15.0347
9382 1 60.9301 57.7649 16.6173
9383 1 62.5127 59.3475 18.1999
9384 1 60.9301 57.7649 19.7825
9385 1 62.5127 59.3475 21.3651
9386 1 60.9301 57.7649 22.9477
9387 1 62.5127 59.3475 24.5303
9388 1 60.9301 57.7649 26.1129
9389 1 62.5127 59.3475 27.6955
9390 1 60.9301 57.7649 29.2781
9391 1 62.5127 59.3475 30.8607
9392 1 60.9301 57.7649 32.4433
9393 1 62.5127 59.3475 34.0259
9394 1 60.9301 57.7649 35.6085
9395 1 62.5127 59.3475 37.1911
9396 1 60.9301 57.7649 38.7737
9397 1 62.5127 59.3475 40.3563
9398 1 60.9301 57.7649 41.9389
9399 1 62.5127 59.3475 43.5215
9400 1 60.9301 57.7649 45.1041
9401 1 62.5127 59.3475 46.6867
9402 1 60.9301 57.7649 48.2693
9403 1 62.5127 59.3475 49.8519
9404 1 60.9301 57.7649 51.4345
9405 1 62.5127 59.3475 53.0171
9406 1 60.9301 57.7649 54.5997
9407 1 62.5127 59.3475 56.1823
9408 1 60.9301 57.7649 57.7649
9409 1 62.5127 59.3475 59.3475
9410 1 60.9301 57.7649 60.9301
9411 1 62.5127 59.3475 62.5127
9412 1 60.9301 60.9301 0.7913
9413 1 62.5127 62.5127 2.3739
9414 1 60.9301 60.9301 3.9565
9415 1 62.5127 62.5127 5.5391
9416 1 60.9301 60.9301 7.1217
9417 1 62.5127 62.5127 8.7043
9418 1 60.9301 60.9301 10.2869
9419 1 62.5127 62.5127 11.8695
9420 1 60.9301 60.9301 13.4521
9421 1 62.5127 62.5127 15.0347
9422 1 60.9301 60.9301 16.6173
9423 1 62.5127 62.5127 18.1999
9424 1 60.9301 60.9301 19.7825
9425 1 62.5127 62.5127 21.3651
9426 1 60.9301 60.9301 22.9477
9427 1 62.5127 62.5127 24.5303
9428 1 60.9301 60.9301 26.1129
9429 1 62.5127 62.5127 27.6955
9430 1 60.9301 60.9301 29.2781
9431 1 62.5127 62.5127 30.8607
9432 1 60.9301 60.9301 32.4433
9433 1 62.5127 62.5127 34.0259
9434 1 60.9301 60.9301 35.6085
9435 1 62.5127 62.5127 37.1911
9436 1 60.9301 60.9301 38.7737
9437 1 62.5127 62.5127 40.3563
9438 1 60.9301 60.9301 41.9389
9439 1 62.5127 62.5127 43.5215
9440 1 60.9301 60.9301 45.1041
9441 1 62.5127 62.5127 46.6867
9442 1 60.9301 60.9301 48.2693
9443 1 62.5127 62.5127 49.8519
9444 1 60.9301 60.9301 51.4345
9445 1 62.5127 62.5127 53.0171
9446 1 60.9301 60.9301 54.5997
9447 1 62.5127 62.5127 56.1823
9448 1 60.9301 60.9301 57.7649
9449 1 62.5127 62.5127 59.3475
9450 1 60.9301 60.9301 60.9301
9451 1 62.5127 62.5127 62.5127
9452 1 16.6173 0.7913 0.7913
9453 1 18.1999 2.3739 2.3739
9454 1 16.6173 0.7913 3.9565
9455 1 18.1999 2.3739 5.5391
9456 1 16.6173 0.7913 7.1217
9457 1 18.1999 2.3739 8.7043
9458 1 16.6173 0.7913 10.2869
9459 1 18.1999 2.3739 11.8695
9460 1 16.6173 0.7913 13.4521
9461 1 18.1999 2.3739 15.0347
9462 1 16.6173 0.7913 16.6173
9463 1 18.1999 2.3739 18.1999
9464 1 16.6173 0.7913 19.7825
9465 1 18.1999 2.3739 21.3651
9466 1 16.6173 3.9565 0.7913
9467 1 18.1999 5.5391 2.3739
9468 1 16.6173 3.9565 3.9565
9469 1 18.1999 5.5391 5.5391
9470 1 16.6173 3.9565 7.1217
9471 1 18.1999 5.5391 8.7043
9472 1 16.6173 3.9565 10.2869
9473 1 18.1999 5.5391 11.8695
9474 1 16.6173 3.9565 13.4521
9475 1 18.1999 5.5391 15.0347
9476 1 16.6173 3.9565 16.6173
9477 1 18.1999 5.5391 18.1999
9478 1 16.6173 3.9565 19.7825
9479 1 18.1999 5.5391 21.3651
9480 1 16.6173 7.1217 0.7913
9481 1 18.1999 8.7043 2.3739
9482 1 16.6173 7.1217 3.9565
9483 1 18.1999 8.7043 5.5391
9484 1 16.6173 7.1217 7.1217
9485 1 18.1999 8.7043 8.7043
9486 1 16.6173 7.1217 10.2869
9487 1 18.1999 8.7043 11.8695
9488 1 16.6173 7.1217 13.4521
9489 1 18.1999 8.7043 15.0347
9490 1 16.6173 7.1217 16.6173
9491 1 18.1999 8.7043 18.1999
9492 1 16.6173 7.1217 19.7825
9493 1 18.1999 8.7043 21.3651
9494 1 16.6173 10.2869 0.7913
9495 1 18.1999 11.8695 2.3739
9496 1 16.6173 10.2869 3.9565
9497 1 18.1999 11.8695 5.5391
9498 1 16.6173 10.2869 7.1217
9499 1 18.1999 11.8695 8.7043
9500 1 16.6173 10.2869 10.2869
9501 1 18.1999 11.8695 11.8695
9502 1 16.6173 10.2869 13.4521
9503 1 18.1999 11.8695 15.0347
9504 1 16.6173 10.2869 16.6173
9505 1 18.1999 11.8695 18.1999
9506 1 16.6173 10.2869 19.7825
9507 1 18.1999 11.8695 21.3651
9508 1 16.6173 13.4521 0.7913
9509 1 18.1999 15.0347 2.3739
9510 1 16.6173 13.4521 3.9565
9511 1 18.1999 15.0347 5.5391
9512 1 16.6173 13.4521 7.1217
9513 1 18.1999 15.0347 8.7043
9514 1 16.6173 13.4521 10.2869
9515 1 18.1999 15.0347 11.8695
9516 1 16.6173 13.4521 13.4521
9517 1 18.1999 15.0347 15.0347
9518 1 16.6173 13.4521 16.6173
9519 1 18.1999 15.0347 18.1999
9520 1 16.6173 13.4521 19.7825
9521 1 18.1999 15.0347 21.3651
9522 1 16.6173 16.6173 0.7913
9523 1 18.1999 18.1999 2.3739
9524 1 16.6173 16.6173 3.9565
9525 1 18.1999 18.1999 5.5391
9526 1 16.6173 16.6173 7.1217
9527 1 18.1999 18.1999 8.7043
9528 1 16.6173 16.6173 10.2869
9529 1 18.1999 18.1999 11.8695
9530 1 16.6173 16.6173 13.4521
9531 1 18.1999 18.1999 15.0347
9532 1 16.6173 16.6173 16.6173
9533 1 18.1999 18.1999 18.1999
9534 1 16.6173 16.6173 19.7825
9535 1 18.1999 18.1999 21.3651
9536 1 16.6173 19.7825 0.7913
9537 1 18.1999 21.3651 2.3739
9538 1 16.6173 19.7825 3.9565
9539 1 18.1999 21.3651 5.5391
9540 1 16.6173 19.7825 7.1217
9541 1 18.1999 21.3651 8.7043
9542 1 16.6173 19.7825 10.2869
9543 1 18.1999 21.3651 11.8695
9544 1 16.6173 19.7825 13.4521
9545 1 18.1999 21.3651 15.0347
9546 1 16.6173 19.7825 16.6173
9547 1 18.1999 21.3651 18.1999
9548 1 16.6173 19.7825 19.7825
9549 1 18.1999 21.3651 21.3651
9550 1 16.6173 22.9477 0.7913
9551 1 18.1999 24.5303 2.3739
9552 1 16.6173 22.9477 3.9565
9553 1 18.1999 24.5303 5.5391
9554 1 16.6173 22.9477 7.1217
9555 1 18.1999 24.5303 8.7043
9556 1 16.6173 22.9477 10.2869
9557 1 18.1999 24.5303 11.8695
9558 1 16.6173 22.9477 13.4521
9559 1 18.1999 24.5303 15.0347
9560 1 16.6173 22.9477 16.6173
9561 1 18.1999 24.5303 18.1999
9562 1 16.6173 22.9477 19.7825
9563 1 18.1999 24.5303 21.3651
9564 1 16.6173 26.1129 0.7913
9565 1 18.1999 27.6955 2.3739
9566 1 16.6173 26.1129 3.9565
9567 1 18.1999 27.6955 5.5391
9568 1 16.6173 26.1129 7.1217
9569 1 18.1999 27.6955 8.7043
9570 1 16.6173 26.1129 10.2869
9571 1 18.1999 27.6955 11.8695
9572 1 16.6173 26.1129 13.4521
9573 1 18.1999 27.6955 15.0347
9574 1 16.6173 26.1129 16.6173
9575 1 18.1999 27.6955 18.1999
9576 1 16.6173 26.1129 19.7825
9577 1 18.1999 27.6955 21.3651
9578 1 16.6173 29.2781 0.7913
9579 1 18.1999 30.8607 2.3739
9580 1 16.6173 29.2781 3.9565
9581 1 18.1999 30.8607 5.5391
9582 1 16.6173 29.2781 7.1217
9583 1 18.1999 30.8607 8.7043
9584 1 16.6173 29.2781 10.2869
9585 1 18.1999 30.8607 11.8695
9586 1 16.6173 29.2781 13.4521
9587 1 18.1999 30.8607 15.0347
9588 1 16.6173 29.2781 16.6173
9589 1 18.1999 30.8607 18.1999
9590 1 16.6173 29.2781 19.7825
9591 1 18.1999 30.8607 21.3651
9592 1 16.6173 32.4433 0.7913
9593 1 18.1999 34.0259 2.3739
9594 1 16.6173 32.4433 3.9565
9595 1 18.1999 34.0259 5.5391
9596 1 16.6173 32.4433 7.1217
9597 1 18.1999 34.0259 8.7043
9598 1 16.6173 32.4433 10.2869
9599 1 18.1999 34.0259 11.8695
9600 1 16.6173 32.4433 13.4521
9601 1 18.1999 34.0259 15.0347
9602 1 16.6173 32.4433 16.6173
9603 1 18.1999 34.0259 18.1999
9604 1 16.6173 32.4433 19.7825
9605 1 18.1999 34.0259 21.3651
9606 1 16.6173 35.6085 0.7913
9607 1 18.1999 37.1911 2.3739
9608 1 16.6173 35.6085 3.9565
9609 1 18.1999 37.1911 5.5391
9610 1 16.6173 35.6085 7.1217
9611 1 18.1999 37.1911 8.7043
9612 1 16.6173 35.6085 10.2869
9613 1 18.1999 37.1911 11.8695
9614 1 16.6173 35.6085 13.4521
9615 1 18.1999 37.1911 15.0347
9616 1 16.6173 35.6085 16.6173
9617 1 18.1999 37.1911 18.1999
9618 1 16.6173 35.6085 19.7825
9619 1 18.1999 37.1911 21.3651
9620 1 16.6173 38.7737 0.7913
9621 1 18.1999 40.3563 2.3739
9622 1 16.6173 38.7737 3.9565
9623 1 18.1999 40.3563 5.5391
9624 1 16.6173 38.7737 7.1217
9625 1 18.1999 40.3563 8.7043
9626 1 16.6173 38.7737 10.2869
9627 1 18.1999 40.3563 11.8695
9628 1 16.6173 38.7737 13.4521
9629 1 18.1999 40.3563 15.0347
9630 1 16.6173 38.7737 16.6173
9631 1 18.1999 40.3563 18.1999
9632 1 16.6173 38.7737 19.7825
9633 1 18.1999 40.3563 21.3651
9634 1 16.6173 41.9389 0.7913
9635 1 18.1999 43.5215 2.3739
9636 1 16.6173 41.9389 3.9565
9637 1 18.1999 43.5215 5.5391
9638 1 16.6173 41.9389 7.1217
9639 1 18.1999 43.5215 8.7043
9640 1 16.6173 41.9389 10.2869
9641 1 18.1999 43.5215 11.8695
9642 1 16.6173 41.9389 13.4521
9643 1 18.1999 43.5215 15.0347
9644 1 16.6173 41.9389 16.6173
9645 1 18.1999 43.5215 18.1999
9646 1 16.6173 41.9389 19.7825
9647 1 18.1999 43.5215 21.3651
9648 1 16.6173 45.1041 0.7913
9649 1 18.1999 46.6867 2.3739
9650 1 16.6173 45.1041 3.9565
9651 1 18.1999 46.6867 5.5391
9652 1 16.6173 45.1041 7.1217
9653 1 18.1999 46.6867 8.7043
9654 1 16.6173 45.1041 10.2869
9655 1 18.1999 46.6867 11.8695
9656 1 16.6173 45.1041 13.4521
9657 1 18.1999 46.6867 15.0347
9658 1 16.6173 45.1041 16.6173
9659 1 18.1999 46.6867 18.1999
9660 1 16.6173 45.1041 19.7825
9661 1 18.1999 46.6867 21.3651
9662 1 16.6173 48.2693 0.7913
9663 1 18.1999 49.8519 2.3739
9664 1 16.6173 48.2693 3.9565
9665 1 18.1999 49.8519 5.5391
9666 1 16.6173 48.2693 7.1217
9667 1 18.1999 49.8519 8.7043
9668 1 16.6173 48.2693 10.2869
9669 1 18.1999 49.8519 11.8695
9670 1 16.6173 48.2693 13.4521
9671 1 18.1999 49.8519 15.0347
9672 1 16.6173 48.2693 16.6173
9673 1 18.1999 49.8519 18.1999
9674 1 16.6173 48.2693 19.7825
9675 1 18.1999 49.8519 21.3651
9676 1 16.6173 51.4345 0.7913
9677 1 18.1999 53.0171 2.3739
9678 1 16.6173 51.4345 3.9565
9679 1 18.1999 53.0171 5.5391
9680 1 16.6173 51.4345 7.1217
9681 1 18.1999 53.0171 8.7043
9682 1 16.6173 51.4345 10.2869
9683 1 18.1999 53.0171 11.8695
9684 1 16.6173 51.4345 13.4521
9685 1 18.1999 53.0171 15.0347
9686 1 16.6173 51.4345 16.6173
9687 1 18.1999 53.0171 18.1999
9688 1 16.6173 51.4345 19.7825
9689 1 18.1999 53.0171 21.3651
9690 1 16.6173 54.5997 0.7913
9691 1 18.1999 56.1823 2.3739
9692 1 16.6173 54.5997 3.9565
9693 1 18.1999 56.1823 5.5391
9694 1 16.6173 54.5997 7.1217
9695 1 18.1999 56.1823 8.7043
9696 1 16.6173 54.5997 10.2869
9697 1 18.1999 56.1823 11.8695
9698 1 16.6173 54.5997 13.4521
9699 1 18.1999 56.1823 15.0347
9700 1 16.6173 54.5997 16.6173
9701 1 18.1999 56.1823 18.1999
9702 1 16.6173 54.5997 19.7825
9703 1 18.1999 56.1823 21.3651
9704 1 16.6173 57.7649 0.7913
9705 1 18.1999 59.3475 2.3739
9706 1 16.6173 57.7649 3.9565
9707 1 18.1999 59.3475 5.5391
9708 1 16.6173 57.7649 7.1217
9709 1 18.1999 59.3475 8.7043
9710 1 16.6173 57.7649 10.2869
9711 1 18.1999 59.3475 11.8695
9712 1 16.6173 57.7649 13.4521
9713 1 18.1999 59.3475 15.0347
9714 1 16.6173 57.7649 16.6173
9715 1 18.1999 59.3475 18.1999
9716 1 16.6173 57.7649 19.7825
9717 1 18.1999 59.3475 21.3651
9718 1 16.6173 60.9301 0.7913
9719 1 18.1999 62.5127 2.3739
9720 1 16.6173 60.9301 3.9565
9721 1 18.1999 62.5127 5.5391
9722 1 16.6173 60.9301 7.1217
9723 1 18.1999 62.5127 8.7043
9724 1 16.6173 60.9301 10.2869
9725 1 18.1999 62.5127 11.8695
9726 1 16.6173 60.9301 13.4521
9727 1 18.1999 62.5127 15.0347
9728 1 16.6173 60.9301 16.6173
9729 1 18.1999 62.5127 18.1999
9730 1 16.6173 60.9301 19.7825
9731 1 18.1999 62.5127 21.3651
9732 1 19.7825 0.7913 0.7913
9733 1 21.3651 2.3739 2.3739
9734 1 19.7825 0.7913 3.9565
9735 1 21.3651 2.3739 5.5391
9736 1 19.7825 0.7913 7.1217
9737 1 21.3651 2.3739 8.7043
9738 1 19.7825 0.7913 10.2869
9739 1 21.3651 2.3739 11.8695
9740 1 19.7825 0.7913 13.4521
9741 1 21.3651 2.3739 15.0347
9742 1 19.7825 0.7913 16.6173
9743 1 21.3651 2.3739 18.1999
9744 1 19.7825 0.7913 19.7825
9745 1 21.3651 2.3739 21.3651
9746 1 19.7825 3.9565 0.7913
9747 1 21.3651 5.5391 2.3739
9748 1 19.7825 3.9565 3.9565
9749 1 21.3651 5.5391 5.5391
9750 1 19.7825 3.9565 7.1217
9751 1 21.3651 5.5391 8.7043
9752 1 19.7825 3.9565 10.2869
9753 1 21.3651 5.5391 11.8695
9754 1 19.7825 3.9565 13.4521
9755 1 21.3651 5.5391 15.0347
9756 1 19.7825 3.9565 16.6173
9757 1 21.3651 5.5391 18.1999
9758 1 19.7825 3.9565 19.7825
9759 1 21.3651 5.5391 21.3651
9760 1 19.7825 7.1217 0.7913
9761 1 21.3651 8.7043 2.3739
9762 1 19.7825 7.1217 3.9565
9763 1 21.3651 8.7043 5.5391
9764 1 19.7825 7.1217 7.1217
9765 1 21.3651 8.7043 8.7043
9766 1 19.7825 7.1217 10.2869
9767 1 21.3651 8.7043 11.8695
9768 1 19.7825 7.1217 13.4521
9769 1 21.3651 8.7043 15.0347
9770 1 19.7825 7.1217 16.6173
9771 1 21.3651 8.7043 18.1999
9772 1 19.7825 7.1217 19.7825
9773 1 21.3651 8.7043 21.3651
9774 1 19.7825 10.2869 0.7913
9775 1 21.3651 11.8695 2.3739
9776 1 19.7825 10.2869 3.9565
9777 1 21.3651 11.8695 5.5391
9778 1 19.7825 10.2869 7.1217
9779 1 21.3651 11.8695 8.7043
9780 1 19.7825 10.2869 10.2869
9781 1 21.3651 11.8695 11.8695
9782 1 19.7825 10.2869 13.4521
9783 1 21.3651 11.8695 15.0347
9784 1 19.7825 10.2869 16.6173
9785 1 21.3651 11.8695 18.1999
9786 1 19.7825 10.2869 19.7825
9787 1 21.3651 11.8695 21.3651
9788 1 19.7825 13.4521 0.7913
9789 1 21.3651 15.0347 2.3739
9790 1 19.7825 13.4521 3.9565
9791 1 21.3651 15.0347 5.5391
9792 1 19.7825 13.4521 7.1217
9793 1 21.3651 15.0347 8.7043
9794 1 19.7825 13.4521 10.2869
9795 1 21.3651 15.0347 11.8695
9796 1 19.7825 13.4521 13.4521
9797 1 21.3651 15.0347 15.0347
9798 1 19.7825 13.4521 16.6173
9799 1 21.3651 15.0347 18.1999
9800 1 19.7825 13.4521 19.7825
9801 1 21.3651 15.0347 21.3651
9802 1 19.7825 16.6173 0.7913
9803 1 21.3651 18.1999 2.3739
9804 1 19.7825 16.6173 3.9565
9805 1 21.3651 18.1999 5.5391
9806 1 19.7825 16.6173 7.1217
9807 1 21.3651 18.1999 8.7043
9808 1 19.7825 16.6173 10.2869
9809 1 21.3651 18.1999 11.8695
9810 1 19.7825 16.6173 13.4521
9811 1 21.3651 18.1999 15.0347
9812 1 19.7825 16.6173 16.6173
9813 1 21.3651 18.1999 18.1999
9814 1 19.7825 16.6173 19.7825
9815 1 21.3651 18.1999 21.3651
9816 1 19.7825 19.7825 0.7913
9817 1 21.3651 21.3651 2.3739
9818 1 19.7825 19.7825 3.9565
9819 1 21.3651 21.3651 5.5391
9820 1 19.7825 19.7825 7.1217
9821 1 21.3651 21.3651 8.7043
9822 1 19.7825 19.7825 10.2869
9823 1 21.3651 21.3651 11.8695
9824 1 19.7825 19.7825 13.4521
9825 1 21.3651 21.3651 15.0347
9826 1 19.7825 19.7825 16.6173
9827 1 21.3651 21.3651 18.1999
9828 1 19.7825 19.7825 19.7825
9829 1 21.3651 21.3651 21.3651
9830 1 19.7825 22.9477 0.7913
9831 1 21.3651 24.5303 2.3739
9832 1 19.7825 22.9477 3.9565
9833 1 21.3651 24.5303 5.5391
9834 1 19.7825 22.9477 7.1217
9835 1 21.3651 24.5303 8.7043
9836 1 19.7825 22.9477 10.2869
9837 1 21.3651 24.5303 11.8695
9838 1 19.7825 22.9477 13.4521
9839 1 21.3651 24.5303 15.0347
9840 1 19.7825 22.9477 16.6173
9841 1 21.3651 24.5303 18.1999
9842 1 19.7825 22.9477 19.7825
9843 1 21.3651 24.5303 21.3651
9844 1 19.7825 26.1129 0.7913
9845 1 21.3651 27.6955 2.3739
9846 1 19.7825 26.1129 3.9565
9847 1 21.3651 27.6955 5.5391
9848 1 19.7825 26.1129 7.1217
9849 1 21.3651 27.6955 8.7043
9850 1 19.7825 26.1129 10.2869
9851 1 21.3651 27.6955 11.8695
9852 1 19.7825 26.1129 13.4521
9853 1 21.3651 27.6955 15.0347
9854 1 19.7825 26.1129 16.6173
9855 1 21.3651 27.6955 18.1999
9856 1 19.7825 26.1129 19.7825
9857 1 21.3651 27.6955 21.3651
9858 1 19.7825 29.2781 0.7913
9859 1 21.3651 30.8607 2.3739
9860 1 19.7825 29.2781 3.9565
9861 1 21.3651 30.8607 5.5391
9862 1 19.7825 29.2781 7.1217
9863 1 21.3651 30.8607 8.7043
9864 1 19.7825 29.2781 10.2869
9865 1 21.3651 30.8607 11.8695
9866 1 19.7825 29.2781 13.4521
9867 1 21.3651 30.8607 15.0347
9868 1 19.7825 29.2781 16.6173
9869 1 21.3651 30.8607 18.1999
9870 1 19.7825 29.2781 19.7825
9871 1 21.3651 30.8607 21.3651
9872 1 19.7825 32.4433 0.7913
9873 1 21.3651 34.0259 2.3739
9874 1 19.7825 32.4433 3.9565
9875 1 21.3651 34.0259 5.5391
9876 1 19.7825 32.4433 7.1217
9877 1 21.3651 34.0259 8.7043
9878 1 19.7825 32.4433 10.2869
9879 1 21.3651 34.0259 11.8695
9880 1 19.7825 32.4433 13.4521
9881 1 21.3651 34.0259 15.0347
9882 1 19.7825 32.4433 16.6173
9883 1 21.3651 34.0259 18.1999
9884 1 19.7825 32.4433 19.7825
9885 1 21.3651 34.0259 21.3651
9886 1 19.7825 35.6085 0.7913
9887 1 21.3651 37.1911 2.3739
9888 1 19.7825 35.6085 3.9565
9889 1 21.3651 37.1911 5.5391
9890 1 19.7825 35.6085 7.1217
9891 1 21.3651 37.1911 8.7043
9892 1 19.7825 35.6085 10.2869
9893 1 21.3651 37.1911 11.8695
9894 1 19.7825 35.6085 13.4521
9895 1 21.3651 37.1911 15.0347
9896 1 19.7825 35.6085 16.6173
9897 1 21.3651 37.1911 18.1999
9898 1 19.7825 35.6085 19.7825
9899 1 21.3651 37.1911 21.3651
9900 1 19.7825 38.7737 0.7913
9901 1 21.3651 40.3563 2.3739
9902 1 19.7825 38.7737 3.9565
9903 1 21.3651 40.3563 5.5391
9904 1 19.7825 38.7737 7.1217
9905 1 21.3651 40.3563 8.7043
9906 1 19.7825 38.7737 10.2869
9907 1 21.3651 40.3563 11.8695
9908 1 19.7825 38.7737 13.4521
9909 1 21.3651 40.3563 15.0347
9910 1 19.7825 38.7737 16.6173
9911 1 21.3651 40.3563 18.1999
9912 1 19.7825 38.7737 19.7825
9913 1 21.3651 40.3563 21.3651
9914 1 19.7825 41.9389 0.7913
9915 1 21.3651 43.5215 2.3739
9916 1 19.7825 41.9389 3.9565
9917 1 21.3651 43.5215 5.5391
9918 1 19.7825 41.9389 7.1217
9919 1 21.3651 43.5215 8.7043
9920 1 19.7825 41.9389 10.2869
9921 1 21.3651 43.5215 11.8695
9922 1 19.7825 41.9389 13.4521
9923 1 21.3651 43.5215 15.0347
9924 1 19.7825 41.9389 16.6173
9925 1 21.3651 43.5215 18.1999
9926 1 19.7825 41.9389 19.7825
9927 1 21.3651 43.5215 21.3651
9928 1 19.7825 45.1041 0.7913
9929 1 21.3651 46.6867 2.3739
9930 1 19.7825 45.1041 3.9565
9931 1 21.3651 46.6867 5.5391
9932 1 19.7825 45.1041 7.1217
9933 1 21.3651 46.6867 8.7043
9934 1 19.7825 45.1041 10.2869
9935 1 21.3651 46.6867 11.8695
9936 1 19.7825 45.1041 13.4521
9937 1 21.3651 46.6867 15.0347
9938 1 19.7825 45.1041 16.6173
9939 1 21.3651 46.6867 18.1999
9940 1 19.7825 45.1041 19.7825
9941 1 21.3651 46.6867 21.3651
9942 1 19.7825 48.2693 0.7913
9943 1 21.3651 49.8519 2.3739
9944 1 19.7825 48.2693 3.9565
9945 1 21.3651 49.8519 5.5391
9946 1 19.7825 48.2693 7.1217
9947 1 21.3651 49.8519 8.7043
9948 1 19.7825 48.2693 10.2869
9949 1 21.3651 49.8519 11.8695
9950 1 19.7825 48.2693 13.4521
9951 1 21.3651 49.8519 15.0347
9952 1 19.7825 48.2693 16.6173
9953 1 21.3651 49.8519 18.1999
9954 1 19.7825 48.2693 19.7825
9955 1 21.3651 49.8519 21.3651
9956 1 19.7825 51.4345 0.7913
9957 1 21.3651 53.0171 2.3739
9958 1 19.7825 51.4345 3.9565
9959 1 21.3651 53.0171 5.5391
9960 1 19.7825 51.4345 7.1217
9961 1 21.3651 53.0171 8.7043
9962 1 19.7825 51.4345 10.2869
9963 1 21.3651 53.0171 11.8695
9964 1 19.7825 51.4345 13.4521
9965 1 21.3651 53.0171 15.0347
9966 1 19.7825 51.4345 16.6173
9967 1 21.3651 53.0171 18.1999
9968 1 19.7825 51.4345 19.7825
9969 1 21.3651 53.0171 21.3651
9970 1 19.7825 54.5997 0.7913
9971 1 21.3651 56.1823 2.3739
9972 1 19.7825 54.5997 3.9565
9973 1 21.3651 56.1823 5.5391
9974 1 19.7825 54.5997 7.1217
9975 1 21.3651 56.1823 8.7043
9976 1 19.7825 54.5997 10.2869
9977 1 21.3651 56.1823 11.8695
9978 1 19.7825 54.5997 13.4521
9979 1 21.3651 56.1823 15.0347
9980 1 19.7825 54.5997 16.6173
9981 1 21.3651 56.1823 18.1999
9982 1 19.7825 54.5997 19.7825
9983 1 21.3651 56.1823 21.3651
9984 1 19.7825 57.7649 0.7913
9985 1 21.3651 59.3475 2.3739
9986 1 19.7825 57.7649 3.9565
9987 1 21.3651 59.3475 5.5391
9988 1 19.7825 57.7649 7.1217
9989 1 21.3651 59.3475 8.7043
9990 1 19.7825 57.7649 10.2869
9991 1 21.3651 59.3475 11.8695
9992 1 19.7825 57.7649 13.4521
9993 1 21.3651 59.3475 15.0347
9994 1 19.7825 57.7649 16.6173
9995 1 21.3651 59.3475 18.1999
9996 1 19.7825 57.7649 19.7825
9997 1 21.3651 59.3475 21.3651
9998 1 19.7825 60.9301 0.7913
9999 1 21.3651 62.5127 2.3739
10000 1 19.7825 60.9301 3.9565
10001 1 21.3651 62.5127 5.5391
10002 1 19.7825 60.9301 7.1217
10003 1 21.3651 62.5127 8.7043
10004 1 19.7825 60.9301 10.2869
10005 1 21.3651 62.5127 11.8695
10006 1 19.7825 60.9301 13.4521
10007 1 21.3651 62.5127 15.0347
10008 1 19.7825 60.9301 16.6173
10009 1 21.3651 62.5127 18.1999
10010 1 19.7825 60.9301 19.7825
10011 1 21.3651 62.5127 21.3651
10012 1 22.9477 0.7913 0.7913
10013 1 24.5303 2.3739 2.3739
10014 1 22.9477 0.7913 3.9565
10015 1 24.5303 2.3739 5.5391
10016 1 22.9477 0.7913 7.1217
10017 1 24.5303 2.3739 8.7043
10018 1 22.9477 0.7913 10.2869
10019 1 24.5303 2.3739 11.8695
10020 1 22.9477 0.7913 13.4521
10021 1 24.5303 2.3739 15.0347
10022 1 22.9477 0.7913 16.6173
10023 1 24.5303 2.3739 18.1999
10024 1 22.9477 0.7913 19.7825
10025 1 24.5303 2.3739 21.3651
10026 1 22.9477 3.9565 0.7913
10027 1 24.5303 5.5391 2.3739
10028 1 22.9477 3.9565 3.9565
10029 1 24.5303 5.5391 5.5391
10030 1 22.9477 3.9565 7.1217
10031 1 24.5303 5.5391 8.7043
10032 1 22.9477 3.9565 10.2869
10033 1 24.5303 5.5391 11.8695
10034 1 22.9477 3.9565 13.4521
10035 1 24.5303 5.5391 15.0347
10036 1 22.9477 3.9565 16.6173
10037 1 24.5303 5.5391 18.1999
10038 1 22.9477 3.9565 19.7825
10039 1 24.5303 5.5391 21.3651
10040 1 22.9477 7.1217 0.7913
10041 1 24.5303 8.7043 2.3739
10042 1 22.9477 7.1217 3.9565
10043 1 24.5303 8.7043 5.5391
10044 1 22.9477 7.1217 7.1217
10045 1 24.5303 8.7043 8.7043
10046 1 22.9477 7.1217 10.2869
10047 1 24.5303 8.7043 11.8695
10048 1 22.9477 7.1217 13.4521
10049 1 24.5303 8.7043 15.0347
10050 1 22.9477 7.1217 16.6173
10051 1 24.5303 8.7043 18.1999
10052 1 22.9477 7.1217 19.7825
10053 1 24.5303 8.7043 21.3651
10054 1 22.9477 10.2869 0.7913
10055 1 24.5303 11.8695 2.3739
10056 1 22.9477 10.2869 3.9565
10057 1 24.5303 11.8695 5.5391
10058 1 22.9477 10.2869 7.1217
10059 1 24.5303 11.8695 8.7043
10060 1 22.9477 10.2869 10.2869
10061 1 24.5303 11.8695 11.8695
10062 1 22.9477 10.2869 13.4521
10063 1 24.5303 11.8695 15.0347
10064 1 22.9477 10.2869 16.6173
10065 1 24.5303 11.8695 18.1999
10066 1 22.9477 10.2869 19.7825
10067 1 24.5303 11.8695 21.3651
10068 1 22.9477 13.4521 0.7913
10069 1 24.5303 15.0347 2.3739
10070 1 22.9477 13.4521 3.9565
10071 1 24.5303 15.0347 5.5391
10072 1 22.9477 13.4521 7.1217
10073 1 24.5303 15.0347 8.7043
10074 1 22.9477 13.4521 10.2869
10075 1 24.5303 15.0347 11.8695
10076 1 22.9477 13.4521 13.4521
10077 1 24.5303 15.0347 15.0347
10078 1 22.9477 13.4521 16.6173
10079 1 24.5303 15.0347 18.1999
10080 1 22.9477 13.4521 19.7825
10081 1 24.5303 15.0347 21.3651
10082 1 22.9477 16.6173 0.7913
10083 1 24.5303 18.1999 2.3739
10084 1 22.9477 16.6173 3.9565
10085 1 24.5303 18.1999 5.5391
10086 1 22.9477 16.6173 7.1217
10087 1 24.5303 18.1999 8.7043
10088 1 22.9477 16.6173 10.2869
10089 1 24.5303 18.1999 11.8695
10090 1 22.9477 16.6173 13.4521
10091 1 24.5303 18.1999 15.0347
10092 1 22.9477 16.6173 16.6173
10093 1 24.5303 18.1999 18.1999
10094 1 22.9477 16.6173 19.7825
10095 1 24.5303 18.1999 21.3651
10096 1 22.9477 19.7825 0.7913
10097 1 24.5303 21.3651 2.3739
10098 1 22.9477 19.7825 3.9565
10099 1 24.5303 21.3651 5.5391
10100 1 22.9477 19.7825 7.1217
10101 1 24.5303 21.3651 8.7043
10102 1 22.9477 19.7825 10.2869
10103 1 24.5303 21.3651 11.8695
10104 1 22.9477 19.7825 13.4521
10105 1 24.5303 21.3651 15.0347
10106 1 22.9477 19.7825 16.6173
10107 1 24.5303 21.3651 18.1999
10108 1 22.9477 19.7825 19.7825
10109 1 24.5303 21.3651 21.3651
10110 1 22.9477 22.9477 0.7913
10111 1 24.5303 24.5303 2.3739
10112 1 22.9477 22.9477 3.9565
10113 1 24.5303 24.5303 5.5391
10114 1 22.9477 22.9477 7.1217
10115 1 24.5303 24.5303 8.7043
10116 1 22.9477 22.9477 10.2869
10117 1 24.5303 24.5303 11.8695
10118 1 22.9477 22.9477 13.4521
10119 1 24.5303 24.5303 15.0347
10120 1 22.9477 22.9477 16.6173
10121 1 24.5303 24.5303 18.1999
10122 1 22.9477 22.9477 19.7825
10123 1 24.5303 24.5303 21.3651
10124 1 22.9477 26.1129 0.7913
10125 1 24.5303 27.6955 2.3739
10126 1 22.9477 26.1129 3.9565
10127 1 24.5303 27.6955 5.5391
10128 1 22.9477 26.1129 7.1217
10129 1 24.5303 27.6955 8.7043
10130 1 22.9477 26.1129 10.2869
10131 1 24.5303 27.6955 11.8695
10132 1 22.9477 26.1129 13.4521
10133 1 24.5303 27.6955 15.0347
10134 1 22.9477 26.1129 16.6173
10135 1 24.5303 27.6955 18.1999
10136 1 22.9477 26.1129 19.7825
10137 1 24.5303 27.6955 21.3651
10138 1 22.9477 29.2781 0.7913
10139 1 24.5303 30.8607 2.3739
10140 1 22.9477 29.2781 3.9565
10141 1 24.5303 30.8607 5.5391
10142 1 22.9477 29.2781 7.1217
10143 1 24.5303 30.8607 8.7043
10144 1 22.9477 29.2781 10.2869
10145 1 24.5303 30.8607 11.8695
10146 1 22.9477 29.2781 13.4521
10147 1 24.5303 30.8607 15.0347
10148 1 22.9477 29.2781 16.6173
10149 1 24.5303 30.8607 18.1999
10150 1 22.9477 29.2781 19.7825
10151 1 24.5303 30.8607 21.3651
10152 1 22.9477 32.4433 0.7913
10153 1 24.5303 34.0259 2.3739
10154 1 22.9477 32.4433 3.9565
10155 1 24.5303 34.0259 5.5391
10156 1 22.9477 32.4433 7.1217
10157 1 24.5303 34.0259 8.7043
10158 1 22.9477 32.4433 10.2869
10159 1 24.5303 34.0259 11.8695
10160 1 22.9477 32.4433 13.4521
10161 1 24.5303 34.0259 15.0347
10162 1 22.9477 32.4433 16.6173
10163 1 24.5303 34.0259 18.1999
10164 1 22.9477 32.4433 19.7825
10165 1 24.5303 34.0259 21.3651
10166 1 22.9477 35.6085 0.7913
10167 1 24.5303 37.1911 2.3739
10168 1 22.9477 35.6085 3.9565
10169 1 24.5303 37.1911 5.5391
10170 1 22.9477 35.6085 7.1217
10171 1 24.5303 37.1911 8.7043
10172 1 22.9477 35.6085 10.2869
10173 1 24.5303 37.1911 11.8695
10174 1 22.9477 35.6085 13.4521
10175 1 24.5303 37.1911 15.0347
10176 1 22.9477 35.6085 16.6173
10177 1 24.5303 37.1911 18.1999
10178 1 22.9477 35.6085 19.7825
10179 1 24.5303 37.1911 21.3651
10180 1 22.9477 38.7737 0.7913
10181 1 24.5303 40.3563 2.3739
10182 1 22.9477 38.7737 3.9565
10183 1 24.5303 40.3563 5.5391
10184 1 22.9477 38.7737 7.1217
10185 1 24.5303 40.3563 8.7043
10186 1 22.9477 38.7737 10.2869
10187 1 24.5303 40.3563 11.8695
10188 1 22.9477 38.7737 13.4521
10189 1 24.5303 40.3563 15.0347
10190 1 22.9477 38.7737 16.6173
10191 1 24.5303 40.3563 18.1999
10192 1 22.9477 38.7737 19.7825
10193 1 24.5303 40.3563 21.3651
10194 1 22.9477 41.9389 0.7913
10195 1 24.5303 43.5215 2.3739
10196 1 22.9477 41.9389 3.9565
10197 1 24.5303 43.5215 5.5391
10198 1 22.9477 41.9389 7.1217
10199 1 24.5303 43.5215 8.7043
10200 1 22.9477 41.9389 10.2869
10201 1 24.5303 43.5215 11.8695
10202 1 22.9477 41.9389 13.4521
10203 1 24.5303 43.5215 15.0347
10204 1 22.9477 41.9389 16.6173
10205 1 24.5303 43.5215 18.1999
10206 1 22.9477 41.9389 19.7825
10207 1 24.5303 43.5215 21.3651
10208 1 22.9477 45.1041 0.7913
10209 1 24.5303 46.6867 2.3739
10210 1 22.9477 45.1041 3.9565
10211 1 24.5303 46.6867 5.5391
10212 1 22.9477 45.1041 7.1217
10213 1 24.5303 46.6867 8.7043
10214 1 22.9477 45.1041 10.2869
10215 1 24.5303 46.6867 11.8695
10216 1 22.9477 45.1041 13.4521
10217 1 24.5303 46.6867 15.0347
10218 1 22.9477 45.1041 16.6173
10219 1 24.5303 46.6867 18.1999
10220 1 22.9477 45.1041 19.7825
10221 1 24.5303 46.6867 21.3651
10222 1 22.9477 48.2693 0.7913
10223 1 24.5303 49.8519 2.3739
10224 1 22.9477 48.2693 3.9565
10225 1 24.5303 49.8519 5.5391
10226 1 22.9477 48.2693 7.1217
10227 1 24.5303 49.8519 8.7043
10228 1 22.9477 48.2693 10.2869
10229 1 24.5303 49.8519 11.8695
10230 1 22.9477 48.2693 13.4521
10231 1 24.5303 49.8519 15.0347
10232 1 22.9477 48.2693 16.6173
10233 1 24.5303 49.8519 18.1999
10234 1 22.9477 48.2693 19.7825
10235 1 24.5303 49.8519 21.3651
10236 1 22.9477 51.4345 0.7913
10237 1 24.5303 53.0171 2.3739
10238 1 22.9477 51.4345 3.9565
10239 1 24.5303 53.0171 5.5391
10240 1 22.9477 51.4345 7.1217
10241 1 24.5303 53.0171 8.7043
10242 1 22.9477 51.4345 10.2869
10243 1 24.5303 53.0171 11.8695
10244 1 22.9477 51.4345 13.4521
10245 1 24.5303 53.0171 15.0347
10246 1 22.9477 51.4345 16.6173
10247 1 24.5303 53.0171 18.1999
10248 1 22.9477 51.4345 19.7825
10249 1 24.5303 53.0171 21.3651
10250 1 22.9477 54.5997 0.7913
10251 1 24.5303 56.1823 2.3739
10252 1 22.9477 54.5997 3.9565
10253 1 24.5303 56.1823 5.5391
10254 1 22.9477 54.5997 7.1217
10255 1 24.5303 56.1823 8.7043
10256 1 22.9477 54.5997 10.2869
10257 1 24.5303 56.1823 11.8695
10258 1 22.9477 54.5997 13.4521
10259 1 24.5303 56.1823 15.0347
10260 1 22.9477 54.5997 16.6173
10261 1 24.5303 56.1823 18.1999
10262 1 22.9477 54.5997 19.7825
10263 1 24.5303 56.1823 21.3651
10264 1 22.9477 57.7649 0.7913
10265 1 24.5303 59.3475 2.3739
10266 1 22.9477 57.7649 3.9565
10267 1 24.5303 59.3475 5.5391
10268 1 22.9477 57.7649 7.1217
10269 1 24.5303 59.3475 8.7043
10270 1 22.9477 57.7649 10.2869
10271 1 24.5303 59.3475 11.8695
10272 1 22.9477 57.7649 13.4521
10273 1 24.5303 59.3475 15.0347
10274 1 22.9477 57.7649 16.6173
10275 1 24.5303 59.3475 18.1999
10276 1 22.9477 57.7649 19.7825
10277 1 24.5303 59.3475 21.3651
10278 1 22.9477 60.9301 0.7913
10279 1 24.5303 62.5127 2.3739
10280 1 22.9477 60.9301 3.9565
10281 1 24.5303 62.5127 5.5391
10282 1 22.9477 60.9301 7.1217
10283 1 24.5303 62.5127 8.7043
10284 1 22.9477 60.9301 10.2869
10285 1 24.5303 62.5127 11.8695
10286 1 22.9477 60.9301 13.4521
10287 1 24.5303 62.5127 15.0347
10288 1 22.9477 60.9301 16.6173
10289 1 24.5303 62.5127 18.1999
10290 1 22.9477 60.9301 19.7825
10291 1 24.5303 62.5127 21.3651
10292 1 26.1129 0.7913 0.7913
10293 1 27.6955 2.3739 2.3739
10294 1 26.1129 0.7913 3.9565
10295 1 27.6955 2.3739 5.5391
10296 1 26.1129 0.7913 7.1217
10297 1 27.6955 2.3739 8.7043
10298 1 26.1129 0.7913 10.2869
10299 1 27.6955 2.3739 11.8695
10300 1 26.1129 0.7913 13.4521
10301 1 27.6955 2.3739 15.0347
10302 1 26.1129 0.7913 16.6173
10303 1 27.6955 2.3739 18.1999
10304 1 26.1129 0.7913 19.7825
10305 1 27.6955 2.3739 21.3651
10306 1 26.1129 3.9565 0.7913
10307 1 27.6955 5.5391 2.3739
10308 1 26.1129 3.9565 3.9565
10309 1 27.6955 5.5391 5.5391
10310 1 26.1129 3.9565 7.1217
10311 1 27.6955 5.5391 8.7043
10312 1 26.1129 3.9565 10.2869
10313 1 27.6955 5.5391 11.8695
10314 1 26.1129 3.9565 13.4521
10315 1 27.6955 5.5391 15.0347
10316 1 26.1129 3.9565 16.6173
10317 1 27.6955 5.5391 18.1999
10318 1 26.1129 3.9565 19.7825
10319 1 27.6955 5.5391 21.3651
10320 1 26.1129 7.1217 0.7913
10321 1 27.6955 8.7043 2.3739
10322 1 26.1129 7.1217 3.9565
10323 1 27.6955 8.7043 5.5391
10324 1 26.1129 7.1217 7.1217
10325 1 27.6955 8.7043 8.7043
10326 1 26.1129 7.1217 10.2869
10327 1 27.6955 8.7043 11.8695
10328 1 26.1129 7.1217 13.4521
10329 1 27.6955 8.7043 15.0347
10330 1 26.1129 7.1217 16.6173
10331 1 27.6955 8.7043 18.1999
10332 1 26.1129 7.1217 19.7825
10333 1 27.6955 8.7043 21.3651
10334 1 26.1129 10.2869 0.7913
10335 1 27.6955 11.8695 2.3739
10336 1 26.1129 10.2869 3.9565
10337 1 27.6955 11.8695 5.5391
10338 1 26.1129 10.2869 7.1217
10339 1 27.6955 11.8695 8.7043
10340 1 26.1129 10.2869 10.2869
10341 1 27.6955 11.8695 11.8695
10342 1 26.1129 10.2869 13.4521
10343 1 27.6955 11.8695 15.0347
10344 1 26.1129 10.2869 16.6173
10345 1 27.6955 11.8695 18.1999
10346 1 26.1129 10.2869 19.7825
10347 1 27.6955 11.8695 21.3651
10348 1 26.1129 13.4521 0.7913
10349 1 27.6955 15.0347 2.3739
10350 1 26.1129 13.4521 3.9565
10351 1 27.6955 15.0347 5.5391
10352 1 26.1129 13.4521 7.1217
10353 1 27.6955 15.0347 8.7043
10354 1 26.1129 13.4521 10.2869
10355 1 27.6955 15.0347 11.8695
10356 1 26.1129 13.4521 13.4521
10357 1 27.6955 15.0347 15.0347
10358 1 26.1129 13.4521 16.6173
10359 1 27.6955 15.0347 18.1999
10360 1 26.1129 13.4521 19.7825
10361 1 27.6955 15.0347 21.3651
10362 1 26.1129 16.6173 0.7913
10363 1 27.6955 18.1999 2.3739
10364 1 26.1129 16.6173 3.9565
10365 1 27.6955 18.1999 5.5391
10366 1 26.1129 16.6173 7.1217
10367 1 27.6955 18.1999 8.7043
10368 1 26.1129 16.6173 10.2869
10369 1 27.6955 18.1999 11.8695
10370 1 26.1129 16.6173 13.4521
10371 1 27.6955 18.1999 15.0347
10372 1 26.1129 16.6173 16.6173
10373 1 27.6955 18.1999 18.1999
10374 1 26.1129 16.6173 19.7825
10375 1 27.6955 18.1999 21.3651
10376 1 26.1129 19.7825 0.7913
10377 1 27.6955 21.3651 2.3739
10378 1 26.1129 19.7825 3.9565
10379 1 27.6955 21.3651 5.5391
10380 1 26.1129 19.7825 7.1217
10381 1 27.6955 21.3651 8.7043
10382 1 26.1129 19.7825 10.2869
10383 1 27.6955 21.3651 11.8695
10384 1 26.1129 19.7825 13.4521
10385 1 27.6955 21.3651 15.0347
10386 1 26.1129 19.7825 16.6173
10387 1 27.6955 21.3651 18.1999
10388 1 26.1129 19.7825 19.7825
10389 1 27.6955 21.3651 21.3651
10390 1 26.1129 22.9477 0.7913
10391 1 27.6955 24.5303 2.3739
10392 1 26.1129 22.9477 3.9565
10393 1 27.6955 24.5303 5.5391
10394 1 26.1129 22.9477 7.1217
10395 1 27.6955 24.5303 8.7043
10396 1 26.1129 22.9477 10.2869
10397 1 27.6955 24.5303 11.8695
10398 1 26.1129 22.9477 13.4521
10399 1 27.6955 24.5303 15.0347
10400 1 26.1129 22.9477 16.6173
10401 1 27.6955 24.5303 18.1999
10402 1 26.1129 22.9477 19.7825
10403 1 27.6955 24.5303 21.3651
10404 1 26.1129 26.1129 0.7913
10405 1 27.6955 27.6955 2.3739
10406 1 26.1129 26.1129 3.9565
10407 1 27.6955 27.6955 5.5391
10408 1 26.1129 26.1129 7.1217
10409 1 27.6955 27.6955 8.7043
10410 1 26.1129 26.1129 10.2869
10411 1 27.6955 27.6955 11.8695
10412 1 26.1129 26.1129 13.4521
10413 1 27.6955 27.6955 15.0347
10414 1 26.1129 26.1129 16.6173
10415 1 27.6955 27.6955 18.1999
10416 1 26.1129 26.1129 19.7825
10417 1 27.6955 27.6955 21.3651
10418 1 26.1129 29.2781 0.7913
10419 1 27.6955 30.8607 2.3739
10420 1 26.1129 29.2781 3.9565
10421 1 27.6955 30.8607 5.5391
10422 1 26.1129 29.2781 7.1217
10423 1 27.6955 30.8607 8.7043
10424 1 26.1129 29.2781 10.2869
10425 1 27.6955 30.8607 11.8695
10426 1 26.1129 29.2781 13.4521
10427 1 27.6955 30.8607 15.0347
10428 1 26.1129 29.2781 16.6173
10429 1 27.6955 30.8607 18.1999
10430 1 26.1129 29.2781 19.7825
10431 1 27.6955 30.8607 21.3651
10432 1 26.1129 32.4433 0.7913
10433 1 27.6955 34.0259 2.3739
10434 1 26.1129 32.4433 3.9565
10435 1 27.6955 34.0259 5.5391
10436 1 26.1129 32.4433 7.1217
10437 1 27.6955 34.0259 8.7043
10438 1 26.1129 32.4433 10.2869
10439 1 27.6955 34.0259 11.8695
10440 1 26.1129 32.4433 13.4521
10441 1 27.6955 34.0259 15.0347
10442 1 26.1129 32.4433 16.6173
10443 1 27.6955 34.0259 18.1999
10444 1 26.1129 32.4433 19.7825
10445 1 27.6955 34.0259 21.3651
10446 1 26.1129 35.6085 0.7913
10447 1 27.6955 37.1911 2.3739
10448 1 26.1129 35.6085 3.9565
10449 1 27.6955 37.1911 5.5391
10450 1 26.1129 35.6085 7.1217
10451 1 27.6955 37.1911 8.7043
10452 1 26.1129 35.6085 10.2869
10453 1 27.6955 37.1911 11.8695
10454 1 26.1129 35.6085 13.4521
10455 1 27.6955 37.1911 15.0347
10456 1 26.1129 35.6085 16.6173
10457 1 27.6955 37.1911 18.1999
10458 1 26.1129 35.6085 19.7825
10459 1 27.6955 37.1911 21.3651
10460 1 26.1129 38.7737 0.7913
10461 1 27.6955 40.3563 2.3739
10462 1 26.1129 38.7737 3.9565
10463 1 27.6955 40.3563 5.5391
10464 1 26.1129 38.7737 7.1217
10465 1 27.6955 40.3563 8.7043
10466 1 26.1129 38.7737 10.2869
10467 1 27.6955 40.3563 11.8695
10468 1 26.1129 38.7737 13.4521
10469 1 27.6955 40.3563 15.0347
10470 1 26.1129 38.7737 16.6173
10471 1 27.6955 40.3563 18.1999
10472 1 26.1129 38.7737 19.7825
10473 1 27.6955 40.3563 21.3651
10474 1 26.1129 41.9389 0.7913
10475 1 27.6955 43.5215 2.3739
10476 1 26.1129 41.9389 3.9565
10477 1 27.6955 43.5215 5.5391
10478 1 26.1129 41.9389 7.1217
10479 1 27.6955 43.5215 8.7043
10480 1 26.1129 41.9389 10.2869
10481 1 27.6955 43.5215 11.8695
10482 1 26.1129 41.9389 13.4521
10483 1 27.6955 43.5215 15.0347
10484 1 26.1129 41.9389 16.6173
10485 1 27.6955 43.5215 18.1999
10486 1 26.1129 41.9389 19.7825
10487 1 27.6955 43.5215 21.3651
10488 1 26.1129 45.1041 0.7913
10489 1 27.6955 46.6867 2.3739
10490 1 26.1129 45.1041 3.9565
10491 1 27.6955 46.6867 5.5391
10492 1 26.1129 45.1041 7.1217
10493 1 27.6955 46.6867 8.7043
10494 1 26.1129 45.1041 10.2869
10495 1 27.6955 46.6867 11.8695
10496 1 26.1129 45.1041 13.4521
10497 1 27.6955 46.6867 15.0347
10498 1 26.1129 45.1041 16.6173
10499 1 27.6955 46.6867 18.1999
10500 1 26.1129 45.1041 19.7825
10501 1 27.6955 46.6867 21.3651
10502 1 26.1129 48.2693 0.7913
10503 1 27.6955 49.8519 2.3739
10504 1 26.1129 48.2693 3.9565
10505 1 27.6955 49.8519 5.5391
10506 1 26.1129 48.2693 7.1217
10507 1 27.6955 49.8519 8.7043
10508 1 26.1129 48.2693 10.2869
10509 1 27.6955 49.8519 11.8695
10510 1 26.1129 48.2693 13.4521
10511 1 27.6955 49.8519 15.0347
10512 1 26.1129 48.2693 16.6173
10513 1 27.6955 49.8519 18.1999
10514 1 26.1129 48.2693 19.7825
10515 1 27.6955 49.8519 21.3651
10516 1 26.1129 51.4345 0.7913
10517 1 27.6955 53.0171 2.3739
10518 1 26.1129 51.4345 3.9565
10519 1 27.6955 53.0171 5.5391
10520 1 26.1129 51.4345 7.1217
10521 1 27.6955 53.0171 8.7043
10522 1 26.1129 51.4345 10.2869
10523 1 27.6955 53.0171 11.8695
10524 1 26.1129 51.4345 13.4521
10525 1 27.6955 53.0171 15.0347
10526 1 26.1129 51.4345 16.6173
10527 1 27.6955 53.0171 18.1999
10528 1 26.1129 51.4345 19.7825
10529 1 27.6955 53.0171 21.3651
10530 1 26.1129 54.5997 0.7913
10531 1 27.6955 56.1823 2.3739
10532 1 26.1129 54.5997 3.9565
10533 1 27.6955 56.1823 5.5391
10534 1 26.1129 54.5997 7.1217
10535 1 27.6955 56.1823 8.7043
10536 1 26.1129 54.5997 10.2869
10537 1 27.6955 56.1823 11.8695
10538 1 26.1129 54.5997 13.4521
10539 1 27.6955 56.1823 15.0347
10540 1 26.1129 54.5997 16.6173
10541 1 27.6955 56.1823 18.1999
10542 1 26.1129 54.5997 19.7825
10543 1 27.6955 56.1823 21.3651
10544 1 26.1129 57.7649 0.7913
10545 1 27.6955 59.3475 2.3739
10546 1 26.1129 57.7649 3.9565
10547 1 27.6955 59.3475 5.5391
10548 1 26.1129 57.7649 7.1217
10549 1 27.6955 59.3475 8.7043
10550 1 26.1129 57.7649 10.2869
10551 1 27.6955 59.3475 11.8695
10552 1 26.1129 57.7649 13.4521
10553 1 27.6955 59.3475 15.0347
10554 1 26.1129 57.7649 16.6173
10555 1 27.6955 59.3475 18.1999
10556 1 26.1129 57.7649 19.7825
10557 1 27.6955 59.3475 21.3651
10558 1 26.1129 60.9301 0.7913
10559 1 27.6955 62.5127 2.3739
10560 1 26.1129 60.9301 3.9565
10561 1 27.6955 62.5127 5.5391
10562 1 26.1129 60.9301 7.1217
10563 1 27.6955 62.5127 8.7043
10564 1 26.1129 60.9301 10.2869
10565 1 27.6955 62.5127 11.8695
10566 1 26.1129 60.9301 13.4521
10567 1 27.6955 62.5127 15.0347
10568 1 26.1129 60.9301 16.6173
10569 1 27.6955 62.5127 18.1999
10570 1 26.1129 60.9301 19.7825
10571 1 27.6955 62.5127 21.3651
10572 1 29.2781 0.7913 0.7913
10573 1 30.8607 2.3739 2.3739
10574 1 29.2781 0.7913 3.9565
10575 1 30.8607 2.3739 5.5391
10576 1 29.2781 0.7913 7.1217
10577 1 30.8607 2.3739 8.7043
10578 1 29.2781 0.7913 10.2869
10579 1 30.8607 2.3739 11.8695
10580 1 29.2781 0.7913 13.4521
10581 1 30.8607 2.3739 15.0347
10582 1 29.2781 0.7913 16.6173
10583 1 30.8607 2.3739 18.1999
10584 1 29.2781 0.7913 19.7825
10585 1 30.8607 2.3739 21.3651
10586 1 29.2781 3.9565 0.7913
10587 1 30.8607 5.5391 2.3739
10588 1 29.2781 3.9565 3.9565
10589 1 30.8607 5.5391 5.5391
10590 1 29.2781 3.9565 7.1217
10591 1 30.8607 5.5391 8.7043
10592 1 29.2781 3.9565 10.2869
10593 1 30.8607 5.5391 11.8695
10594 1 29.2781 3.9565 13.4521
10595 1 30.8607 5.5391 15.0347
10596 1 29.2781 3.9565 16.6173
10597 1 30.8607 5.5391 18.1999
10598 1 29.2781 3.9565 19.7825
10599 1 30.8607 5.5391 21.3651
10600 1 29.2781 7.1217 0.7913
10601 1 30.8607 8.7043 2.3739
10602 1 29.2781 7.1217 3.9565
10603 1 30.8607 8.7043 5.5391
10604 1 29.2781 7.1217 7.1217
10605 1 30.8607 8.7043 8.7043
10606 1 29.2781 7.1217 10.2869
10607 1 30.8607 8.7043 11.8695
10608 1 29.2781 7.1217 13.4521
10609 1 30.8607 8.7043 15.0347
10610 1 29.2781 7.1217 16.6173
10611 1 30.8607 8.7043 18.1999
10612 1 29.2781 7.1217 19.7825
10613 1 30.8607 8.7043 21.3651
10614 1 29.2781 10.2869 0.7913
10615 1 30.8607 11.8695 2.3739
10616 1 29.2781 10.2869 3.9565
10617 1 30.8607 11.8695 5.5391
10618 1 29.2781 10.2869 7.1217
10619 1 30.8607 11.8695 8.7043
10620 1 29.2781 10.2869 10.2869
10621 1 30.8607 11.8695 11.8695
10622 1 29.2781 10.2869 13.4521
10623 1 30.8607 11.8695 15.0347
10624 1 29.2781 10.2869 16.6173
10625 1 30.8607 11.8695 18.1999
10626 1 29.2781 10.2869 19.7825
10627 1 30.8607 11.8695 21.3651
10628 1 29.2781 13.4521 0.7913
10629 1 30.8607 15.0347 2.3739
10630 1 29.2781 13.4521 3.9565
10631 1 30.8607 15.0347 5.5391
10632 1 29.2781 13.4521 7.1217
10633 1 30.8607 15.0347 8.7043
10634 1 29.2781 13.4521 10.2869
10635 1 30.8607 15.0347 11.8695
10636 1 29.2781 13.4521 13.4521
10637 1 30.8607 15.0347 15.0347
10638 1 29.2781 13.4521 16.6173
10639 1 30.8607 15.0347 18.1999
10640 1 29.2781 13.4521 19.7825
10641 1 30.8607 15.0347 21.3651
10642 1 29.2781 16.6173 0.7913
10643 1 30.8607 18.1999 2.3739
10644 1 29.2781 16.6173 3.9565
10645 1 30.8607 18.1999 5.5391
10646 1 29.2781 16.6173 7.1217
10647 1 30.8607 18.1999 8.7043
10648 1 29.2781 16.6173 10.2869
10649 1 30.8607 18.1999 11.8695
10650 1 29.2781 16.6173 13.4521
10651 1 30.8607 18.1999 15.0347
10652 1 29.2781 16.6173 16.6173
10653 1 30.8607 18.1999 18.1999
10654 1 29.2781 16.6173 19.7825
10655 1 30.8607 18.1999 21.3651
10656 1 29.2781 19.7825 0.7913
10657 1 30.8607 21.3651 2.3739
10658 1 29.2781 19.7825 3.9565
10659 1 30.8607 21.3651 5.5391
10660 1 29.2781 19.7825 7.1217
10661 1 30.8607 21.3651 8.7043
10662 1 29.2781 19.7825 10.2869
10663 1 30.8607 21.3651 11.8695
10664 1 29.2781 19.7825 13.4521
10665 1 30.8607 21.3651 15.0347
10666 1 29.2781 19.7825 16.6173
10667 1 30.8607 21.3651 18.1999
10668 1 29.2781 19.7825 19.7825
10669 1 30.8607 21.3651 21.3651
10670 1 29.2781 22.9477 0.7913
10671 1 30.8607 24.5303 2.3739
10672 1 29.2781 22.9477 3.9565
10673 1 30.8607 24.5303 5.5391
10674 1 29.2781 22.9477 7.1217
10675 1 30.8607 24.5303 8.7043
10676 1 29.2781 22.9477 10.2869
10677 1 30.8607 24.5303 11.8695
10678 1 29.2781 22.9477 13.4521
10679 1 30.8607 24.5303 15.0347
10680 1 29.2781 22.9477 16.6173
10681 1 30.8607 24.5303 18.1999
10682 1 29.2781 22.9477 19.7825
10683 1 30.8607 24.5303 21.3651
10684 1 29.2781 26.1129 0.7913
10685 1 30.8607 27.6955 2.3739
10686 1 29.2781 26.1129 3.9565
10687 1 30.8607 27.6955 5.5391
10688 1 29.2781 26.1129 7.1217
10689 1 30.8607 27.6955 8.7043
10690 1 29.2781 26.1129 10.2869
10691 1 30.8607 27.6955 11.8695
10692 1 29.2781 26.1129 13.4521
10693 1 30.8607 27.6955 15.0347
10694 1 29.2781 26.1129 16.6173
10695 1 30.8607 27.6955 18.1999
10696 1 29.2781 26.1129 19.7825
10697 1 30.8607 27.6955 21.3651
10698 1 29.2781 29.2781 0.7913
10699 1 30.8607 30.8607 2.3739
10700 1 29.2781 29.2781 3.9565
10701 1 30.8607 30.8607 5.5391
10702 1 29.2781 29.2781 7.1217
10703 1 30.8607 30.8607 8.7043
10704 1 29.2781 29.2781 10.2869
10705 1 30.8607 30.8607 11.8695
10706 1 29.2781 29.2781 13.4521
10707 1 30.8607 30.8607 15.0347
10708 1 29.2781 29.2781 16.6173
10709 1 30.8607 30.8607 18.1999
10710 1 29.2781 29.2781 19.7825
10711 1 30.8607 30.8607 21.3651
10712 1 29.2781 32.4433 0.7913
10713 1 30.8607 34.0259 2.3739
10714 1 29.2781 32.4433 3.9565
10715 1 30.8607 34.0259 5.5391
10716 1 29.2781 32.4433 7.1217
10717 1 30.8607 34.0259 8.7043
10718 1 29.2781 32.4433 10.2869
10719 1 30.8607 34.0259 11.8695
10720 1 29.2781 32.4433 13.4521
10721 1 30.8607 34.0259 15.0347
10722 1 29.2781 32.4433 16.6173
10723 1 30.8607 34.0259 18.1999
10724 1 29.2781 32.4433 19.7825
10725 1 30.8607 34.0259 21.3651
10726 1 29.2781 35.6085 0.7913
10727 1 30.8607 37.1911 2.3739
10728 1 29.2781 35.6085 3.9565
10729 1 30.8607 37.1911 5.5391
10730 1 29.2781 35.6085 7.1217
10731 1 30.8607 37.1911 8.7043
10732 1 29.2781 35.6085 10.2869
10733 1 30.8607 37.1911 11.8695
10734 1 29.2781 35.6085 13.4521
10735 1 30.8607 37.1911 15.0347
10736 1 29.2781 35.6085 16.6173
10737 1 30.8607 37.1911 18.1999
10738 1 29.2781 35.6085 19.7825
10739 1 30.8607 37.1911 21.3651
10740 1 29.2781 38.7737 0.7913
10741 1 30.8607 40.3563 2.3739
10742 1 29.2781 38.7737 3.9565
10743 1 30.8607 40.3563 5.5391
10744 1 29.2781 38.7737 7.1217
10745 1 30.8607 40.3563 8.7043
10746 1 29.2781 38.7737 10.2869
10747 1 30.8607 40.3563 11.8695
10748 1 29.2781 38.7737 13.4521
10749 1 30.8607 40.3563 15.0347
10750 1 29.2781 38.7737 16.6173
10751 1 30.8607 40.3563 18.1999
10752 1 29.2781 38.7737 19.7825
10753 1 30.8607 40.3563 21.3651
10754 1 29.2781 41.9389 0.7913
10755 1 30.8607 43.5215 2.3739
10756 1 29.2781 41.9389 3.9565
10757 1 30.8607 43.5215 5.5391
10758 1 29.2781 41.9389 7.1217
10759 1 30.8607 43.5215 8.7043
10760 1 29.2781 41.9389 10.2869
10761 1 30.8607 43.5215 11.8695
10762 1 29.2781 41.9389 13.4521
10763 1 30.8607 43.5215 15.0347
10764 1 29.2781 41.9389 16.6173
10765 1 30.8607 43.5215 18.1999
10766 1 29.2781 41.9389 19.7825
10767 1 30.8607 43.5215 21.3651
10768 1 29.2781 45.1041 0.7913
10769 1 30.8607 46.6867 2.3739
10770 1 29.2781 45.1041 3.9565
10771 1 30.8607 46.6867 5.5391
10772 1 29.2781 45.1041 7.1217
10773 1 30.8607 46.6867 8.7043
10774 1 29.2781 45.1041 10.2869
10775 1 30.8607 46.6867 11.8695
10776 1 29.2781 45.1041 13.4521
10777 1 30.8607 46.6867 15.0347
10778 1 29.2781 45.1041 16.6173
10779 1 30.8607 46.6867 18.1999
10780 1 29.2781 45.1041 19.7825
10781 1 30.8607 46.6867 21.3651
10782 1 29.2781 48.2693 0.7913
10783 1 30.8607 49.8519 2.3739
10784 1 29.2781 48.2693 3.9565
10785 1 30.8607 49.8519 5.5391
10786 1 29.2781 48.2693 7.1217
10787 1 30.8607 49.8519 8.7043
10788 1 29.2781 48.2693 10.2869
10789 1 30.8607 49.8519 11.8695
10790 1 29.2781 48.2693 13.4521
10791 1 30.8607 49.8519 15.0347
10792 1 29.2781 48.2693 16.6173
10793 1 30.8607 49.8519 18.1999
10794 1 29.2781 48.2693 19.7825
10795 1 30.8607 49.8519 21.3651
10796 1 29.2781 51.4345 0.7913
10797 1 30.8607 53.0171 2.3739
10798 1 29.2781 51.4345 3.9565
10799 1 30.8607 53.0171 5.5391
10800 1 29.2781 51.4345 7.1217
10801 1 30.8607 53.0171 8.7043
10802 1 29.2781 51.4345 10.2869
10803 1 30.8607 53.0171 11.8695
10804 1 29.2781 51.4345 13.4521
10805 1 30.8607 53.0171 15.0347
10806 1 29.2781 51.4345 16.6173
10807 1 30.8607 53.0171 18.1999
10808 1 29.2781 51.4345 19.7825
10809 1 30.8607 53.0171 21.3651
10810 1 29.2781 54.5997 0.7913
10811 1 30.8607 56.1823 2.3739
10812 1 29.2781 54.5997 3.9565
10813 1 30.8607 56.1823 5.5391
10814 1 29.2781 54.5997 7.1217
10815 1 30.8607 56.1823 8.7043
10816 1 29.2781 54.5997 10.2869
10817 1 30.8607 56.1823 11.8695
10818 1 29.2781 54.5997 13.4521
10819 1 30.8607 56.1823 15.0347
10820 1 29.2781 54.5997 16.6173
10821 1 30.8607 56.1823 18.1999
10822 1 29.2781 54.5997 19.7825
10823 1 30.8607 56.1823 21.3651
10824 1 29.2781 57.7649 0.7913
10825 1 30.8607 59.3475 2.3739
10826 1 29.2781 57.7649 3.9565
10827 1 30.8607 59.3475 5.5391
10828 1 29.2781 57.7649 7.1217
10829 1 30.8607 59.3475 8.7043
10830 1 29.2781 57.7649 10.2869
10831 1 30.8607 59.3475 11.8695
10832 1 29.2781 57.7649 13.4521
10833 1 30.8607 59.3475 15.0347
10834 1 29.2781 57.7649 16.6173
10835 1 30.8607 59.3475 18.1999
10836 1 29.2781 57.7649 19.7825
10837 1 30.8607 59.3475 21.3651
10838 1 29.2781 60.9301 0.7913
10839 1 30.8607 62.5127 2.3739
10840 1 29.2781 60.9301 3.9565
10841 1 30.8607 62.5127 5.5391
10842 1 29.2781 60.9301 7.1217
10843 1 30.8607 62.5127 8.7043
10844 1 29.2781 60.9301 10.2869
10845 1 30.8607 62.5127 11.8695
10846 1 29.2781 60.9301 13.4521
10847 1 30.8607 62.5127 15.0347
10848 1 29.2781 60.9301 16.6173
10849 1 30.8607 62.5127 18.1999
10850 1 29.2781 60.9301 19.7825
10851 1 30.8607 62.5127 21.3651
10852 1 32.4433 0.7913 0.7913
10853 1 34.0259 2.3739 2.3739
10854 1 32.4433 0.7913 3.9565
10855 1 34.0259 2.3739 5.5391
10856 1 32.4433 0.7913 7.1217
10857 1 34.0259 2.3739 8.7043
10858 1 32.4433 0.7913 10.2869
10859 1 34.0259 2.3739 11.8695
10860 1 32.4433 0.7913 13.4521
10861 1 34.0259 2.3739 15.0347
10862 1 32.4433 0.7913 16.6173
10863 1 34.0259 2.3739 18.1999
10864 1 32.4433 0.7913 19.7825
10865 1 34.0259 2.3739 21.3651
10866 1 32.4433 3.9565 0.7913
10867 1 34.0259 5.5391 2.3739
10868 1 32.4433 3.9565 3.9565
10869 1 34.0259 5.5391 5.5391
10870 1 32.4433 3.9565 7.1217
10871 1 34.0259 5.5391 8.7043
10872 1 32.4433 3.9565 10.2869
10873 1 34.0259 5.5391 11.8695
10874 1 32.4433 3.9565 13.4521
10875 1 34.0259 5.5391 15.0347
10876 1 32.4433 3.9565 16.6173
10877 1 34.0259 5.5391 18.1999
10878 1 32.4433 3.9565 19.7825
10879 1 34.0259 5.5391 21.3651
10880 1 32.4433 7.1217 0.7913
10881 1 34.0259 8.7043 2.3739
10882 1 32.4433 7.1217 3.9565
10883 1 34.0259 8.7043 5.5391
10884 1 32.4433 7.1217 7.1217
10885 1 34.0259 8.7043 8.7043
10886 1 32.4433 7.1217 10.2869
10887 1 34.0259 8.7043 11.8695
10888 1 32.4433 7.1217 13.4521
10889 1 34.0259 8.7043 15.0347
10890 1 32.4433 7.1217 16.6173
10891 1 34.0259 8.7043 18.1999
10892 1 32.4433 7.1217 19.7825
10893 1 34.0259 8.7043 21.3651
10894 1 32.4433 10.2869 0.7913
10895 1 34.0259 11.8695 2.3739
10896 1 32.4433 10.2869 3.9565
10897 1 34.0259 11.8695 5.5391
10898 1 32.4433 10.2869 7.1217
10899 1 34.0259 11.8695 8.7043
10900 1 32.4433 10.2869 10.2869
10901 1 34.0259 11.8695 11.8695
10902 1 32.4433 10.2869 13.4521
10903 1 34.0259 11.8695 15.0347
10904 1 32.4433 10.2869 16.6173
10905 1 34.0259 11.8695 18.1999
10906 1 32.4433 10.2869 19.7825
10907 1 34.0259 11.8695 21.3651
10908 1 32.4433 13.4521 0.7913
10909 1 34.0259 15.0347 2.3739
10910 1 32.4433 13.4521 3.9565
10911 1 34.0259 15.0347 5.5391
10912 1 32.4433 13.4521 7.1217
10913 1 34.0259 15.0347 8.7043
10914 1 32.4433 13.4521 10.2869
10915 1 34.0259 15.0347 11.8695
10916 1 32.4433 13.4521 13.4521
10917 1 34.0259 15.0347 15.0347
10918 1 32.4433 13.4521 16.6173
10919 1 34.0259 15.0347 18.1999
10920 1 32.4433 13.4521 19.7825
10921 1 34.0259 15.0347 21.3651
10922 1 32.4433 16.6173 0.7913
10923 1 34.0259 18.1999 2.3739
10924 1 32.4433 16.6173 3.9565
10925 1 34.0259 18.1999 5.5391
10926 1 32.4433 16.6173 7.1217
10927 1 34.0259 18.1999 8.7043
10928 1 32.4433 16.6173 10.2869
10929 1 34.0259 18.1999 11.8695
10930 1 32.4433 16.6173 13.4521
10931 1 34.0259 18.1999 15.0347
10932 1 32.4433 16.6173 16.6173
10933 1 34.0259 18.1999 18.1999
10934 1 32.4433 16.6173 19.7825
10935 1 34.0259 18.1999 21.3651
10936 1 32.4433 19.7825 0.7913
10937 1 34.0259 21.3651 2.3739
10938 1 32.4433 19.7825 3.9565
10939 1 34.0259 21.3651 5.5391
10940 1 32.4433 19.7825 7.1217
10941 1 34.0259 21.3651 8.7043
10942 1 32.4433 19.7825 10.2869
10943 1 34.0259 21.3651 11.8695
10944 1 32.4433 19.7825 13.4521
10945 1 34.0259 21.3651 15.0347
10946 1 32.4433 19.7825 16.6173
10947 1 34.0259 21.3651 18.1999
10948 1 32.4433 19.7825 19.7825
10949 1 34.0259 21.3651 21.3651
10950 1 32.4433 22.9477 0.7913
10951 1 34.0259 24.5303 2.3739
10952 1 32.4433 22.9477 3.9565
10953 1 34.0259 24.5303 5.5391
10954 1 32.4433 22.9477 7.1217
10955 1 34.0259 24.5303 8.7043
10956 1 32.4433 22.9477 10.2869
10957 1 34.0259 24.5303 11.8695
10958 1 32.4433 22.9477 13.4521
10959 1 34.0259 24.5303 15.0347
10960 1 32.4433 22.9477 16.6173
10961 1 34.0259 24.5303 18.1999
10962 1 32.4433 22.9477 19.7825
10963 1 34.0259 24.5303 21.3651
10964 1 32.4433 26.1129 0.7913
10965 1 34.0259 27.6955 2.3739
10966 1 32.4433 26.1129 3.9565
10967 1 34.0259 27.6955 5.5391
10968 1 32.4433 26.1129 7.1217
10969 1 34.0259 27.6955 8.7043
10970 1 32.4433 26.1129 10.2869
10971 1 34.0259 27.6955 11.8695
10972 1 32.4433 26.1129 13.4521
10973 1 34.0259 27.6955 15.0347
10974 1 32.4433 26.1129 16.6173
10975 1 34.0259 27.6955 18.1999
10976 1 32.4433 26.1129 19.7825
10977 1 34.0259 27.6955 21.3651
10978 1 32.4433 29.2781 0.7913
10979 1 34.0259 30.8607 2.3739
10980 1 32.4433 29.2781 3.9565
10981 1 34.0259 30.8607 5.5391
10982 1 32.4433 29.2781 7.1217
10983 1 34.0259 30.8607 8.7043
10984 1 32.4433 29.2781 10.2869
10985 1 34.0259 30.8607 11.8695
10986 1 32.4433 29.2781 13.4521
10987 1 34.0259 30.8607 15.0347
10988 1 32.4433 29.2781 16.6173
10989 1 34.0259 30.8607 18.1999
10990 1 32.4433 29.2781 19.7825
10991 1 34.0259 30.8607 21.3651
10992 1 32.4433 32.4433 0.7913
10993 1 34.0259 34.0259 2.3739
10994 1 32.4433 32.4433 3.9565
10995 1 34.0259 34.0259 5.5391
10996 1 32.4433 32.4433 7.1217
10997 1 34.0259 34.0259 8.7043
10998 1 32.4433 32.4433 10.2869
10999 1 34.0259 34.0259 11.8695
11000 1 32.4433 32.4433 13.4521
11001 1 34.0259 34.0259 15.0347
11002 1 32.4433 32.4433 16.6173
11003 1 34.0259 34.0259 18.1999
11004 1 32.4433 32.4433 19.7825
11005 1 34.0259 34.0259 21.3651
11006 1 32.4433 35.6085 0.7913
11007 1 34.0259 37.1911 2.3739
11008 1 32.4433 35.6085 3.9565
11009 1 34.0259 37.1911 5.5391
11010 1 32.4433 35.6085 7.1217
11011 1 34.0259 37.1911 8.7043
11012 1 32.4433 35.6085 10.2869
11013 1 34.0259 37.1911 11.8695
11014 1 32.4433 35.6085 13.4521
11015 1 34.0259 37.1911 15.0347
11016 1 32.4433 35.6085 16.6173
11017 1 34.0259 37.1911 18.1999
11018 1 32.4433 35.6085 19.7825
11019 1 34.0259 37.1911 21.3651
11020 1 32.4433 38.7737 0.7913
11021 1 34.0259 40.3563 2.3739
11022 1 32.4433 38.7737 3.9565
11023 1 34.0259 40.3563 5.5391
11024 1 32.4433 38.7737 7.1217
11025 1 34.0259 40.3563 8.7043
11026 1 32.4433 38.7737 10.2869
11027 1 34.0259 40.3563 11.8695
11028 1 32.4433 38.7737 13.4521
11029 1 34.0259 40.3563 15.0347
11030 1 32.4433 38.7737 16.6173
11031 1 34.0259 40.3563 18.1999
11032 1 32.4433 38.7737 19.7825
11033 1 34.0259 40.3563 21.3651
11034 1 32.4433 41.9389 0.7913
11035 1 34.0259 43.5215 2.3739
11036 1 32.4433 41.9389 3.9565
11037 1 34.0259 43.5215 5.5391
11038 1 32.4433 41.9389 7.1217
11039 1 34.0259 43.5215 8.7043
11040 1 32.4433 41.9389 10.2869
11041 1 34.0259 43.5215 11.8695
11042 1 32.4433 41.9389 13.4521
11043 1 34.0259 43.5215 15.0347
11044 1 32.4433 41.9389 16.6173
11045 1 34.0259 43.5215 18.1999
11046 1 32.4433 41.9389 19.7825
11047 1 34.0259 43.5215 21.3651
11048 1 32.4433 45.1041 0.7913
11049 1 34.0259 46.6867 2.3739
11050 1 32.4433 45.1041 3.9565
11051 1 34.0259 46.6867 5.5391
11052 1 32.4433 45.1041 7.1217
11053 1 34.0259 46.6867 8.7043
11054 1 32.4433 45.1041 10.2869
11055 1 34.0259 46.6867 11.8695
11056 1 32.4433 45.1041 13.4521
11057 1 34.0259 46.6867 15.0347
11058 1 32.4433 45.1041 16.6173
11059 1 34.0259 46.6867 18.1999
11060 1 32.4433 45.1041 19.7825
11061 1 34.0259 46.6867 21.3651
11062 1 32.4433 48.2693 0.7913
11063 1 34.0259 49.8519 2.3739
11064 1 32.4433 48.2693 3.9565
11065 1 34.0259 49.8519 5.5391
11066 1 32.4433 48.2693 7.1217
11067 1 34.0259 49.8519 8.7043
11068 1 32.4433 48.2693 10.2869
11069 1 34.0259 49.8519 11.8695
11070 1 32.4433 48.2693 13.4521
11071 1 34.0259 49.8519 15.0347
11072 1 32.4433 48.2693 16.6173
11073 1 34.0259 49.8519 18.1999
11074 1 32.4433 48.2693 19.7825
11075 1 34.0259 49.8519 21.3651
11076 1 32.4433 51.4345 0.7913
11077 1 34.0259 53.0171 2.3739
11078 1 32.4433 51.4345 3.9565
11079 1 34.0259 53.0171 5.5391
11080 1 32.4433 51.4345 7.1217
11081 1 34.0259 53.0171 8.7043
11082 1 32.4433 51.4345 10.2869
11083 1 34.0259 53.0171 11.8695
11084 1 32.4433 51.4345 13.4521
11085 1 34.0259 53.0171 15.0347
11086 1 32.4433 51.4345 16.6173
11087 1 34.0259 53.0171 18.1999
11088 1 32.4433 51.4345 19.7825
11089 1 34.0259 53.0171 21.3651
11090 1 32.4433 54.5997 0.7913
11091 1 34.0259 56.1823 2.3739
11092 1 32.4433 54.5997 3.9565
11093 1 34.0259 56.1823 5.5391
11094 1 32.4433 54.5997 7.1217
11095 1 34.0259 56.1823 8.7043
11096 1 32.4433 54.5997 10.2869
11097 1 34.0259 56.1823 11.8695
11098 1 32.4433 54.5997 13.4521
11099 1 34.0259 56.1823 15.0347
11100 1 32.4433 54.5997 16.6173
11101 1 34.0259 56.1823 18.1999
11102 1 32.4433 54.5997 19.7825
11103 1 34.0259 56.1823 21.3651
11104 1 32.4433 57.7649 0.7913
11105 1 34.0259 59.3475 2.3739
11106 1 32.4433 57.7649 3.9565
11107 1 34.0259 59.3475 5.5391
11108 1 32.4433 57.7649 7.1217
11109 1 34.0259 59.3475 8.7043
11110 1 32.4433 57.7649 10.2869
11111 1 34.0259 59.3475 11.8695
11112 1 32.4433 57.7649 13.4521
11113 1 34.0259 59.3475 15.0347
11114 1 32.4433 57.7649 16.6173
11115 1 34.0259 59.3475 18.1999
11116 1 32.4433 57.7649 19.7825
11117 1 34.0259 59.3475 21.3651
11118 1 32.4433 60.9301 0.7913
11119 1 34.0259 62.5127 2.3739
11120 1 32.4433 60.9301 3.9565
11121 1 34.0259 62.5127 5.5391
11122 1 32.4433 60.9301 7.1217
11123 1 34.0259 62.5127 8.7043
11124 1 32.4433 60.9301 10.2869
11125 1 34.0259 62.5127 11.8695
11126 1 32.4433 60.9301 13.4521
11127 1 34.0259 62.5127 15.0347
11128 1 32.4433 60.9301 16.6173
11129 1 34.0259 62.5127 18.1999
11130 1 32.4433 60.9301 19.7825
11131 1 34.0259 62.5127 21.3651
11132 1 35.6085 0.7913 0.7913
11133 1 37.1911 2.3739 2.3739
11134 1 35.6085 0.7913 3.9565
11135 1 37.1911 2.3739 5.5391
11136 1 35.6085 0.7913 7.1217
11137 1 37.1911 2.3739 8.7043
11138 1 35.6085 0.7913 10.2869
11139 1 37.1911 2.3739 11.8695
11140 1 35.6085 0.7913 13.4521
11141 1 37.1911 2.3739 15.0347
11142 1 35.6085 0.7913 16.6173
11143 1 37.1911 2.3739 18.1999
11144 1 35.6085 0.7913 19.7825
11145 1 37.1911 2.3739 21.3651
11146 1 35.6085 3.9565 0.7913
11147 1 37.1911 5.5391 2.3739
11148 1 35.6085 3.9565 3.9565
11149 1 37.1911 5.5391 5.5391
11150 1 35.6085 3.9565 7.1217
11151 1 37.1911 5.5391 8.7043
11152 1 35.6085 3.9565 10.2869
11153 1 37.1911 5.5391 11.8695
11154 1 35.6085 3.9565 13.4521
11155 1 37.1911 5.5391 15.0347
11156 1 35.6085 3.9565 16.6173
11157 1 37.1911 5.5391 18.1999
11158 1 35.6085 3.9565 19.7825
11159 1 37.1911 5.5391 21.3651
11160 1 35.6085 7.1217 0.7913
11161 1 37.1911 8.7043 2.3739
11162 1 35.6085 7.1217 3.9565
11163 1 37.1911 8.7043 5.5391
11164 1 35.6085 7.1217 7.1217
11165 1 37.1911 8.7043 8.7043
11166 1 35.6085 7.1217 10.2869
11167 1 37.1911 8.7043 11.8695
11168 1 35.6085 7.1217 13.4521
11169 1 37.1911 8.7043 15.0347
11170 1 35.6085 7.1217 16.6173
11171 1 37.1911 8.7043 18.1999
11172 1 35.6085 7.1217 19.7825
11173 1 37.1911 8.7043 21.3651
11174 1 35.6085 10.2869 0.7913
11175 1 37.1911 11.8695 2.3739
11176 1 35.6085 10.2869 3.9565
11177 1 37.1911 11.8695 5.5391
11178 1 35.6085 10.2869 7.1217
11179 1 37.1911 11.8695 8.7043
11180 1 35.6085 10.2869 10.2869
11181 1 37.1911 11.8695 11.8695
11182 1 35.6085 10.2869 13.4521
11183 1 37.1911 11.8695 15.0347
11184 1 35.6085 10.2869 16.6173
11185 1 37.1911 11.8695 18.1999
11186 1 35.6085 10.2869 19.7825
11187 1 37.1911 11.8695 21.3651
11188 1 35.6085 13.4521 0.7913
11189 1 37.1911 15.0347 2.3739
11190 1 35.6085 13.4521 3.9565
11191 1 37.1911 15.0347 5.5391
11192 1 35.6085 13.4521 7.1217
11193 1 37.1911 15.0347 8.7043
11194 1 35.6085 13.4521 10.2869
11195 1 37.1911 15.0347 11.8695
11196 1 35.6085 13.4521 13.4521
11197 1 37.1911 15.0347 15.0347
11198 1 35.6085 13.4521 16.6173
11199 1 37.1911 15.0347 18.1999
11200 1 35.6085 13.4521 19.7825
11201 1 37.1911 15.0347 21.3651
11202 1 35.6085 16.6173 0.7913
11203 1 37.1911 18.1999 2.3739
11204 1 35.6085 16.6173 3.9565
11205 1 37.1911 18.1999 5.5391
11206 1 35.6085 16.6173 7.1217
11207 1 37.1911 18.1999 8.7043
11208 1 35.6085 16.6173 10.2869
11209 1 37.1911 18.1999 11.8695
11210 1 35.6085 16.6173 13.4521
11211 1 37.1911 18.1999 15.0347
11212 1 35.6085 16.6173 16.6173
11213 1 37.1911 18.1999 18.1999
11214 1 35.6085 16.6173 19.7825
11215 1 37.1911 18.1999 21.3651
11216 1 35.6085 19.7825 0.7913
11217 1 37.1911 21.3651 2.3739
11218 1 35.6085 19.7825 3.9565
11219 1 37.1911 21.3651 5.5391
11220 1 35.6085 19.7825 7.1217
11221 1 37.1911 21.3651 8.7043
11222 1 35.6085 19.7825 10.2869
11223 1 37.1911 21.3651 11.8695
11224 1 35.6085 19.7825 13.4521
11225 1 37.1911 21.3651 15.0347
11226 1 35.6085 19.7825 16.6173
11227 1 37.1911 21.3651 18.1999
11228 1 35.6085 19.7825 19.7825
11229 1 37.1911 21.3651 21.3651
11230 1 35.6085 22.9477 0.7913
11231 1 37.1911 24.5303 2.3739
11232 1 35.6085 22.9477 3.9565
11233 1 37.1911 24.5303 5.5391
11234 1 35.6085 22.9477 7.1217
11235 1 37.1911 24.5303 8.7043
11236 1 35.6085 22.9477 10.2869
11237 1 37.1911 24.5303 11.8695
11238 1 35.6085 22.9477 13.4521
11239 1 37.1911 24.5303 15.0347
11240 1 35.6085 22.9477 16.6173
11241 1 37.1911 24.5303 18.1999
11242 1 35.6085 22.9477 19.7825
11243 1 37.1911 24.5303 21.3651
11244 1 35.6085 26.1129 0.7913
11245 1 37.1911 27.6955 2.3739
11246 1 35.6085 26.1129 3.9565
11247 1 37.1911 27.6955 5.5391
11248 1 35.6085 26.1129 7.1217
11249 1 37.1911 27.6955 8.7043
11250 1 35.6085 26.1129 10.2869
11251 1 37.1911 27.6955 11.8695
11252 1 35.6085 26.1129 13.4521
11253 1 37.1911 27.6955 15.0347
11254 1 35.6085 26.1129 16.6173
11255 1 37.1911 27.6955 18.1999
11256 1 35.6085 26.1129 19.7825
11257 1 37.1911 27.6955 21.3651
11258 1 35.6085 29.2781 0.7913
11259 1 37.1911 30.8607 2.3739
11260 1 35.6085 29.2781 3.9565
11261 1 37.1911 30.8607 5.5391
11262 1 35.6085 29.2781 7.1217
11263 1 37.1911 30.8607 8.7043
11264 1 35.6085 29.2781 10.2869
11265 1 37.1911 30.8607 11.8695
11266 1 35.6085 29.2781 13.4521
11267 1 37.1911 30.8607 15.0347
11268 1 35.6085 29.2781 16.6173
11269 1 37.1911 30.8607 18.1999
11270 1 35.6085 29.2781 19.7825
11271 1 37.1911 30.8607 21.3651
11272 1 35.6085 32.4433 0.7913
11273 1 37.1911 34.0259 2.3739
11274 1 35.6085 32.4433 3.9565
11275 1 37.1911 34.0259 5.5391
11276 1 35.6085 32.4433 7.1217
11277 1 37.1911 34.0259 8.7043
11278 1 35.6085 32.4433 10.2869
11279 1 37.1911 34.0259 11.8695
11280 1 35.6085 32.4433 13.4521
11281 1 37.1911 34.0259 15.0347
11282 1 35.6085 32.4433 16.6173
11283 1 37.1911 34.0259 18.1999
11284 1 35.6085 32.4433 19.7825
11285 1 37.1911 34.0259 21.3651
11286 1 35.6085 35.6085 0.7913
11287 1 37.1911 37.1911 2.3739
11288 1 35.6085 35.6085 3.9565
11289 1 37.1911 37.1911 5.5391
11290 1 35.6085 35.6085 7.1217
11291 1 37.1911 37.1911 8.7043
11292 1 35.6085 35.6085 10.2869
11293 1 37.1911 37.1911 11.8695
11294 1 35.6085 35.6085 13.4521
11295 1 37.1911 37.1911 15.0347
11296 1 35.6085 35.6085 16.6173
11297 1 37.1911 37.1911 18.1999
11298 1 35.6085 35.6085 19.7825
11299 1 37.1911 37.1911 21.3651
11300 1 35.6085 38.7737 0.7913
11301 1 37.1911 40.3563 2.3739
11302 1 35.6085 38.7737 3.9565
11303 1 37.1911 40.3563 5.5391
11304 1 35.6085 38.7737 7.1217
11305 1 37.1911 40.3563 8.7043
11306 1 35.6085 38.7737 10.2869
11307 1 37.1911 40.3563 11.8695
11308 1 35.6085 38.7737 13.4521
11309 1 37.1911 40.3563 15.0347
11310 1 35.6085 38.7737 16.6173
11311 1 37.1911 40.3563 18.1999
11312 1 35.6085 38.7737 19.7825
11313 1 37.1911 40.3563 21.3651
11314 1 35.6085 41.9389 0.7913
11315 1 37.1911 43.5215 2.3739
11316 1 35.6085 41.9389 3.9565
11317 1 37.1911 43.5215 5.5391
11318 1 35.6085 41.9389 7.1217
11319 1 37.1911 43.5215 8.7043
11320 1 35.6085 41.9389 10.2869
11321 1 37.1911 43.5215 11.8695
11322 1 35.6085 41.9389 13.4521
11323 1 37.1911 43.5215 15.0347
11324 1 35.6085 41.9389 16.6173
11325 1 37.1911 43.5215 18.1999
11326 1 35.6085 41.9389 19.7825
11327 1 37.1911 43.5215 21.3651
11328 1 35.6085 45.1041 0.7913
11329 1 37.1911 46.6867 2.3739
11330 1 35.6085 45.1041 3.9565
11331 1 37.1911 46.6867 5.5391
11332 1 35.6085 45.1041 7.1217
11333 1 37.1911 46.6867 8.7043
11334 1 35.6085 45.1041 10.2869
11335 1 37.1911 46.6867 11.8695
11336 1 35.6085 45.1041 13.4521
11337 1 37.1911 46.6867 15.0347
11338 1 35.6085 45.1041 16.6173
11339 1 37.1911 46.6867 18.1999
11340 1 35.6085 45.1041 19.7825
11341 1 37.1911 46.6867 21.3651
11342 1 35.6085 48.2693 0.7913
11343 1 37.1911 49.8519 2.3739
11344 1 35.6085 48.2693 3.9565
11345 1 37.1911 49.8519 5.5391
11346 1 35.6085 48.2693 7.1217
11347 1 37.1911 49.8519 8.7043
11348 1 35.6085 48.2693 10.2869
11349 1 37.1911 49.8519 11.8695
11350 1 35.6085 48.2693 13.4521
11351 1 37.1911 49.8519 15.0347
11352 1 35.6085 48.2693 16.6173
11353 1 37.1911 49.8519 18.1999
11354 1 35.6085 48.2693 19.7825
11355 1 37.1911 49.8519 21.3651
11356 1 35.6085 51.4345 0.7913
11357 1 37.1911 53.0171 2.3739
11358 1 35.6085 51.4345 3.9565
11359 1 37.1911 53.0171 5.5391
11360 1 35.6085 51.4345 7.1217
11361 1 37.1911 53.0171 8.7043
11362 1 35.6085 51.4345 10.2869
11363 1 37.1911 53.0171 11.8695
11364 1 35.6085 51.4345 13.4521
11365 1 37.1911 53.0171 15.0347
11366 1 35.6085 51.4345 16.6173
11367 1 37.1911 53.0171 18.1999
11368 1 35.6085 51.4345 19.7825
11369 1 37.1911 53.0171 21.3651
11370 1 35.6085 54.5997 0.7913
11371 1 37.1911 56.1823 2.3739
11372 1 35.6085 54.5997 3.9565
11373 1 37.1911 56.1823 5.5391
11374 1 35.6085 54.5997 7.1217
11375 1 37.1911 56.1823 8.7043
11376 1 35.6085 54.5997 10.2869
11377 1 37.1911 56.1823 11.8695
11378 1 35.6085 54.5997 13.4521
11379 1 37.1911 56.1823 15.0347
11380 1 35.6085 54.5997 16.6173
11381 1 37.1911 56.1823 18.1999
11382 1 35.6085 54.5997 19.7825
11383 1 37.1911 56.1823 21.3651
11384 1 35.6085 57.7649 0.7913
11385 1 37.1911 59.3475 2.3739
11386 1 35.6085 57.7649 3.9565
11387 1 37.1911 59.3475 5.5391
11388 1 35.6085 57.7649 7.1217
11389 1 37.1911 59.3475 8.7043
11390 1 35.6085 57.7649 10.2869
11391 1 37.1911 59.3475 11.8695
11392 1 35.6085 57.7649 13.4521
11393 1 37.1911 59.3475 15.0347
11394 1 35.6085 57.7649 16.6173
11395 1 37.1911 59.3475 18.1999
11396 1 35.6085 57.7649 19.7825
11397 1 37.1911 59.3475 21.3651
11398 1 35.6085 60.9301 0.7913
11399 1 37.1911 62.5127 2.3739
11400 1 35.6085 60.9301 3.9565
11401 1 37.1911 62.5127 5.5391
11402 1 35.6085 60.9301 7.1217
11403 1 37.1911 62.5127 8.7043
11404 1 35.6085 60.9301 10.2869
11405 1 37.1911 62.5127 11.8695
11406 1 35.6085 60.9301 13.4521
11407 1 37.1911 62.5127 15.0347
11408 1 35.6085 60.9301 16.6173
11409 1 37.1911 62.5127 18.1999
11410 1 35.6085 60.9301 19.7825
11411 1 37.1911 62.5127 21.3651
11412 1 38.7737 0.7913 0.7913
11413 1 40.3563 2.3739 2.3739
11414 1 38.7737 0.7913 3.9565
11415 1 40.3563 2.3739 5.5391
11416 1 38.7737 0.7913 7.1217
11417 1 40.3563 2.3739 8.7043
11418 1 38.7737 0.7913 10.2869
11419 1 40.3563 2.3739 11.8695
11420 1 38.7737 0.7913 13.4521
11421 1 40.3563 2.3739 15.0347
11422 1 38.7737 0.7913 16.6173
11423 1 40.3563 2.3739 18.1999
11424 1 38.7737 0.7913 19.7825
11425 1 40.3563 2.3739 21.3651
11426 1 38.7737 3.9565 0.7913
11427 1 40.3563 5.5391 2.3739
11428 1 38.7737 3.9565 3.9565
11429 1 40.3563 5.5391 5.5391
11430 1 38.7737 3.9565 7.1217
11431 1 40.3563 5.5391 8.7043
11432 1 38.7737 3.9565 10.2869
11433 1 40.3563 5.5391 11.8695
11434 1 38.7737 3.9565 13.4521
11435 1 40.3563 5.5391 15.0347
11436 1 38.7737 3.9565 16.6173
11437 1 40.3563 5.5391 18.1999
11438 1 38.7737 3.9565 19.7825
11439 1 40.3563 5.5391 21.3651
11440 1 38.7737 7.1217 0.7913
11441 1 40.3563 8.7043 2.3739
11442 1 38.7737 7.1217 3.9565
11443 1 40.3563 8.7043 5.5391
11444 1 38.7737 7.1217 7.1217
11445 1 40.3563 8.7043 8.7043
11446 1 38.7737 7.1217 10.2869
11447 1 40.3563 8.7043 11.8695
11448 1 38.7737 7.1217 13.4521
11449 1 40.3563 8.7043 15.0347
11450 1 38.7737 7.1217 16.6173
11451 1 40.3563 8.7043 18.1999
11452 1 38.7737 7.1217 19.7825
11453 1 40.3563 8.7043 21.3651
11454 1 38.7737 10.2869 0.7913
11455 1 40.3563 11.8695 2.3739
11456 1 38.7737 10.2869 3.9565
11457 1 40.3563 11.8695 5.5391
11458 1 38.7737 10.2869 7.1217
11459 1 40.3563 11.8695 8.7043
11460 1 38.7737 10.2869 10.2869
11461 1 40.3563 11.8695 11.8695
11462 1 38.7737 10.2869 13.4521
11463 1 40.3563 11.8695 15.0347
11464 1 38.7737 10.2869 16.6173
11465 1 40.3563 11.8695 18.1999
11466 1 38.7737 10.2869 19.7825
11467 1 40.3563 11.8695 21.3651
11468 1 38.7737 13.4521 0.7913
11469 1 40.3563 15.0347 2.3739
11470 1 38.7737 13.4521 3.9565
11471 1 40.3563 15.0347 5.5391
11472 1 38.7737 13.4521 7.1217
11473 1 40.3563 15.0347 8.7043
11474 1 38.7737 13.4521 10.2869
11475 1 40.3563 15.0347 11.8695
11476 1 38.7737 13.4521 13.4521
11477 1 40.3563 15.0347 15.0347
11478 1 38.7737 13.4521 16.6173
11479 1 40.3563 15.0347 18.1999
11480 1 38.7737 13.4521 19.7825
11481 1 40.3563 15.0347 21.3651
11482 1 38.7737 16.6173 0.7913
11483 1 40.3563 18.1999 2.3739
11484 1 38.7737 16.6173 3.9565
11485 1 40.3563 18.1999 5.5391
11486 1 38.7737 16.6173 7.1217
11487 1 40.3563 18.1999 8.7043
11488 1 38.7737 16.6173 10.2869
11489 1 40.3563 18.1999 11.8695
11490 1 38.7737 16.6173 13.4521
11491 1 40.3563 18.1999 15.0347
11492 1 38.7737 16.6173 16.6173
11493 1 40.3563 18.1999 18.1999
11494 1 38.7737 16.6173 19.7825
11495 1 40.3563 18.1999 21.3651
11496 1 38.7737 19.7825 0.7913
11497 1 40.3563 21.3651 2.3739
11498 1 38.7737 19.7825 3.9565
11499 1 40.3563 21.3651 5.5391
11500 1 38.7737 19.7825 7.1217
11501 1 40.3563 21.3651 8.7043
11502 1 38.7737 19.7825 10.2869
11503 1 40.3563 21.3651 11.8695
11504 1 38.7737 19.7825 13.4521
11505 1 40.3563 21.3651 15.0347
11506 1 38.7737 19.7825 16.6173
11507 1 40.3563 21.3651 18.1999
11508 1 38.7737 19.7825 19.7825
11509 1 40.3563 21.3651 21.3651
11510 1 38.7737 22.9477 0.7913
11511 1 40.3563 24.5303 2.3739
11512 1 38.7737 22.9477 3.9565
11513 1 40.3563 24.5303 5.5391
11514 1 38.7737 22.9477 7.1217
11515 1 40.3563 24.5303 8.7043
11516 1 38.7737 22.9477 10.2869
11517 1 40.3563 24.5303 11.8695
11518 1 38.7737 22.9477 13.4521
11519 1 40.3563 24.5303 15.0347
11520 1 38.7737 22.9477 16.6173
11521 1 40.3563 24.5303 18.1999
11522 1 38.7737 22.9477 19.7825
11523 1 40.3563 24.5303 21.3651
11524 1 38.7737 26.1129 0.7913
11525 1 40.3563 27.6955 2.3739
11526 1 38.7737 26.1129 3.9565
11527 1 40.3563 27.6955 5.5391
11528 1 38.7737 26.1129 7.1217
11529 1 40.3563 27.6955 8.7043
11530 1 38.7737 26.1129 10.2869
11531 1 40.3563 27.6955 11.8695
11532 1 38.7737 26.1129 13.4521
11533 1 40.3563 27.6955 15.0347
11534 1 38.7737 26.1129 16.6173
11535 1 40.3563 27.6955 18.1999
11536 1 38.7737 26.1129 19.7825
11537 1 40.3563 27.6955 21.3651
11538 1 38.7737 29.2781 0.7913
11539 1 40.3563 30.8607 2.3739
11540 1 38.7737 29.2781 3.9565
11541 1 40.3563 30.8607 5.5391
11542 1 38.7737 29.2781 7.1217
11543 1 40.3563 30.8607 8.7043
11544 1 38.7737 29.2781 10.2869
11545 1 40.3563 30.8607 11.8695
11546 1 38.7737 29.2781 13.4521
11547 1 40.3563 30.8607 15.0347
11548 1 38.7737 29.2781 16.6173
11549 1 40.3563 30.8607 18.1999
11550 1 38.7737 29.2781 19.7825
11551 1 40.3563 30.8607 21.3651
11552 1 38.7737 32.4433 0.7913
11553 1 40.3563 34.0259 2.3739
11554 1 38.7737 32.4433 3.9565
11555 1 40.3563 34.0259 5.5391
11556 1 38.7737 32.4433 7.1217
11557 1 40.3563 34.0259 8.7043
11558 1 38.7737 32.4433 10.2869
11559 1 40.3563 34.0259 11.8695
11560 1 38.7737 32.4433 13.4521
11561 1 40.3563 34.0259 15.0347
11562 1 38.7737 32.4433 16.6173
11563 1 40.3563 34.0259 18.1999
11564 1 38.7737 32.4433 19.7825
11565 1 40.3563 34.0259 21.3651
11566 1 38.7737 35.6085 0.7913
11567 1 40.3563 37.1911 2.3739
11568 1 38.7737 35.6085 3.9565
11569 1 40.3563 37.1911 5.5391
11570 1 38.7737 35.6085 7.1217
11571 1 40.3563 37.1911 8.7043
11572 1 38.7737 35.6085 10.2869
11573 1 40.3563 37.1911 11.8695
11574 1 38.7737 35.6085 13.4521
11575 1 40.3563 37.1911 15.0347
11576 1 38.7737 35.6085 16.6173
11577 1 40.3563 37.1911 18.1999
11578 1 38.7737 35.6085 19.7825
11579 1 40.3563 37.1911 21.3651
11580 1 38.7737 38.7737 0.7913
11581 1 40.3563 40.3563 2.3739
11582 1 38.7737 38.7737 3.9565
11583 1 40.3563 40.3563 5.5391
11584 1 38.7737 38.7737 7.1217
11585 1 40.3563 40.3563 8.7043
11586 1 38.7737 38.7737 10.2869
11587 1 40.3563 40.3563 11.8695
11588 1 38.7737 38.7737 13.4521
11589 1 40.3563 40.3563 15.0347
11590 1 38.7737 38.7737 16.6173
11591 1 40.3563 40.3563 18.1999
11592 1 38.7737 38.7737 19.7825
11593 1 40.3563 40.3563 21.3651
11594 1 38.7737 41.9389 0.7913
11595 1 40.3563 43.5215 2.3739
11596 1 38.7737 41.9389 3.9565
11597 1 40.3563 43.5215 5.5391
11598 1 38.7737 41.9389 7.1217
11599 1 40.3563 43.5215 8.7043
11600 1 38.7737 41.9389 10.2869
11601 1 40.3563 43.5215 11.8695
11602 1 38.7737 41.9389 13.4521
11603 1 40.3563 43.5215 15.0347
11604 1 38.7737 41.9389 16.6173
11605 1 40.3563 43.5215 18.1999
11606 1 38.7737 41.9389 19.7825
11607 1 40.3563 43.5215 21.3651
11608 1 38.7737 45.1041 0.7913
11609 1 40.3563 46.6867 2.3739
11610 1 38.7737 45.1041 3.9565
11611 1 40.3563 46.6867 5.5391
11612 1 38.7737 45.1041 7.1217
11613 1 40.3563 46.6867 8.7043
11614 1 38.7737 45.1041 10.2869
11615 1 40.3563 46.6867 11.8695
11616 1 38.7737 45.1041 13.4521
11617 1 40.3563 46.6867 15.0347
11618 1 38.7737 45.1041 16.6173
11619 1 40.3563 46.6867 18.1999
11620 1 38.7737 45.1041 19.7825
11621 1 40.3563 46.6867 21.3651
11622 1 38.7737 48.2693 0.7913
11623 1 40.3563 49.8519 2.3739
11624 1 38.7737 48.2693 3.9565
11625 1 40.3563 49.8519 5.5391
11626 1 38.7737 48.2693 7.1217
11627 1 40.3563 49.8519 8.7043
11628 1 38.7737 48.2693 10.2869
11629 1 40.3563 49.8519 11.8695
11630 1 38.7737 48.2693 13.4521
11631 1 40.3563 49.8519 15.0347
11632 1 38.7737 48.2693 16.6173
11633 1 40.3563 49.8519 18.1999
11634 1 38.7737 48.2693 19.7825
11635 1 40.3563 49.8519 21.3651
11636 1 38.7737 51.4345 0.7913
11637 1 40.3563 53.0171 2.3739
11638 1 38.7737 51.4345 3.9565
11639 1 40.3563 53.0171 5.5391
11640 1 38.7737 51.4345 7.1217
11641 1 40.3563 53.0171 8.7043
11642 1 38.7737 51.4345 10.2869
11643 1 40.3563 53.0171 11.8695
11644 1 38.7737 51.4345 13.4521
11645 1 40.3563 53.0171 15.0347
11646 1 38.7737 51.4345 16.6173
11647 1 40.3563 53.0171 18.1999
11648 1 38.7737 51.4345 19.7825
11649 1 40.3563 53.0171 21.3651
11650 1 38.7737 54.5997 0.7913
11651 1 40.3563 56.1823 2.3739
11652 1 38.7737 54.5997 3.9565
11653 1 40.3563 56.1823 5.5391
11654 1 38.7737 54.5997 7.1217
11655 1 40.3563 56.1823 8.7043
11656 1 38.7737 54.5997 10.2869
11657 1 40.3563 56.1823 11.8695
11658 1 38.7737 54.5997 13.4521
11659 1 40.3563 56.1823 15.0347
11660 1 38.7737 54.5997 16.6173
11661 1 40.3563 56.1823 18.1999
11662 1 38.7737 54.5997 19.7825
11663 1 40.3563 56.1823 21.3651
11664 1 38.7737 57.7649 0.7913
11665 1 40.3563 59.3475 2.3739
11666 1 38.7737 57.7649 3.9565
11667 1 40.3563 59.3475 5.5391
11668 1 38.7737 57.7649 7.1217
11669 1 40.3563 59.3475 8.7043
11670 1 38.7737 57.7649 10.2869
11671 1 40.3563 59.3475 11.8695
11672 1 38.7737 57.7649 13.4521
11673 1 40.3563 59.3475 15.0347
11674 1 38.7737 57.7649 16.6173
11675 1 40.3563 59.3475 18.1999
11676 1 38.7737 57.7649 19.7825
11677 1 40.3563 59.3475 21.3651
11678 1 38.7737 60.9301 0.7913
11679 1 40.3563 62.5127 2.3739
11680 1 38.7737 60.9301 3.9565
11681 1 40.3563 62.5127 5.5391
11682 1 38.7737 60.9301 7.1217
11683 1 40.3563 62.5127 8.7043
11684 1 38.7737 60.9301 10.2869
11685 1 40.3563 62.5127 11.8695
11686 1 38.7737 60.9301 13.4521
11687 1 40.3563 62.5127 15.0347
11688 1 38.7737 60.9301 16.6173
11689 1 40.3563 62.5127 18.1999
11690 1 38.7737 60.9301 19.7825
11691 1 40.3563 62.5127 21.3651
11692 1 41.9389 0.7913 0.7913
11693 1 43.5215 2.3739 2.3739
11694 1 41.9389 0.7913 3.9565
11695 1 43.5215 2.3739 5.5391
11696 1 41.9389 0.7913 7.1217
11697 1 43.5215 2.3739 8.7043
11698 1 41.9389 0.7913 10.2869
11699 1 43.5215 2.3739 11.8695
11700 1 41.9389 0.7913 13.4521
11701 1 43.5215 2.3739 15.0347
11702 1 41.9389 0.7913 16.6173
11703 1 43.5215 2.3739 18.1999
11704 1 41.9389 0.7913 19.7825
11705 1 43.5215 2.3739 21.3651
11706 1 41.9389 3.9565 0.7913
11707 1 43.5215 5.5391 2.3739
11708 1 41.9389 3.9565 3.9565
11709 1 43.5215 5.5391 5.5391
11710 1 41.9389 3.9565 7.1217
11711 1 43.5215 5.5391 8.7043
11712 1 41.9389 3.9565 10.2869
11713 1 43.5215 5.5391 11.8695
11714 1 41.9389 3.9565 13.4521
11715 1 43.5215 5.5391 15.0347
11716 1 41.9389 3.9565 16.6173
11717 1 43.5215 5.5391 18.1999
11718 1 41.9389 3.9565 19.7825
11719 1 43.5215 5.5391 21.3651
11720 1 41.9389 7.1217 0.7913
11721 1 43.5215 8.7043 2.3739
11722 1 41.9389 7.1217 3.9565
11723 1 43.5215 8.7043 5.5391
11724 1 41.9389 7.1217 7.1217
11725 1 43.5215 8.7043 8.7043
11726 1 41.9389 7.1217 10.2869
11727 1 43.5215 8.7043 11.8695
11728 1 41.9389 7.1217 13.4521
11729 1 43.5215 8.7043 15.0347
11730 1 41.9389 7.1217 16.6173
11731 1 43.5215 8.7043 18.1999
11732 1 41.9389 7.1217 19.7825
11733 1 43.5215 8.7043 21.3651
11734 1 41.9389 10.2869 0.7913
11735 1 43.5215 11.8695 2.3739
11736 1 41.9389 10.2869 3.9565
11737 1 43.5215 11.8695 5.5391
11738 1 41.9389 10.2869 7.1217
11739 1 43.5215 11.8695 8.7043
11740 1 41.9389 10.2869 10.2869
11741 1 43.5215 11.8695 11.8695
11742 1 41.9389 10.2869 13.4521
11743 1 43.5215 11.8695 15.0347
11744 1 41.9389 10.2869 16.6173
11745 1 43.5215 11.8695 18.1999
11746 1 41.9389 10.2869 19.7825
11747 1 43.5215 11.8695 21.3651
11748 1 41.9389 13.4521 0.7913
11749 1 43.5215 15.0347 2.3739
11750 1 41.9389 13.4521 3.9565
11751 1 43.5215 15.0347 5.5391
11752 1 41.9389 13.4521 7.1217
11753 1 43.5215 15.0347 8.7043
11754 1 41.9389 13.4521 10.2869
11755 1 43.5215 15.0347 11.8695
11756 1 41.9389 13.4521 13.4521
11757 1 43.5215 15.0347 15.0347
11758 1 41.9389 13.4521 16.6173
11759 1 43.5215 15.0347 18.1999
11760 1 41.9389 13.4521 19.7825
11761 1 43.5215 15.0347 21.3651
11762 1 41.9389 16.6173 0.7913
11763 1 43.5215 18.1999 2.3739
11764 1 41.9389 16.6173 3.9565
11765 1 43.5215 18.1999 5.5391
11766 1 41.9389 16.6173 7.1217
11767 1 43.5215 18.1999 8.7043
11768 1 41.9389 16.6173 10.2869
11769 1 43.5215 18.1999 11.8695
11770 1 41.9389 16.6173 13.4521
11771 1 43.5215 18.1999 15.0347
11772 1 41.9389 16.6173 16.6173
11773 1 43.5215 18.1999 18.1999
11774 1 41.9389 16.6173 19.7825
11775 1 43.5215 18.1999 21.3651
11776 1 41.9389 19.7825 0.7913
11777 1 43.5215 21.3651 2.3739
11778 1 41.9389 19.7825 3.9565
11779 1 43.5215 21.3651 5.5391
11780 1 41.9389 19.7825 7.1217
11781 1 43.5215 21.3651 8.7043
11782 1 41.9389 19.7825 10.2869
11783 1 43.5215 21.3651 11.8695
11784 1 41.9389 19.7825 13.4521
11785 1 43.5215 21.3651 15.0347
11786 1 41.9389 19.7825 16.6173
11787 1 43.5215 21.3651 18.1999
11788 1 41.9389 19.7825 19.7825
11789 1 43.5215 21.3651 21.3651
11790 1 41.9389 22.9477 0.7913
11791 1 43.5215 24.5303 2.3739
11792 1 41.9389 22.9477 3.9565
11793 1 43.5215 24.5303 5.5391
11794 1 41.9389 22.9477 7.1217
11795 1 43.5215 24.5303 8.7043
11796 1 41.9389 22.9477 10.2869
11797 1 43.5215 24.5303 11.8695
11798 1 41.9389 22.9477 13.4521
11799 1 43.5215 24.5303 15.0347
11800 1 41.9389 22.9477 16.6173
11801 1 43.5215 24.5303 18.1999
11802 1 41.9389 22.9477 19.7825
11803 1 43.5215 24.5303 21.3651
11804 1 41.9389 26.1129 0.7913
11805 1 43.5215 27.6955 2.3739
11806 1 41.9389 26.1129 3.9565
11807 1 43.5215 27.6955 5.5391
11808 1 41.9389 26.1129 7.1217
11809 1 43.5215 27.6955 8.7043
11810 1 41.9389 26.1129 10.2869
11811 1 43.5215 27.6955 11.8695
11812 1 41.9389 26.1129 13.4521
11813 1 43.5215 27.6955 15.0347
11814 1 41.9389 26.1129 16.6173
11815 1 43.5215 27.6955 18.1999
11816 1 41.9389 26.1129 19.7825
11817 1 43.5215 27.6955 21.3651
11818 1 41.9389 29.2781 0.7913
11819 1 43.5215 30.8607 2.3739
11820 1 41.9389 29.2781 3.9565
11821 1 43.5215 30.8607 5.5391
11822 1 41.9389 29.2781 7.1217
11823 1 43.5215 30.8607 8.7043
11824 1 41.9389 29.2781 10.2869
11825 1 43.5215 30.8607 11.8695
11826 1 41.9389 29.2781 13.4521
11827 1 43.5215 30.8607 15.0347
11828 1 41.9389 29.2781 16.6173
11829 1 43.5215 30.8607 18.1999
11830 1 41.9389 29.2781 19.7825
11831 1 43.5215 30.8607 21.3651
11832 1 41.9389 32.4433 0.7913
11833 1 43.5215 34.0259 2.3739
11834 1 41.9389 32.4433 3.9565
11835 1 43.5215 34.0259 5.5391
11836 1 41.9389 32.4433 7.1217
11837 1 43.5215 34.0259 8.7043
11838 1 41.9389 32.4433 10.2869
11839 1 43.5215 34.0259 11.8695
11840 1 41.9389 32.4433 13.4521
11841 1 43.5215 34.0259 15.0347
11842 1 41.9389 32.4433 16.6173
11843 1 43.5215 34.0259 18.1999
11844 1 41.9389 32.4433 19.7825
11845 1 43.5215 34.0259 21.3651
11846 1 41.9389 35.6085 0.7913
11847 1 43.5215 37.1911 2.3739
11848 1 41.9389 35.6085 3.9565
11849 1 43.5215 37.1911 5.5391
11850 1 41.9389 35.6085 7.1217
11851 1 43.5215 37.1911 8.7043
11852 1 41.9389 35.6085 10.2869
11853 1 43.5215 37.1911 11.8695
11854 1 41.9389 35.6085 13.4521
11855 1 43.5215 37.1911 15.0347
11856 1 41.9389 35.6085 16.6173
11857 1 43.5215 37.1911 18.1999
11858 1 41.9389 35.6085 19.7825
11859 1 43.5215 37.1911 21.3651
11860 1 41.9389 38.7737 0.7913
11861 1 43.5215 40.3563 2.3739
11862 1 41.9389 38.7737 3.9565
11863 1 43.5215 40.3563 5.5391
11864 1 41.9389 38.7737 7.1217
11865 1 43.5215 40.3563 8.7043
11866 1 41.9389 38.7737 10.2869
11867 1 43.5215 40.3563 11.8695
11868 1 41.9389 38.7737 13.4521
11869 1 43.5215 40.3563 15.0347
11870 1 41.9389 38.7737 16.6173
11871 1 43.5215 40.3563 18.1999
11872 1 41.9389 38.7737 19.7825
11873 1 43.5215 40.3563 21.3651
11874 1 41.9389 41.9389 0.7913
11875 1 43.5215 43.5215 2.3739
11876 1 41.9389 41.9389 3.9565
11877 1 43.5215 43.5215 5.5391
11878 1 41.9389 41.9389 7.1217
11879 1 43.5215 43.5215 8.7043
11880 1 41.9389 41.9389 10.2869
11881 1 43.5215 43.5215 11.8695
11882 1 41.9389 41.9389 13.4521
11883 1 43.5215 43.5215 15.0347
11884 1 41.9389 41.9389 16.6173
11885 1 43.5215 43.5215 18.1999
11886 1 41.9389 41.9389 19.7825
11887 1 43.5215 43.5215 21.3651
11888 1 41.9389 45.1041 0.7913
11889 1 43.5215 46.6867 2.3739
11890 1 41.9389 45.1041 3.9565
11891 1 43.5215 46.6867 5.5391
11892 1 41.9389 45.1041 7.1217
11893 1 43.5215 46.6867 8.7043
11894 1 41.9389 45.1041 10.2869
11895 1 43.5215 46.6867 11.8695
11896 1 41.9389 45.1041 13.4521
11897 1 43.5215 46.6867 15.0347
11898 1 41.9389 45.1041 16.6173
11899 1 43.5215 46.6867 18.1999
11900 1 41.9389 45.1041 19.7825
11901 1 43.5215 46.6867 21.3651
11902 1 41.9389 48.2693 0.7913
11903 1 43.5215 49.8519 2.3739
11904 1 41.9389 48.2693 3.9565
11905 1 43.5215 49.8519 5.5391
11906 1 41.9389 48.2693 7.1217
11907 1 43.5215 49.8519 8.7043
11908 1 41.9389 48.2693 10.2869
11909 1 43.5215 49.8519 11.8695
11910 1 41.9389 48.2693 13.4521
11911 1 43.5215 49.8519 15.0347
11912 1 41.9389 48.2693 16.6173
11913 1 43.5215 49.8519 18.1999
11914 1 41.9389 48.2693 19.7825
11915 1 43.5215 49.8519 21.3651
11916 1 41.9389 51.4345 0.7913
11917 1 43.5215 53.0171 2.3739
11918 1 41.9389 51.4345 3.9565
11919 1 43.5215 53.0171 5.5391
11920 1 41.9389 51.4345 7.1217
11921 1 43.5215 53.0171 8.7043
11922 1 41.9389 51.4345 10.2869
11923 1 43.5215 53.0171 11.8695
11924 1 41.9389 51.4345 13.4521
11925 1 43.5215 53.0171 15.0347
11926 1 41.9389 51.4345 16.6173
11927 1 43.5215 53.0171 18.1999
11928 1 41.9389 51.4345 19.7825
11929 1 43.5215 53.0171 21.3651
11930 1 41.9389 54.5997 0.7913
11931 1 43.5215 56.1823 2.3739
11932 1 41.9389 54.5997 3.9565
11933 1 43.5215 56.1823 5.5391
11934 1 41.9389 54.5997 7.1217
11935 1 43.5215 56.1823 8.7043
11936 1 41.9389 54.5997 10.2869
11937 1 43.5215 56.1823 11.8695
11938 1 41.9389 54.5997 13.4521
11939 1 43.5215 56.1823 15.0347
11940 1 41.9389 54.5997 16.6173
11941 1 43.5215 56.1823 18.1999
11942 1 41.9389 54.5997 19.7825
11943 1 43.5215 56.1823 21.3651
11944 1 41.9389 57.7649 0.7913
11945 1 43.5215 59.3475 2.3739
11946 1 41.9389 57.7649 3.9565
11947 1 43.5215 59.3475 5.5391
11948 1 41.9389 57.7649 7.1217
11949 1 43.5215 59.3475 8.7043
11950 1 41.9389 57.7649 10.2869
11951 1 43.5215 59.3475 11.8695
11952 1 41.9389 57.7649 13.4521
11953 1 43.5215 59.3475 15.0347
11954 1 41.9389 57.7649 16.6173
11955 1 43.5215 59.3475 18.1999
11956 1 41.9389 57.7649 19.7825
11957 1 43.5215 59.3475 21.3651
11958 1 41.9389 60.9301 0.7913
11959 1 43.5215 62.5127 2.3739
11960 1 41.9389 60.9301 3.9565
11961 1 43.5215 62.5127 5.5391
11962 1 41.9389 60.9301 7.1217
11963 1 43.5215 62.5127 8.7043
11964 1 41.9389 60.9301 10.2869
11965 1 43.5215 62.5127 11.8695
11966 1 41.9389 60.9301 13.4521
11967 1 43.5215 62.5127 15.0347
11968 1 41.9389 60.9301 16.6173
11969 1 43.5215 62.5127 18.1999
11970 1 41.9389 60.9301 19.7825
11971 1 43.5215 62.5127 21.3651
11972 1 16.6173 0.7913 38.7737
11973 1 18.1999 2.3739 40.3563
11974 1 16.6173 0.7913 41.9389
11975 1 18.1999 2.3739 43.5215
11976 1 16.6173 0.7913 45.1041
11977 1 18.1999 2.3739 46.6867
11978 1 16.6173 0.7913 48.2693
11979 1 18.1999 2.3739 49.8519
11980 1 16.6173 0.7913 51.4345
11981 1 18.1999 2.3739 53.0171
11982 1 16.6173 0.7913 54.5997
11983 1 18.1999 2.3739 56.1823
11984 1 16.6173 0.7913 57.7649
11985 1 18.1999 2.3739 59.3475
11986 1 16.6173 0.7913 60.9301
11987 1 18.1999 2.3739 62.5127
11988 1 16.6173 3.9565 38.7737
11989 1 18.1999 5.5391 40.3563
11990 1 16.6173 3.9565 41.9389
11991 1 18.1999 5.5391 43.5215
11992 1 16.6173 3.9565 45.1041
11993 1 18.1999 5.5391 46.6867
11994 1 16.6173 3.9565 48.2693
11995 1 18.1999 5.5391 49.8519
11996 1 16.6173 3.9565 51.4345
11997 1 18.1999 5.5391 53.0171
11998 1 16.6173 3.9565 54.5997
11999 1 18.1999 5.5391 56.1823
12000 1 16.6173 3.9565 57.7649
12001 1 18.1999 5.5391 59.3475
12002 1 16.6173 3.9565 60.9301
12003 1 18.1999 5.5391 62.5127
12004 1 16.6173 7.1217 38.7737
12005 1 18.1999 8.7043 40.3563
12006 1 16.6173 7.1217 41.9389
12007 1 18.1999 8.7043 43.5215
12008 1 16.6173 7.1217 45.1041
12009 1 18.1999 8.7043 46.6867
12010 1 16.6173 7.1217 48.2693
12011 1 18.1999 8.7043 49.8519
12012 1 16.6173 7.1217 51.4345
12013 1 18.1999 8.7043 53.0171
12014 1 16.6173 7.1217 54.5997
12015 1 18.1999 8.7043 56.1823
12016 1 16.6173 7.1217 57.7649
12017 1 18.1999 8.7043 59.3475
12018 1 16.6173 7.1217 60.9301
12019 1 18.1999 8.7043 62.5127
12020 1 16.6173 10.2869 38.7737
12021 1 18.1999 11.8695 40.3563
12022 1 16.6173 10.2869 41.9389
12023 1 18.1999 11.8695 43.5215
12024 1 16.6173 10.2869 45.1041
12025 1 18.1999 11.8695 46.6867
12026 1 16.6173 10.2869 48.2693
12027 1 18.1999 11.8695 49.8519
12028 1 16.6173 10.2869 51.4345
12029 1 18.1999 11.8695 53.0171
12030 1 16.6173 10.2869 54.5997
12031 1 18.1999 11.8695 56.1823
12032 1 16.6173 10.2869 57.7649
12033 1 18.1999 11.8695 59.3475
12034 1 16.6173 10.2869 60.9301
12035 1 18.1999 11.8695 62.5127
12036 1 16.6173 13.4521 38.7737
12037 1 18.1999 15.0347 40.3563
12038 1 16.6173 13.4521 41.9389
12039 1 18.1999 15.0347 43.5215
12040 1 16.6173 13.4521 45.1041
12041 1 18.1999 15.0347 46.6867
12042 1 16.6173 13.4521 48.2693
12043 1 18.1999 15.0347 49.8519
12044 1 16.6173 13.4521 51.4345
12045 1 18.1999 15.0347 53.0171
12046 1 16.6173 13.4521 54.5997
12047 1 18.1999 15.0347 56.1823
12048 1 16.6173 13.4521 57.7649
12049 1 18.1999 15.0347 59.3475
12050 1 16.6173 13.4521 60.9301
12051 1 18.1999 15.0347 62.5127
12052 1 16.6173 16.6173 38.7737
12053 1 18.1999 18.1999 40.3563
12054 1 16.6173 16.6173 41.9389
12055 1 18.1999 18.1999 43.5215
12056 1 16.6173 16.6173 45.1041
12057 1 18.1999 18.1999 46.6867
12058 1 16.6173 16.6173 48.2693
12059 1 18.1999 18.1999 49.8519
12060 1 16.6173 16.6173 51.4345
12061 1 18.1999 18.1999 53.0171
12062 1 16.6173 16.6173 54.5997
12063 1 18.1999 18.1999 56.1823
12064 1 16.6173 16.6173 57.7649
12065 1 18.1999 18.1999 59.3475
12066 1 16.6173 16.6173 60.9301
12067 1 18.1999 18.1999 62.5127
12068 1 16.6173 19.7825 38.7737
12069 1 18.1999 21.3651 40.3563
12070 1 16.6173 19.7825 41.9389
12071 1 18.1999 21.3651 43.5215
12072 1 16.6173 19.7825 45.1041
12073 1 18.1999 21.3651 46.6867
12074 1 16.6173 19.7825 48.2693
12075 1 18.1999 21.3651 49.8519
12076 1 16.6173 19.7825 51.4345
12077 1 18.1999 21.3651 53.0171
12078 1 16.6173 19.7825 54.5997
12079 1 18.1999 21.3651 56.1823
12080 1 16.6173 19.7825 57.7649
12081 1 18.1999 21.3651 59.3475
12082 1 16.6173 19.7825 60.9301
12083 1 18.1999 21.3651 62.5127
12084 1 16.6173 22.9477 38.7737
12085 1 18.1999 24.5303 40.3563
12086 1 16.6173 22.9477 41.9389
12087 1 18.1999 24.5303 43.5215
12088 1 16.6173 22.9477 45.1041
12089 1 18.1999 24.5303 46.6867
12090 1 16.6173 22.9477 48.2693
12091 1 18.1999 24.5303 49.8519
12092 1 16.6173 22.9477 51.4345
12093 1 18.1999 24.5303 53.0171
12094 1 16.6173 22.9477 54.5997
12095 1 18.1999 24.5303 56.1823
12096 1 16.6173 22.9477 57.7649
12097 1 18.1999 24.5303 59.3475
12098 1 16.6173 22.9477 60.9301
12099 1 18.1999 24.5303 62.5127
12100 1 16.6173 26.1129 38.7737
12101 1 18.1999 27.6955 40.3563
12102 1 16.6173 26.1129 41.9389
12103 1 18.1999 27.6955 43.5215
12104 1 16.6173 26.1129 45.1041
12105 1 18.1999 27.6955 46.6867
12106 1 16.6173 26.1129 48.2693
12107 1 18.1999 27.6955 49.8519
12108 1 16.6173 26.1129 51.4345
12109 1 18.1999 27.6955 53.0171
12110 1 16.6173 26.1129 54.5997
12111 1 18.1999 27.6955 56.1823
12112 1 16.6173 26.1129 57.7649
12113 1 18.1999 27.6955 59.3475
12114 1 16.6173 26.1129 60.9301
12115 1 18.1999 27.6955 62.5127
12116 1 16.6173 29.2781 38.7737
12117 1 18.1999 30.8607 40.3563
12118 1 16.6173 29.2781 41.9389
12119 1 18.1999 30.8607 43.5215
12120 1 16.6173 29.2781 45.1041
12121 1 18.1999 30.8607 46.6867
12122 1 16.6173 29.2781 48.2693
12123 1 18.1999 30.8607 49.8519
12124 1 16.6173 29.2781 51.4345
12125 1 18.1999 30.8607 53.0171
12126 1 16.6173 29.2781 54.5997
12127 1 18.1999 30.8607 56.1823
12128 1 16.6173 29.2781 57.7649
12129 1 18.1999 30.8607 59.3475
12130 1 16.6173 29.2781 60.9301
12131 1 18.1999 30.8607 62.5127
12132 1 16.6173 32.4433 38.7737
12133 1 18.1999 34.0259 40.3563
12134 1 16.6173 32.4433 41.9389
12135 1 18.1999 34.0259 43.5215
12136 1 16.6173 32.4433 45.1041
12137 1 18.1999 34.0259 46.6867
12138 1 16.6173 32.4433 48.2693
12139 1 18.1999 34.0259 49.8519
12140 1 16.6173 32.4433 51.4345
12141 1 18.1999 34.0259 53.0171
12142 1 16.6173 32.4433 54.5997
12143 1 18.1999 34.0259 56.1823
12144 1 16.6173 32.4433 57.7649
12145 1 18.1999 34.0259 59.3475
12146 1 16.6173 32.4433 60.9301
12147 1 18.1999 34.0259 62.5127
12148 1 16.6173 35.6085 38.7737
12149 1 18.1999 37.1911 40.3563
12150 1 16.6173 35.6085 41.9389
12151 1 18.1999 37.1911 43.5215
12152 1 16.6173 35.6085 45.1041
12153 1 18.1999 37.1911 46.6867
12154 1 16.6173 35.6085 48.2693
12155 1 18.1999 37.1911 49.8519
12156 1 16.6173 35.6085 51.4345
12157 1 18.1999 37.1911 53.0171
12158 1 16.6173 35.6085 54.5997
12159 1 18.1999 37.1911 56.1823
12160 1 16.6173 35.6085 57.7649
12161 1 18.1999 37.1911 59.3475
12162 1 16.6173 35.6085 60.9301
12163 1 18.1999 37.1911 62.5127
12164 1 16.6173 38.7737 38.7737
12165 1 18.1999 40.3563 40.3563
12166 1 16.6173 38.7737 41.9389
12167 1 18.1999 40.3563 43.5215
12168 1 16.6173 38.7737 45.1041
12169 1 18.1999 40.3563 46.6867
12170 1 16.6173 38.7737 48.2693
12171 1 18.1999 40.3563 49.8519
12172 1 16.6173 38.7737 51.4345
12173 1 18.1999 40.3563 53.0171
12174 1 16.6173 38.7737 54.5997
12175 1 18.1999 40.3563 56.1823
12176 1 16.6173 38.7737 57.7649
12177 1 18.1999 40.3563 59.3475
12178 1 16.6173 38.7737 60.9301
12179 1 18.1999 40.3563 62.5127
12180 1 16.6173 41.9389 38.7737
12181 1 18.1999 43.5215 40.3563
12182 1 16.6173 41.9389 41.9389
12183 1 18.1999 43.5215 43.5215
12184 1 16.6173 41.9389 45.1041
12185 1 18.1999 43.5215 46.6867
12186 1 16.6173 41.9389 48.2693
12187 1 18.1999 43.5215 49.8519
12188 1 16.6173 41.9389 51.4345
12189 1 18.1999 43.5215 53.0171
12190 1 16.6173 41.9389 54.5997
12191 1 18.1999 43.5215 56.1823
12192 1 16.6173 41.9389 57.7649
12193 1 18.1999 43.5215 59.3475
12194 1 16.6173 41.9389 60.9301
12195 1 18.1999 43.5215 62.5127
12196 1 16.6173 45.1041 38.7737
12197 1 18.1999 46.6867 40.3563
12198 1 16.6173 45.1041 41.9389
12199 1 18.1999 46.6867 43.5215
12200 1 16.6173 45.1041 45.1041
12201 1 18.1999 46.6867 46.6867
12202 1 16.6173 45.1041 48.2693
12203 1 18.1999 46.6867 49.8519
12204 1 16.6173 45.1041 51.4345
12205 1 18.1999 46.6867 53.0171
12206 1 16.6173 45.1041 54.5997
12207 1 18.1999 46.6867 56.1823
12208 1 16.6173 45.1041 57.7649
12209 1 18.1999 46.6867 59.3475
12210 1 16.6173 45.1041 60.9301
12211 1 18.1999 46.6867 62.5127
12212 1 16.6173 48.2693 38.7737
12213 1 18.1999 49.8519 40.3563
12214 1 16.6173 48.2693 41.9389
12215 1 18.1999 49.8519 43.5215
12216 1 16.6173 48.2693 45.1041
12217 1 18.1999 49.8519 46.6867
12218 1 16.6173 48.2693 48.2693
12219 1 18.1999 49.8519 49.8519
12220 1 16.6173 48.2693 51.4345
12221 1 18.1999 49.8519 53.0171
12222 1 16.6173 48.2693 54.5997
12223 1 18.1999 49.8519 56.1823
12224 1 16.6173 48.2693 57.7649
12225 1 18.1999 49.8519 59.3475
12226 1 16.6173 48.2693 60.9301
12227 1 18.1999 49.8519 62.5127
12228 1 16.6173 51.4345 38.7737
12229 1 18.1999 53.0171 40.3563
12230 1 16.6173 51.4345 41.9389
12231 1 18.1999 53.0171 43.5215
12232 1 16.6173 51.4345 45.1041
12233 1 18.1999 53.0171 46.6867
12234 1 16.6173 51.4345 48.2693
12235 1 18.1999 53.0171 49.8519
12236 1 16.6173 51.4345 51.4345
12237 1 18.1999 53.0171 53.0171
12238 1 16.6173 51.4345 54.5997
12239 1 18.1999 53.0171 56.1823
12240 1 16.6173 51.4345 57.7649
12241 1 18.1999 53.0171 59.3475
12242 1 16.6173 51.4345 60.9301
12243 1 18.1999 53.0171 62.5127
12244 1 16.6173 54.5997 38.7737
12245 1 18.1999 56.1823 40.3563
12246 1 16.6173 54.5997 41.9389
12247 1 18.1999 56.1823 43.5215
12248 1 16.6173 54.5997 45.1041
12249 1 18.1999 56.1823 46.6867
12250 1 16.6173 54.5997 48.2693
12251 1 18.1999 56.1823 49.8519
12252 1 16.6173 54.5997 51.4345
12253 1 18.1999 56.1823 53.0171
12254 1 16.6173 54.5997 54.5997
12255 1 18.1999 56.1823 56.1823
12256 1 16.6173 54.5997 57.7649
12257 1 18.1999 56.1823 59.3475
12258 1 16.6173 54.5997 60.9301
12259 1 18.1999 56.1823 62.5127
12260 1 16.6173 57.7649 38.7737
12261 1 18.1999 59.3475 40.3563
12262 1 16.6173 57.7649 41.9389
12263 1 18.1999 59.3475 43.5215
12264 1 16.6173 57.7649 45.1041
12265 1 18.1999 59.3475 46.6867
12266 1 16.6173 57.7649 48.2693
12267 1 18.1999 59.3475 49.8519
12268 1 16.6173 57.7649 51.4345
12269 1 18.1999 59.3475 53.0171
12270 1 16.6173 57.7649 54.5997
12271 1 18.1999 59.3475 56.1823
12272 1 16.6173 57.7649 57.7649
12273 1 18.1999 59.3475 59.3475
12274 1 16.6173 57.7649 60.9301
12275 1 18.1999 59.3475 62.5127
12276 1 16.6173 60.9301 38.7737
12277 1 18.1999 62.5127 40.3563
12278 1 16.6173 60.9301 41.9389
12279 1 18.1999 62.5127 43.5215
12280 1 16.6173 60.9301 45.1041
12281 1 18.1999 62.5127 46.6867
12282 1 16.6173 60.9301 48.2693
12283 1 18.1999 62.5127 49.8519
12284 1 16.6173 60.9301 51.4345
12285 1 18.1999 62.5127 53.0171
12286 1 16.6173 60.9301 54.5997
12287 1 18.1999 62.5127 56.1823
12288 1 16.6173 60.9301 57.7649
12289 1 18.1999 62.5127 59.3475
12290 1 16.6173 60.9301 60.9301
12291 1 18.1999 62.5127 62.5127
12292 1 19.7825 0.7913 38.7737
12293 1 21.3651 2.3739 40.3563
12294 1 19.7825 0.7913 41.9389
12295 1 21.3651 2.3739 43.5215
12296 1 19.7825 0.7913 45.1041
12297 1 21.3651 2.3739 46.6867
12298 1 19.7825 0.7913 48.2693
12299 1 21.3651 2.3739 49.8519
12300 1 19.7825 0.7913 51.4345
12301 1 21.3651 2.3739 53.0171
12302 1 19.7825 0.7913 54.5997
12303 1 21.3651 2.3739 56.1823
12304 1 19.7825 0.7913 57.7649
12305 1 21.3651 2.3739 59.3475
12306 1 19.7825 0.7913 60.9301
12307 1 21.3651 2.3739 62.5127
12308 1 19.7825 3.9565 38.7737
12309 1 21.3651 5.5391 40.3563
12310 1 19.7825 3.9565 41.9389
12311 1 21.3651 5.5391 43.5215
12312 1 19.7825 3.9565 45.1041
12313 1 21.3651 5.5391 46.6867
12314 1 19.7825 3.9565 48.2693
12315 1 21.3651 5.5391 49.8519
12316 1 19.7825 3.9565 51.4345
12317 1 21.3651 5.5391 53.0171
12318 1 19.7825 3.9565 54.5997
12319 1 21.3651 5.5391 56.1823
12320 1 19.7825 3.9565 57.7649
12321 1 21.3651 5.5391 59.3475
12322 1 19.7825 3.9565 60.9301
12323 1 21.3651 5.5391 62.5127
12324 1 19.7825 7.1217 38.7737
12325 1 21.3651 8.7043 40.3563
12326 1 19.7825 7.1217 41.9389
12327 1 21.3651 8.7043 43.5215
12328 1 19.7825 7.1217 45.1041
12329 1 21.3651 8.7043 46.6867
12330 1 19.7825 7.1217 48.2693
12331 1 21.3651 8.7043 49.8519
12332 1 19.7825 7.1217 51.4345
12333 1 21.3651 8.7043 53.0171
12334 1 19.7825 7.1217 54.5997
12335 1 21.3651 8.7043 56.1823
12336 1 19.7825 7.1217 57.7649
12337 1 21.3651 8.7043 59.3475
12338 1 19.7825 7.1217 60.9301
12339 1 21.3651 8.7043 62.5127
12340 1 19.7825 10.2869 38.7737
12341 1 21.3651 11.8695 40.3563
12342 1 19.7825 10.2869 41.9389
12343 1 21.3651 11.8695 43.5215
12344 1 19.7825 10.2869 45.1041
12345 1 21.3651 11.8695 46.6867
12346 1 19.7825 10.2869 48.2693
12347 1 21.3651 11.8695 49.8519
12348 1 19.7825 10.2869 51.4345
12349 1 21.3651 11.8695 53.0171
12350 1 19.7825 10.2869 54.5997
12351 1 21.3651 11.8695 56.1823
12352 1 19.7825 10.2869 57.7649
12353 1 21.3651 11.8695 59.3475
12354 1 19.7825 10.2869 60.9301
12355 1 21.3651 11.8695 62.5127
12356 1 19.7825 13.4521 38.7737
12357 1 21.3651 15.0347 40.3563
12358 1 19.7825 13.4521 41.9389
12359 1 21.3651 15.0347 43.5215
12360 1 19.7825 13.4521 45.1041
12361 1 21.3651 15.0347 46.6867
12362 1 19.7825 13.4521 48.2693
12363 1 21.3651 15.0347 49.8519
12364 1 19.7825 13.4521 51.4345
12365 1 21.3651 15.0347 53.0171
12366 1 19.7825 13.4521 54.5997
12367 1 21.3651 15.0347 56.1823
12368 1 19.7825 13.4521 57.7649
12369 1 21.3651 15.0347 59.3475
12370 1 19.7825 13.4521 60.9301
12371 1 21.3651 15.0347 62.5127
12372 1 19.7825 16.6173 38.7737
12373 1 21.3651 18.1999 40.3563
12374 1 19.7825 16.6173 41.9389
12375 1 21.3651 18.1999 43.5215
12376 1 19.7825 16.6173 45.1041
12377 1 21.3651 18.1999 46.6867
12378 1 19.7825 16.6173 48.2693
12379 1 21.3651 18.1999 49.8519
12380 1 19.7825 16.6173 51.4345
12381 1 21.3651 18.1999 53.0171
12382 1 19.7825 16.6173 54.5997
12383 1 21.3651 18.1999 56.1823
12384 1 19.7825 16.6173 57.7649
12385 1 21.3651 18.1999 59.3475
12386 1 19.7825 16.6173 60.9301
12387 1 21.3651 18.1999 62.5127
12388 1 19.7825 19.7825 38.7737
12389 1 21.3651 21.3651 40.3563
12390 1 19.7825 19.7825 41.9389
12391 1 21.3651 21.3651 43.5215
12392 1 19.7825 19.7825 45.1041
12393 1 21.3651 21.3651 46.6867
12394 1 19.7825 19.7825 48.2693
12395 1 21.3651 21.3651 49.8519
12396 1 19.7825 19.7825 51.4345
12397 1 21.3651 21.3651 53.0171
12398 1 19.7825 19.7825 54.5997
12399 1 21.3651 21.3651 56.1823
12400 1 19.7825 19.7825 57.7649
12401 1 21.3651 21.3651 59.3475
12402 1 19.7825 19.7825 60.9301
12403 1 21.3651 21.3651 62.5127
12404 1 19.7825 22.9477 38.7737
12405 1 21.3651 24.5303 40.3563
12406 1 19.7825 22.9477 41.9389
12407 1 21.3651 24.5303 43.5215
12408 1 19.7825 22.9477 45.1041
12409 1 21.3651 24.5303 46.6867
12410 1 19.7825 22.9477 48.2693
12411 1 21.3651 24.5303 49.8519
12412 1 19.7825 22.9477 51.4345
12413 1 21.3651 24.5303 53.0171
12414 1 19.7825 22.9477 54.5997
12415 1 21.3651 24.5303 56.1823
12416 1 19.7825 22.9477 57.7649
12417 1 21.3651 24.5303 59.3475
12418 1 19.7825 22.9477 60.9301
12419 1 21.3651 24.5303 62.5127
12420 1 19.7825 26.1129 38.7737
12421 1 21.3651 27.6955 40.3563
12422 1 19.7825 26.1129 41.9389
12423 1 21.3651 27.6955 43.5215
12424 1 19.7825 26.1129 45.1041
12425 1 21.3651 27.6955 46.6867
12426 1 19.7825 26.1129 48.2693
12427 1 21.3651 27.6955 49.8519
12428 1 19.7825 26.1129 51.4345
12429 1 21.3651 27.6955 53.0171
12430 1 19.7825 26.1129 54.5997
12431 1 21.3651 27.6955 56.1823
12432 1 19.7825 26.1129 57.7649
12433 1 21.3651 27.6955 59.3475
12434 1 19.7825 26.1129 60.9301
12435 1 21.3651 27.6955 62.5127
12436 1 19.7825 29.2781 38.7737
12437 1 21.3651 30.8607 40.3563
12438 1 19.7825 29.2781 41.9389
12439 1 21.3651 30.8607 43.5215
12440 1 19.7825 29.2781 45.1041
12441 1 21.3651 30.8607 46.6867
12442 1 19.7825 29.2781 48.2693
12443 1 21.3651 30.8607 49.8519
12444 1 19.7825 29.2781 51.4345
12445 1 21.3651 30.8607 53.0171
12446 1 19.7825 29.2781 54.5997
12447 1 21.3651 30.8607 56.1823
12448 1 19.7825 29.2781 57.7649
12449 1 21.3651 30.8607 59.3475
12450 1 19.7825 29.2781 60.9301
12451 1 21.3651 30.8607 62.5127
12452 1 19.7825 32.4433 38.7737
12453 1 21.3651 34.0259 40.3563
12454 1 19.7825 32.4433 41.9389
12455 1 21.3651 34.0259 43.5215
12456 1 19.7825 32.4433 45.1041
12457 1 21.3651 34.0259 46.6867
12458 1 19.7825 32.4433 48.2693
12459 1 21.3651 34.0259 49.8519
12460 1 19.7825 32.4433 51.4345
12461 1 21.3651 34.0259 53.0171
12462 1 19.7825 32.4433 54.5997
12463 1 21.3651 34.0259 56.1823
12464 1 19.7825 32.4433 57.7649
12465 1 21.3651 34.0259 59.3475
12466 1 19.7825 32.4433 60.9301
12467 1 21.3651 34.0259 62.5127
12468 1 19.7825 35.6085 38.7737
12469 1 21.3651 37.1911 40.3563
12470 1 19.7825 35.6085 41.9389
12471 1 21.3651 37.1911 43.5215
12472 1 19.7825 35.6085 45.1041
12473 1 21.3651 37.1911 46.6867
12474 1 19.7825 35.6085 48.2693
12475 1 21.3651 37.1911 49.8519
12476 1 19.7825 35.6085 51.4345
12477 1 21.3651 37.1911 53.0171
12478 1 19.7825 35.6085 54.5997
12479 1 21.3651 37.1911 56.1823
12480 1 19.7825 35.6085 57.7649
12481 1 21.3651 37.1911 59.3475
12482 1 19.7825 35.6085 60.9301
12483 1 21.3651 37.1911 62.5127
12484 1 19.7825 38.7737 38.7737
12485 1 21.3651 40.3563 40.3563
12486 1 19.7825 38.7737 41.9389
12487 1 21.3651 40.3563 43.5215
12488 1 19.7825 38.7737 45.1041
12489 1 21.3651 40.3563 46.6867
12490 1 19.7825 38.7737 48.2693
12491 1 21.3651 40.3563 49.8519
12492 1 19.7825 38.7737 51.4345
12493 1 21.3651 40.3563 53.0171
12494 1 19.7825 38.7737 54.5997
12495 1 21.3651 40.3563 56.1823
12496 1 19.7825 38.7737 57.7649
12497 1 21.3651 40.3563 59.3475
12498 1 19.7825 38.7737 60.9301
12499 1 21.3651 40.3563 62.5127
12500 1 19.7825 41.9389 38.7737
12501 1 21.3651 43.5215 40.3563
12502 1 19.7825 41.9389 41.9389
12503 1 21.3651 43.5215 43.5215
12504 1 19.7825 41.9389 45.1041
12505 1 21.3651 43.5215 46.6867
12506 1 19.7825 41.9389 48.2693
12507 1 21.3651 43.5215 49.8519
12508 1 19.7825 41.9389 51.4345
12509 1 21.3651 43.5215 53.0171
12510 1 19.7825 41.9389 54.5997
12511 1 21.3651 43.5215 56.1823
12512 1 19.7825 41.9389 57.7649
12513 1 21.3651 43.5215 59.3475
12514 1 19.7825 41.9389 60.9301
12515 1 21.3651 43.5215 62.5127
12516 1 19.7825 45.1041 38.7737
12517 1 21.3651 46.6867 40.3563
12518 1 19.7825 45.1041 41.9389
12519 1 21.3651 46.6867 43.5215
12520 1 19.7825 45.1041 45.1041
12521 1 21.3651 46.6867 46.6867
12522 1 19.7825 45.1041 48.2693
12523 1 21.3651 46.6867 49.8519
12524 1 19.7825 45.1041 51.4345
12525 1 21.3651 46.6867 53.0171
12526 1 19.7825 45.1041 54.5997
12527 1 21.3651 46.6867 56.1823
12528 1 19.7825 45.1041 57.7649
12529 1 21.3651 46.6867 59.3475
12530 1 19.7825 45.1041 60.9301
12531 1 21.3651 46.6867 62.5127
12532 1 19.7825 48.2693 38.7737
12533 1 21.3651 49.8519 40.3563
12534 1 19.7825 48.2693 41.9389
12535 1 21.3651 49.8519 43.5215
12536 1 19.7825 48.2693 45.1041
12537 1 21.3651 49.8519 46.6867
12538 1 19.7825 48.2693 48.2693
12539 1 21.3651 49.8519 49.8519
12540 1 19.7825 48.2693 51.4345
12541 1 21.3651 49.8519 53.0171
12542 1 19.7825 48.2693 54.5997
12543 1 21.3651 49.8519 56.1823
12544 1 19.7825 48.2693 57.7649
12545 1 21.3651 49.8519 59.3475
12546 1 19.7825 48.2693 60.9301
12547 1 21.3651 49.8519 62.5127
12548 1 19.7825 51.4345 38.7737
12549 1 21.3651 53.0171 40.3563
12550 1 19.7825 51.4345 41.9389
12551 1 21.3651 53.0171 43.5215
12552 1 19.7825 51.4345 45.1041
12553 1 21.3651 53.0171 46.6867
12554 1 19.7825 51.4345 48.2693
12555 1 21.3651 53.0171 49.8519
12556 1 19.7825 51.4345 51.4345
12557 1 21.3651 53.0171 53.0171
12558 1 19.7825 51.4345 54.5997
12559 1 21.3651 53.0171 56.1823
12560 1 19.7825 51.4345 57.7649
12561 1 21.3651 53.0171 59.3475
12562 1 19.7825 51.4345 60.9301
12563 1 21.3651 53.0171 62.5127
12564 1 19.7825 54.5997 38.7737
12565 1 21.3651 56.1823 40.3563
12566 1 19.7825 54.5997 41.9389
12567 1 21.3651 56.1823 43.5215
12568 1 19.7825 54.5997 45.1041
12569 1 21.3651 56.1823 46.6867
12570 1 19.7825 54.5997 48.2693
12571 1 21.3651 56.1823 49.8519
12572 1 19.7825 54.5997 51.4345
12573 1 21.3651 56.1823 53.0171
12574 1 19.7825 54.5997 54.5997
12575 1 21.3651 56.1823 56.1823
12576 1 19.7825 54.5997 57.7649
12577 1 21.3651 56.1823 59.3475
12578 1 19.7825 54.5997 60.9301
12579 1 21.3651 56.1823 62.5127
12580 1 19.7825 57.7649 38.7737
12581 1 21.3651 59.3475 40.3563
12582 1 19.7825 57.7649 41.9389
12583 1 21.3651 59.3475 43.5215
12584 1 19.7825 57.7649 45.1041
12585 1 21.3651 59.3475 46.6867
12586 1 19.7825 57.7649 48.2693
12587 1 21.3651 59.3475 49.8519
12588 1 19.7825 57.7649 51.4345
12589 1 21.3651 59.3475 53.0171
12590 1 19.7825 57.7649 54.5997
12591 1 21.3651 59.3475 56.1823
12592 1 19.7825 57.7649 57.7649
12593 1 21.3651 59.3475 59.3475
12594 1 19.7825 57.7649 60.9301
12595 1 21.3651 59.3475 62.5127
12596 1 19.7825 60.9301 38.7737
12597 1 21.3651 62.5127 40.3563
12598 1 19.7825 60.9301 41.9389
12599 1 21.3651 62.5127 43.5215
12600 1 19.7825 60.9301 45.1041
12601 1 21.3651 62.5127 46.6867
12602 1 19.7825 60.9301 48.2693
12603 1 21.3651 62.5127 49.8519
12604 1 19.7825 60.9301 51.4345
12605 1 21.3651 62.5127 53.0171
12606 1 19.7825 60.9301 54.5997
12607 1 21.3651 62.5127 56.1823
12608 1 19.7825 60.9301 57.7649
12609 1 21.3651 62.5127 59.3475
12610 1 19.7825 60.9301 60.9301
12611 1 21.3651 62.5127 62.5127
12612 1 22.9477 0.7913 38.7737
12613 1 24.5303 2.3739 40.3563
12614 1 22.9477 0.7913 41.9389
12615 1 24.5303 2.3739 43.5215
12616 1 22.9477 0.7913 45.1041
12617 1 24.5303 2.3739 46.6867
12618 1 22.9477 0.7913 48.2693
12619 1 24.5303 2.3739 49.8519
12620 1 22.9477 0.7913 51.4345
12621 1 24.5303 2.3739 53.0171
12622 1 22.9477 0.7913 54.5997
12623 1 24.5303 2.3739 56.1823
12624 1 22.9477 0.7913 57.7649
12625 1 24.5303 2.3739 59.3475
12626 1 22.9477 0.7913 60.9301
12627 1 24.5303 2.3739 62.5127
12628 1 22.9477 3.9565 38.7737
12629 1 24.5303 5.5391 40.3563
12630 1 22.9477 3.9565 41.9389
12631 1 24.5303 5.5391 43.5215
12632 1 22.9477 3.9565 45.1041
12633 1 24.5303 5.5391 46.6867
12634 1 22.9477 3.9565 48.2693
12635 1 24.5303 5.5391 49.8519
12636 1 22.9477 3.9565 51.4345
12637 1 24.5303 5.5391 53.0171
12638 1 22.9477 3.9565 54.5997
12639 1 24.5303 5.5391 56.1823
12640 1 22.9477 3.9565 57.7649
12641 1 24.5303 5.5391 59.3475
12642 1 22.9477 3.9565 60.9301
12643 1 24.5303 5.5391 62.5127
12644 1 22.9477 7.1217 38.7737
12645 1 24.5303 8.7043 40.3563
12646 1 22.9477 7.1217 41.9389
12647 1 24.5303 8.7043 43.5215
12648 1 22.9477 7.1217 45.1041
12649 1 24.5303 8.7043 46.6867
12650 1 22.9477 7.1217 48.2693
12651 1 24.5303 8.7043 49.8519
12652 1 22.9477 7.1217 51.4345
12653 1 24.5303 8.7043 53.0171
12654 1 22.9477 7.1217 54.5997
12655 1 24.5303 8.7043 56.1823
12656 1 22.9477 7.1217 57.7649
12657 1 24.5303 8.7043 59.3475
12658 1 22.9477 7.1217 60.9301
12659 1 24.5303 8.7043 62.5127
12660 1 22.9477 10.2869 38.7737
12661 1 24.5303 11.8695 40.3563
12662 1 22.9477 10.2869 41.9389
12663 1 24.5303 11.8695 43.5215
12664 1 22.9477 10.2869 45.1041
12665 1 24.5303 11.8695 46.6867
12666 1 22.9477 10.2869 48.2693
12667 1 24.5303 11.8695 49.8519
12668 1 22.9477 10.2869 51.4345
12669 1 24.5303 11.8695 53.0171
12670 1 22.9477 10.2869 54.5997
12671 1 24.5303 11.8695 56.1823
12672 1 22.9477 10.2869 57.7649
12673 1 24.5303 11.8695 59.3475
12674 1 22.9477 10.2869 60.9301
12675 1 24.5303 11.8695 62.5127
12676 1 22.9477 13.4521 38.7737
12677 1 24.5303 15.0347 40.3563
12678 1 22.9477 13.4521 41.9389
12679 1 24.5303 15.0347 43.5215
12680 1 22.9477 13.4521 45.1041
12681 1 24.5303 15.0347 46.6867
12682 1 22.9477 13.4521 48.2693
12683 1 24.5303 15.0347 49.8519
12684 1 22.9477 13.4521 51.4345
12685 1 24.5303 15.0347 53.0171
12686 1 22.9477 13.4521 54.5997
12687 1 24.5303 15.0347 56.1823
12688 1 22.9477 13.4521 57.7649
12689 1 24.5303 15.0347 59.3475
12690 1 22.9477 13.4521 60.9301
12691 1 24.5303 15.0347 62.5127
12692 1 22.9477 16.6173 38.7737
12693 1 24.5303 18.1999 40.3563
12694 1 22.9477 16.6173 41.9389
12695 1 24.5303 18.1999 43.5215
12696 1 22.9477 16.6173 45.1041
12697 1 24.5303 18.1999 46.6867
12698 1 22.9477 16.6173 48.2693
12699 1 24.5303 18.1999 49.8519
12700 1 22.9477 16.6173 51.4345
12701 1 24.5303 18.1999 53.0171
12702 1 22.9477 16.6173 54.5997
12703 1 24.5303 18.1999 56.1823
12704 1 22.9477 16.6173 57.7649
12705 1 24.5303 18.1999 59.3475
12706 1 22.9477 16.6173 60.9301
12707 1 24.5303 18.1999 62.5127
12708 1 22.9477 19.7825 38.7737
12709 1 24.5303 21.3651 40.3563
12710 1 22.9477 19.7825 41.9389
12711 1 24.5303 21.3651 43.5215
12712 1 22.9477 19.7825 45.1041
12713 1 24.5303 21.3651 46.6867
12714 1 22.9477 19.7825 48.2693
12715 1 24.5303 21.3651 49.8519
12716 1 22.9477 19.7825 51.4345
12717 1 24.5303 21.3651 53.0171
12718 1 22.9477 19.7825 54.5997
12719 1 24.5303 21.3651 56.1823
12720 1 22.9477 19.7825 57.7649
12721 1 24.5303 21.3651 59.3475
12722 1 22.9477 19.7825 60.9301
12723 1 24.5303 21.3651 62.5127
12724 1 22.9477 22.9477 38.7737
12725 1 24.5303 24.5303 40.3563
12726 1 22.9477 22.9477 41.9389
12727 1 24.5303 24.5303 43.5215
12728 1 22.9477 22.9477 45.1041
12729 1 24.5303 24.5303 46.6867
12730 1 22.9477 22.9477 48.2693
12731 1 24.5303 24.5303 49.8519
12732 1 22.9477 22.9477 51.4345
12733 1 24.5303 24.5303 53.0171
12734 1 22.9477 22.9477 54.5997
12735 1 24.5303 24.5303 56.1823
12736 1 22.9477 22.9477 57.7649
12737 1 24.5303 24.5303 59.3475
12738 1 22.9477 22.9477 60.9301
12739 1 24.5303 24.5303 62.5127
12740 1 22.9477 26.1129 38.7737
12741 1 24.5303 27.6955 40.3563
12742 1 22.9477 26.1129 41.9389
12743 1 24.5303 27.6955 43.5215
12744 1 22.9477 26.1129 45.1041
12745 1 24.5303 27.6955 46.6867
12746 1 22.9477 26.1129 48.2693
12747 1 24.5303 27.6955 49.8519
12748 1 22.9477 26.1129 51.4345
12749 1 24.5303 27.6955 53.0171
12750 1 22.9477 26.1129 54.5997
12751 1 24.5303 27.6955 56.1823
12752 1 22.9477 26.1129 57.7649
12753 1 24.5303 27.6955 59.3475
12754 1 22.9477 26.1129 60.9301
12755 1 24.5303 27.6955 62.5127
12756 1 22.9477 29.2781 38.7737
12757 1 24.5303 30.8607 40.3563
12758 1 22.9477 29.2781 41.9389
12759 1 24.5303 30.8607 43.5215
12760 1 22.9477 29.2781 45.1041
12761 1 24.5303 30.8607 46.6867
12762 1 22.9477 29.2781 48.2693
12763 1 24.5303 30.8607 49.8519
12764 1 22.9477 29.2781 51.4345
12765 1 24.5303 30.8607 53.0171
12766 1 22.9477 29.2781 54.5997
12767 1 24.5303 30.8607 56.1823
12768 1 22.9477 29.2781 57.7649
12769 1 24.5303 30.8607 59.3475
12770 1 22.9477 29.2781 60.9301
12771 1 24.5303 30.8607 62.5127
12772 1 22.9477 32.4433 38.7737
12773 1 24.5303 34.0259 40.3563
12774 1 22.9477 32.4433 41.9389
12775 1 24.5303 34.0259 43.5215
12776 1 22.9477 32.4433 45.1041
12777 1 24.5303 34.0259 46.6867
12778 1 22.9477 32.4433 48.2693
12779 1 24.5303 34.0259 49.8519
12780 1 22.9477 32.4433 51.4345
12781 1 24.5303 34.0259 53.0171
12782 1 22.9477 32.4433 54.5997
12783 1 24.5303 34.0259 56.1823
12784 1 22.9477 32.4433 57.7649
12785 1 24.5303 34.0259 59.3475
12786 1 22.9477 32.4433 60.9301
12787 1 24.5303 34.0259 62.5127
12788 1 22.9477 35.6085 38.7737
12789 1 24.5303 37.1911 40.3563
12790 1 22.9477 35.6085 41.9389
12791 1 24.5303 37.1911 43.5215
12792 1 22.9477 35.6085 45.1041
12793 1 24.5303 37.1911 46.6867
12794 1 22.9477 35.6085 48.2693
12795 1 24.5303 37.1911 49.8519
12796 1 22.9477 35.6085 51.4345
12797 1 24.5303 37.1911 53.0171
12798 1 22.9477 35.6085 54.5997
12799 1 24.5303 37.1911 56.1823
12800 1 22.9477 35.6085 57.7649
12801 1 24.5303 37.1911 59.3475
12802 1 22.9477 35.6085 60.9301
12803 1 24.5303 37.1911 62.5127
12804 1 22.9477 38.7737 38.7737
12805 1 24.5303 40.3563 40.3563
12806 1 22.9477 38.7737 41.9389
12807 1 24.5303 40.3563 43.5215
12808 1 22.9477 38.7737 45.1041
12809 1 24.5303 40.3563 46.6867
12810 1 22.9477 38.7737 48.2693
12811 1 24.5303 40.3563 49.8519
12812 1 22.9477 38.7737 51.4345
12813 1 24.5303 40.3563 53.0171
12814 1 22.9477 38.7737 54.5997
12815 1 24.5303 40.3563 56.1823
12816 1 22.9477 38.7737 57.7649
12817 1 24.5303 40.3563 59.3475
12818 1 22.9477 38.7737 60.9301
12819 1 24.5303 40.3563 62.5127
12820 1 22.9477 41.9389 38.7737
12821 1 24.5303 43.5215 40.3563
12822 1 22.9477 41.9389 41.9389
12823 1 24.5303 43.5215 43.5215
12824 1 22.9477 41.9389 45.1041
12825 1 24.5303 43.5215 46.6867
12826 1 22.9477 41.9389 48.2693
12827 1 24.5303 43.5215 49.8519
12828 1 22.9477 41.9389 51.4345
12829 1 24.5303 43.5215 53.0171
12830 1 22.9477 41.9389 54.5997
12831 1 24.5303 43.5215 56.1823
12832 1 22.9477 41.9389 57.7649
12833 1 24.5303 43.5215 59.3475
12834 1 22.9477 41.9389 60.9301
12835 1 24.5303 43.5215 62.5127
12836 1 22.9477 45.1041 38.7737
12837 1 24.5303 46.6867 40.3563
12838 1 22.9477 45.1041 41.9389
12839 1 24.5303 46.6867 43.5215
12840 1 22.9477 45.1041 45.1041
12841 1 24.5303 46.6867 46.6867
12842 1 22.9477 45.1041 48.2693
12843 1 24.5303 46.6867 49.8519
12844 1 22.9477 45.1041 51.4345
12845 1 24.5303 46.6867 53.0171
12846 1 22.9477 45.1041 54.5997
12847 1 24.5303 46.6867 56.1823
12848 1 22.9477 45.1041 57.7649
12849 1 24.5303 46.6867 59.3475
12850 1 22.9477 45.1041 60.9301
12851 1 24.5303 46.6867 62.5127
12852 1 22.9477 48.2693 38.7737
12853 1 24.5303 49.8519 40.3563
12854 1 22.9477 48.2693 41.9389
12855 1 24.5303 49.8519 43.5215
12856 1 22.9477 48.2693 45.1041
12857 1 24.5303 49.8519 46.6867
12858 1 22.9477 48.2693 48.2693
12859 1 24.5303 49.8519 49.8519
12860 1 22.9477 48.2693 51.4345
12861 1 24.5303 49.8519 53.0171
12862 1 22.9477 48.2693 54.5997
12863 1 24.5303 49.8519 56.1823
12864 1 22.9477 48.2693 57.7649
12865 1 24.5303 49.8519 59.3475
12866 1 22.9477 48.2693 60.9301
12867 1 24.5303 49.8519 62.5127
12868 1 22.9477 51.4345 38.7737
12869 1 24.5303 53.0171 40.3563
12870 1 22.9477 51.4345 41.9389
12871 1 24.5303 53.0171 43.5215
12872 1 22.9477 51.4345 45.1041
12873 1 24.5303 53.0171 46.6867
12874 1 22.9477 51.4345 48.2693
12875 1 24.5303 53.0171 49.8519
12876 1 22.9477 51.4345 51.4345
12877 1 24.5303 53.0171 53.0171
12878 1 22.9477 51.4345 54.5997
12879 1 24.5303 53.0171 56.1823
12880 1 22.9477 51.4345 57.7649
12881 1 24.5303 53.0171 59.3475
12882 1 22.9477 51.4345 60.9301
12883 1 24.5303 53.0171 62.5127
12884 1 22.9477 54.5997 38.7737
12885 1 24.5303 56.1823 40.3563
12886 1 22.9477 54.5997 41.9389
12887 1 24.5303 56.1823 43.5215
12888 1 22.9477 54.5997 45.1041
12889 1 24.5303 56.1823 46.6867
12890 1 22.9477 54.5997 48.2693
12891 1 24.5303 56.1823 49.8519
12892 1 22.9477 54.5997 51.4345
12893 1 24.5303 56.1823 53.0171
12894 1 22.9477 54.5997 54.5997
12895 1 24.5303 56.1823 56.1823
12896 1 22.9477 54.5997 57.7649
12897 1 24.5303 56.1823 59.3475
12898 1 22.9477 54.5997 60.9301
12899 1 24.5303 56.1823 62.5127
12900 1 22.9477 57.7649 38.7737
12901 1 24.5303 59.3475 40.3563
12902 1 22.9477 57.7649 41.9389
12903 1 24.5303 59.3475 43.5215
12904 1 22.9477 57.7649 45.1041
12905 1 24.5303 59.3475 46.6867
12906 1 22.9477 57.7649 48.2693
12907 1 24.5303 59.3475 49.8519
12908 1 22.9477 57.7649 51.4345
12909 1 24.5303 59.3475 53.0171
12910 1 22.9477 57.7649 54.5997
12911 1 24.5303 59.3475 56.1823
12912 1 22.9477 57.7649 57.7649
12913 1 24.5303 59.3475 59.3475
12914 1 22.9477 57.7649 60.9301
12915 1 24.5303 59.3475 62.5127
12916 1 22.9477 60.9301 38.7737
12917 1 24.5303 62.5127 40.3563
12918 1 22.9477 60.9301 41.9389
12919 1 24.5303 62.5127 43.5215
12920 1 22.9477 60.9301 45.1041
12921 1 24.5303 62.5127 46.6867
12922 1 22.9477 60.9301 48.2693
12923 1 24.5303 62.5127 49.8519
12924 1 22.9477 60.9301 51.4345
12925 1 24.5303 62.5127 53.0171
12926 1 22.9477 60.9301 54.5997
12927 1 24.5303 62.5127 56.1823
12928 1 22.9477 60.9301 57.7649
12929 1 24.5303 62.5127 59.3475
12930 1 22.9477 60.9301 60.9301
12931 1 24.5303 62.5127 62.5127
12932 1 26.1129 0.7913 38.7737
12933 1 27.6955 2.3739 40.3563
12934 1 26.1129 0.7913 41.9389
12935 1 27.6955 2.3739 43.5215
12936 1 26.1129 0.7913 45.1041
12937 1 27.6955 2.3739 46.6867
12938 1 26.1129 0.7913 48.2693
12939 1 27.6955 2.3739 49.8519
12940 1 26.1129 0.7913 51.4345
12941 1 27.6955 2.3739 53.0171
12942 1 26.1129 0.7913 54.5997
12943 1 27.6955 2.3739 56.1823
12944 1 26.1129 0.7913 57.7649
12945 1 27.6955 2.3739 59.3475
12946 1 26.1129 0.7913 60.9301
12947 1 27.6955 2.3739 62.5127
12948 1 26.1129 3.9565 38.7737
12949 1 27.6955 5.5391 40.3563
12950 1 26.1129 3.9565 41.9389
12951 1 27.6955 5.5391 43.5215
12952 1 26.1129 3.9565 45.1041
12953 1 27.6955 5.5391 46.6867
12954 1 26.1129 3.9565 48.2693
12955 1 27.6955 5.5391 49.8519
12956 1 26.1129 3.9565 51.4345
12957 1 27.6955 5.5391 53.0171
12958 1 26.1129 3.9565 54.5997
12959 1 27.6955 5.5391 56.1823
12960 1 26.1129 3.9565 57.7649
12961 1 27.6955 5.5391 59.3475
12962 1 26.1129 3.9565 60.9301
12963 1 27.6955 5.5391 62.5127
12964 1 26.1129 7.1217 38.7737
12965 1 27.6955 8.7043 40.3563
12966 1 26.1129 7.1217 41.9389
12967 1 27.6955 8.7043 43.5215
12968 1 26.1129 7.1217 45.1041
12969 1 27.6955 8.7043 46.6867
12970 1 26.1129 7.1217 48.2693
12971 1 27.6955 8.7043 49.8519
12972 1 26.1129 7.1217 51.4345
12973 1 27.6955 8.7043 53.0171
12974 1 26.1129 7.1217 54.5997
12975 1 27.6955 8.7043 56.1823
12976 1 26.1129 7.1217 57.7649
12977 1 27.6955 8.7043 59.3475
12978 1 26.1129 7.1217 60.9301
12979 1 27.6955 8.7043 62.5127
12980 1 26.1129 10.2869 38.7737
12981 1 27.6955 11.8695 40.3563
12982 1 26.1129 10.2869 41.9389
12983 1 27.6955 11.8695 43.5215
12984 1 26.1129 10.2869 45.1041
12985 1 27.6955 11.8695 46.6867
12986 1 26.1129 10.2869 48.2693
12987 1 27.6955 11.8695 49.8519
12988 1 26.1129 10.2869 51.4345
12989 1 27.6955 11.8695 53.0171
12990 1 26.1129 10.2869 54.5997
12991 1 27.6955 11.8695 56.1823
12992 1 26.1129 10.2869 57.7649
12993 1 27.6955 11.8695 59.3475
12994 1 26.1129 10.2869 60.9301
12995 1 27.6955 11.8695 62.5127
12996 1 26.1129 13.4521 38.7737
12997 1 27.6955 15.0347 40.3563
12998 1 26.1129 13.4521 41.9389
12999 1 27.6955 15.0347 43.5215
13000 1 26.1129 13.4521 45.1041
13001 1 27.6955 15.0347 46.6867
13002 1 26.1129 13.4521 48.2693
13003 1 27.6955 15.0347 49.8519
13004 1 26.1129 13.4521 51.4345
13005 1 27.6955 15.0347 53.0171
13006 1 26.1129 13.4521 54.5997
13007 1 27.6955 15.0347 56.1823
13008 1 26.1129 13.4521 57.7649
13009 1 27.6955 15.0347 59.3475
13010 1 26.1129 13.4521 60.9301
13011 1 27.6955 15.0347 62.5127
13012 1 26.1129 16.6173 38.7737
13013 1 27.6955 18.1999 40.3563
13014 1 26.1129 16.6173 41.9389
13015 1 27.6955 18.1999 43.5215
13016 1 26.1129 16.6173 45.1041
13017 1 27.6955 18.1999 46.6867
13018 1 26.1129 16.6173 48.2693
13019 1 27.6955 18.1999 49.8519
13020 1 26.1129 16.6173 51.4345
13021 1 27.6955 18.1999 53.0171
13022 1 26.1129 16.6173 54.5997
13023 1 27.6955 18.1999 56.1823
13024 1 26.1129 16.6173 57.7649
13025 1 27.6955 18.1999 59.3475
13026 1 26.1129 16.6173 60.9301
13027 1 27.6955 18.1999 62.5127
13028 1 26.1129 19.7825 38.7737
13029 1 27.6955 21.3651 40.3563
13030 1 26.1129 19.7825 41.9389
13031 1 27.6955 21.3651 43.5215
13032 1 26.1129 19.7825 45.1041
13033 1 27.6955 21.3651 46.6867
13034 1 26.1129 19.7825 48.2693
13035 1 27.6955 21.3651 49.8519
13036 1 26.1129 19.7825 51.4345
13037 1 27.6955 21.3651 53.0171
13038 1 26.1129 19.7825 54.5997
13039 1 27.6955 21.3651 56.1823
13040 1 26.1129 19.7825 57.7649
13041 1 27.6955 21.3651 59.3475
13042 1 26.1129 19.7825 60.9301
13043 1 27.6955 21.3651 62.5127
13044 1 26.1129 22.9477 38.7737
13045 1 27.6955 24.5303 40.3563
13046 1 26.1129 22.9477 41.9389
13047 1 27.6955 24.5303 43.5215
13048 1 26.1129 22.9477 45.1041
13049 1 27.6955 24.5303 46.6867
13050 1 26.1129 22.9477 48.2693
13051 1 27.6955 24.5303 49.8519
13052 1 26.1129 22.9477 51.4345
13053 1 27.6955 24.5303 53.0171
13054 1 26.1129 22.9477 54.5997
13055 1 27.6955 24.5303 56.1823
13056 1 26.1129 22.9477 57.7649
13057 1 27.6955 24.5303 59.3475
13058 1 26.1129 22.9477 60.9301
13059 1 27.6955 24.5303 62.5127
13060 1 26.1129 26.1129 38.7737
13061 1 27.6955 27.6955 40.3563
13062 1 26.1129 26.1129 41.9389
13063 1 27.6955 27.6955 43.5215
13064 1 26.1129 26.1129 45.1041
13065 1 27.6955 27.6955 46.6867
13066 1 26.1129 26.1129 48.2693
13067 1 27.6955 27.6955 49.8519
13068 1 26.1129 26.1129 51.4345
13069 1 27.6955 27.6955 53.0171
13070 1 26.1129 26.1129 54.5997
13071 1 27.6955 27.6955 56.1823
13072 1 26.1129 26.1129 57.7649
13073 1 27.6955 27.6955 59.3475
13074 1 26.1129 26.1129 60.9301
13075 1 27.6955 27.6955 62.5127
13076 1 26.1129 29.2781 38.7737
13077 1 27.6955 30.8607 40.3563
13078 1 26.1129 29.2781 41.9389
13079 1 27.6955 30.8607 43.5215
13080 1 26.1129 29.2781 45.1041
13081 1 27.6955 30.8607 46.6867
13082 1 26.1129 29.2781 48.2693
13083 1 27.6955 30.8607 49.8519
13084 1 26.1129 29.2781 51.4345
13085 1 27.6955 30.8607 53.0171
13086 1 26.1129 29.2781 54.5997
13087 1 27.6955 30.8607 56.1823
13088 1 26.1129 29.2781 57.7649
13089 1 27.6955 30.8607 59.3475
13090 1 26.1129 29.2781 60.9301
13091 1 27.6955 30.8607 62.5127
13092 1 26.1129 32.4433 38.7737
13093 1 27.6955 34.0259 40.3563
13094 1 26.1129 32.4433 41.9389
13095 1 27.6955 34.0259 43.5215
13096 1 26.1129 32.4433 45.1041
13097 1 27.6955 34.0259 46.6867
13098 1 26.1129 32.4433 48.2693
13099 1 27.6955 34.0259 49.8519
13100 1 26.1129 32.4433 51.4345
13101 1 27.6955 34.0259 53.0171
13102 1 26.1129 32.4433 54.5997
13103 1 27.6955 34.0259 56.1823
13104 1 26.1129 32.4433 57.7649
13105 1 27.6955 34.0259 59.3475
13106 1 26.1129 32.4433 60.9301
13107 1 27.6955 34.0259 62.5127
13108 1 26.1129 35.6085 38.7737
13109 1 27.6955 37.1911 40.3563
13110 1 26.1129 35.6085 41.9389
13111 1 27.6955 37.1911 43.5215
13112 1 26.1129 35.6085 45.1041
13113 1 27.6955 37.1911 46.6867
13114 1 26.1129 35.6085 48.2693
13115 1 27.6955 37.1911 49.8519
13116 1 26.1129 35.6085 51.4345
13117 1 27.6955 37.1911 53.0171
13118 1 26.1129 35.6085 54.5997
13119 1 27.6955 37.1911 56.1823
13120 1 26.1129 35.6085 57.7649
13121 1 27.6955 37.1911 59.3475
13122 1 26.1129 35.6085 60.9301
13123 1 27.6955 37.1911 62.5127
13124 1 26.1129 38.7737 38.7737
13125 1 27.6955 40.3563 40.3563
13126 1 26.1129 38.7737 41.9389
13127 1 27.6955 40.3563 43.5215
13128 1 26.1129 38.7737 45.1041
13129 1 27.6955 40.3563 46.6867
13130 1 26.1129 38.7737 48.2693
13131 1 27.6955 40.3563 49.8519
13132 1 26.1129 38.7737 51.4345
13133 1 27.6955 40.3563 53.0171
13134 1 26.1129 38.7737 54.5997
13135 1 27.6955 40.3563 56.1823
13136 1 26.1129 38.7737 57.7649
13137 1 27.6955 40.3563 59.3475
13138 1 26.1129 38.7737 60.9301
13139 1 27.6955 40.3563 62.5127
13140 1 26.1129 41.9389 38.7737
13141 1 27.6955 43.5215 40.3563
13142 1 26.1129 41.9389 41.9389
13143 1 27.6955 43.5215 43.5215
13144 1 26.1129 41.9389 45.1041
13145 1 27.6955 43.5215 46.6867
13146 1 26.1129 41.9389 48.2693
13147 1 27.6955 43.5215 49.8519
13148 1 26.1129 41.9389 51.4345
13149 1 27.6955 43.5215 53.0171
13150 1 26.1129 41.9389 54.5997
13151 1 27.6955 43.5215 56.1823
13152 1 26.1129 41.9389 57.7649
13153 1 27.6955 43.5215 59.3475
13154 1 26.1129 41.9389 60.9301
13155 1 27.6955 43.5215 62.5127
13156 1 26.1129 45.1041 38.7737
13157 1 27.6955 46.6867 40.3563
13158 1 26.1129 45.1041 41.9389
13159 1 27.6955 46.6867 43.5215
13160 1 26.1129 45.1041 45.1041
13161 1 27.6955 46.6867 46.6867
13162 1 26.1129 45.1041 48.2693
13163 1 27.6955 46.6867 49.8519
13164 1 26.1129 45.1041 51.4345
13165 1 27.6955 46.6867 53.0171
13166 1 26.1129 45.1041 54.5997
13167 1 27.6955 46.6867 56.1823
13168 1 26.1129 45.1041 57.7649
13169 1 27.6955 46.6867 59.3475
13170 1 26.1129 45.1041 60.9301
13171 1 27.6955 46.6867 62.5127
13172 1 26.1129 48.2693 38.7737
13173 1 27.6955 49.8519 40.3563
13174 1 26.1129 48.2693 41.9389
13175 1 27.6955 49.8519 43.5215
13176 1 26.1129 48.2693 45.1041
13177 1 27.6955 49.8519 46.6867
13178 1 26.1129 48.2693 48.2693
13179 1 27.6955 49.8519 49.8519
13180 1 26.1129 48.2693 51.4345
13181 1 27.6955 49.8519 53.0171
13182 1 26.1129 48.2693 54.5997
13183 1 27.6955 49.8519 56.1823
13184 1 26.1129 48.2693 57.7649
13185 1 27.6955 49.8519 59.3475
13186 1 26.1129 48.2693 60.9301
13187 1 27.6955 49.8519 62.5127
13188 1 26.1129 51.4345 38.7737
13189 1 27.6955 53.0171 40.3563
13190 1 26.1129 51.4345 41.9389
13191 1 27.6955 53.0171 43.5215
13192 1 26.1129 51.4345 45.1041
13193 1 27.6955 53.0171 46.6867
13194 1 26.1129 51.4345 48.2693
13195 1 27.6955 53.0171 49.8519
13196 1 26.1129 51.4345 51.4345
13197 1 27.6955 53.0171 53.0171
13198 1 26.1129 51.4345 54.5997
13199 1 27.6955 53.0171 56.1823
13200 1 26.1129 51.4345 57.7649
13201 1 27.6955 53.0171 59.3475
13202 1 26.1129 51.4345 60.9301
13203 1 27.6955 53.0171 62.5127
13204 1 26.1129 54.5997 38.7737
13205 1 27.6955 56.1823 40.3563
13206 1 26.1129 54.5997 41.9389
13207 1 27.6955 56.1823 43.5215
13208 1 26.1129 54.5997 45.1041
13209 1 27.6955 56.1823 46.6867
13210 1 26.1129 54.5997 48.2693
13211 1 27.6955 56.1823 49.8519
13212 1 26.1129 54.5997 51.4345
13213 1 27.6955 56.1823 53.0171
13214 1 26.1129 54.5997 54.5997
13215 1 27.6955 56.1823 56.1823
13216 1 26.1129 54.5997 57.7649
13217 1 27.6955 56.1823 59.3475
13218 1 26.1129 54.5997 60.9301
13219 1 27.6955 56.1823 62.5127
13220 1 26.1129 57.7649 38.7737
13221 1 27.6955 59.3475 40.3563
13222 1 26.1129 57.7649 41.9389
13223 1 27.6955 59.3475 43.5215
13224 1 26.1129 57.7649 45.1041
13225 1 27.6955 59.3475 46.6867
13226 1 26.1129 57.7649 48.2693
13227 1 27.6955 59.3475 49.8519
13228 1 26.1129 57.7649 51.4345
13229 1 27.6955 59.3475 53.0171
13230 1 26.1129 57.7649 54.5997
13231 1 27.6955 59.3475 56.1823
13232 1 26.1129 57.7649 57.7649
13233 1 27.6955 59.3475 59.3475
13234 1 26.1129 57.7649 60.9301
13235 1 27.6955 59.3475 62.5127
13236 1 26.1129 60.9301 38.7737
13237 1 27.6955 62.5127 40.3563
13238 1 26.1129 60.9301 41.9389
13239 1 27.6955 62.5127 43.5215
13240 1 26.1129 60.9301 45.1041
13241 1 27.6955 62.5127 46.6867
13242 1 26.1129 60.9301 48.2693
13243 1 27.6955 62.5127 49.8519
13244 1 26.1129 60.9301 51.4345
13245 1 27.6955 62.5127 53.0171
13246 1 26.1129 60.9301 54.5997
13247 1 27.6955 62.5127 56.1823
13248 1 26.1129 60.9301 57.7649
13249 1 27.6955 62.5127 59.3475
13250 1 26.1129 60.9301 60.9301
13251 1 27.6955 62.5127 62.5127
13252 1 29.2781 0.7913 38.7737
13253 1 30.8607 2.3739 40.3563
13254 1 29.2781 0.7913 41.9389
13255 1 30.8607 2.3739 43.5215
13256 1 29.2781 0.7913 45.1041
13257 1 30.8607 2.3739 46.6867
13258 1 29.2781 0.7913 48.2693
13259 1 30.8607 2.3739 49.8519
13260 1 29.2781 0.7913 51.4345
13261 1 30.8607 2.3739 53.0171
13262 1 29.2781 0.7913 54.5997
13263 1 30.8607 2.3739 56.1823
13264 1 29.2781 0.7913 57.7649
13265 1 30.8607 2.3739 59.3475
13266 1 29.2781 0.7913 60.9301
13267 1 30.8607 2.3739 62.5127
13268 1 29.2781 3.9565 38.7737
13269 1 30.8607 5.5391 40.3563
13270 1 29.2781 3.9565 41.9389
13271 1 30.8607 5.5391 43.5215
13272 1 29.2781 3.9565 45.1041
13273 1 30.8607 5.5391 46.6867
13274 1 29.2781 3.9565 48.2693
13275 1 30.8607 5.5391 49.8519
13276 1 29.2781 3.9565 51.4345
13277 1 30.8607 5.5391 53.0171
13278 1 29.2781 3.9565 54.5997
13279 1 30.8607 5.5391 56.1823
13280 1 29.2781 3.9565 57.7649
13281 1 30.8607 5.5391 59.3475
13282 1 29.2781 3.9565 60.9301
13283 1 30.8607 5.5391 62.5127
13284 1 29.2781 7.1217 38.7737
13285 1 30.8607 8.7043 40.3563
13286 1 29.2781 7.1217 41.9389
13287 1 30.8607 8.7043 43.5215
13288 1 29.2781 7.1217 45.1041
13289 1 30.8607 8.7043 46.6867
13290 1 29.2781 7.1217 48.2693
13291 1 30.8607 8.7043 49.8519
13292 1 29.2781 7.1217 51.4345
13293 1 30.8607 8.7043 53.0171
13294 1 29.2781 7.1217 54.5997
13295 1 30.8607 8.7043 56.1823
13296 1 29.2781 7.1217 57.7649
13297 1 30.8607 8.7043 59.3475
13298 1 29.2781 7.1217 60.9301
13299 1 30.8607 8.7043 62.5127
13300 1 29.2781 10.2869 38.7737
13301 1 30.8607 11.8695 40.3563
13302 1 29.2781 10.2869 41.9389
13303 1 30.8607 11.8695 43.5215
13304 1 29.2781 10.2869 45.1041
13305 1 30.8607 11.8695 46.6867
13306 1 29.2781 10.2869 48.2693
13307 1 30.8607 11.8695 49.8519
13308 1 29.2781 10.2869 51.4345
13309 1 30.8607 11.8695 53.0171
13310 1 29.2781 10.2869 54.5997
13311 1 30.8607 11.8695 56.1823
13312 1 29.2781 10.2869 57.7649
13313 1 30.8607 11.8695 59.3475
13314 1 29.2781 10.2869 60.9301
13315 1 30.8607 11.8695 62.5127
13316 1 29.2781 13.4521 38.7737
13317 1 30.8607 15.0347 40.3563
13318 1 29.2781 13.4521 41.9389
13319 1 30.8607 15.0347 43.5215
13320 1 29.2781 13.4521 45.1041
13321 1 30.8607 15.0347 46.6867
13322 1 29.2781 13.4521 48.2693
13323 1 30.8607 15.0347 49.8519
13324 1 29.2781 13.4521 51.4345
13325 1 30.8607 15.0347 53.0171
13326 1 29.2781 13.4521 54.5997
13327 1 30.8607 15.0347 56.1823
13328 1 29.2781 13.4521 57.7649
13329 1 30.8607 15.0347 59.3475
13330 1 29.2781 13.4521 60.9301
13331 1 30.8607 15.0347 62.5127
13332 1 29.2781 16.6173 38.7737
13333 1 30.8607 18.1999 40.3563
13334 1 29.2781 16.6173 41.9389
13335 1 30.8607 18.1999 43.5215
13336 1 29.2781 16.6173 45.1041
13337 1 30.8607 18.1999 46.6867
13338 1 29.2781 16.6173 48.2693
13339 1 30.8607 18.1999 49.8519
13340 1 29.2781 16.6173 51.4345
13341 1 30.8607 18.1999 53.0171
13342 1 29.2781 16.6173 54.5997
13343 1 30.8607 18.1999 56.1823
13344 1 29.2781 16.6173 57.7649
13345 1 30.8607 18.1999 59.3475
13346 1 29.2781 16.6173 60.9301
13347 1 30.8607 18.1999 62.5127
13348 1 29.2781 19.7825 38.7737
13349 1 30.8607 21.3651 40.3563
13350 1 29.2781 19.7825 41.9389
13351 1 30.8607 21.3651 43.5215
13352 1 29.2781 19.7825 45.1041
13353 1 30.8607 21.3651 46.6867
13354 1 29.2781 19.7825 48.2693
13355 1 30.8607 21.3651 49.8519
13356 1 29.2781 19.7825 51.4345
13357 1 30.8607 21.3651 53.0171
13358 1 29.2781 19.7825 54.5997
13359 1 30.8607 21.3651 56.1823
13360 1 29.2781 19.7825 57.7649
13361 1 30.8607 21.3651 59.3475
13362 1 29.2781 19.7825 60.9301
13363 1 30.8607 21.3651 62.5127
13364 1 29.2781 22.9477 38.7737
13365 1 30.8607 24.5303 40.3563
13366 1 29.2781 22.9477 41.9389
13367 1 30.8607 24.5303 43.5215
13368 1 29.2781 22.9477 45.1041
13369 1 30.8607 24.5303 46.6867
13370 1 29.2781 22.9477 48.2693
13371 1 30.8607 24.5303 49.8519
13372 1 29.2781 22.9477 51.4345
13373 1 30.8607 24.5303 53.0171
13374 1 29.2781 22.9477 54.5997
13375 1 30.8607 24.5303 56.1823
13376 1 29.2781 22.9477 57.7649
13377 1 30.8607 24.5303 59.3475
13378 1 29.2781 22.9477 60.9301
13379 1 30.8607 24.5303 62.5127
13380 1 29.2781 26.1129 38.7737
13381 1 30.8607 27.6955 40.3563
13382 1 29.2781 26.1129 41.9389
13383 1 30.8607 27.6955 43.5215
13384 1 29.2781 26.1129 45.1041
13385 1 30.8607 27.6955 46.6867
13386 1 29.2781 26.1129 48.2693
13387 1 30.8607 27.6955 49.8519
13388 1 29.2781 26.1129 51.4345
13389 1 30.8607 27.6955 53.0171
13390 1 29.2781 26.1129 54.5997
13391 1 30.8607 27.6955 56.1823
13392 1 29.2781 26.1129 57.7649
13393 1 30.8607 27.6955 59.3475
13394 1 29.2781 26.1129 60.9301
13395 1 30.8607 27.6955 62.5127
13396 1 29.2781 29.2781 38.7737
13397 1 30.8607 30.8607 40.3563
13398 1 29.2781 29.2781 41.9389
13399 1 30.8607 30.8607 43.5215
13400 1 29.2781 29.2781 45.1041
13401 1 30.8607 30.8607 46.6867
13402 1 29.2781 29.2781 48.2693
13403 1 30.8607 30.8607 49.8519
13404 1 29.2781 29.2781 51.4345
13405 1 30.8607 30.8607 53.0171
13406 1 29.2781 29.2781 54.5997
13407 1 30.8607 30.8607 56.1823
13408 1 29.2781 29.2781 57.7649
13409 1 30.8607 30.8607 59.3475
13410 1 29.2781 29.2781 60.9301
13411 1 30.8607 30.8607 62.5127
13412 1 29.2781 32.4433 38.7737
13413 1 30.8607 34.0259 40.3563
13414 1 29.2781 32.4433 41.9389
13415 1 30.8607 34.0259 43.5215
13416 1 29.2781 32.4433 45.1041
13417 1 30.8607 34.0259 46.6867
13418 1 29.2781 32.4433 48.2693
13419 1 30.8607 34.0259 49.8519
13420 1 29.2781 32.4433 51.4345
13421 1 30.8607 34.0259 53.0171
13422 1 29.2781 32.4433 54.5997
13423 1 30.8607 34.0259 56.1823
13424 1 29.2781 32.4433 57.7649
13425 1 30.8607 34.0259 59.3475
13426 1 29.2781 32.4433 60.9301
13427 1 30.8607 34.0259 62.5127
13428 1 29.2781 35.6085 38.7737
13429 1 30.8607 37.1911 40.3563
13430 1 29.2781 35.6085 41.9389
13431 1 30.8607 37.1911 43.5215
13432 1 29.2781 35.6085 45.1041
13433 1 30.8607 37.1911 46.6867
13434 1 29.2781 35.6085 48.2693
13435 1 30.8607 37.1911 49.8519
13436 1 29.2781 35.6085 51.4345
13437 1 30.8607 37.1911 53.0171
13438 1 29.2781 35.6085 54.5997
13439 1 30.8607 37.1911 56.1823
13440 1 29.2781 35.6085 57.7649
13441 1 30.8607 37.1911 59.3475
13442 1 29.2781 35.6085 60.9301
13443 1 30.8607 37.1911 62.5127
13444 1 29.2781 38.7737 38.7737
13445 1 30.8607 40.3563 40.3563
13446 1 29.2781 38.7737 41.9389
13447 1 30.8607 40.3563 43.5215
13448 1 29.2781 38.7737 45.1041
13449 1 30.8607 40.3563 46.6867
13450 1 29.2781 38.7737 48.2693
13451 1 30.8607 40.3563 49.8519
13452 1 29.2781 38.7737 51.4345
13453 1 30.8607 40.3563 53.0171
13454 1 29.2781 38.7737 54.5997
13455 1 30.8607 40.3563 56.1823
13456 1 29.2781 38.7737 57.7649
13457 1 30.8607 40.3563 59.3475
13458 1 29.2781 38.7737 60.9301
13459 1 30.8607 40.3563 62.5127
13460 1 29.2781 41.9389 38.7737
13461 1 30.8607 43.5215 40.3563
13462 1 29.2781 41.9389 41.9389
13463 1 30.8607 43.5215 43.5215
13464 1 29.2781 41.9389 45.1041
13465 1 30.8607 43.5215 46.6867
13466 1 29.2781 41.9389 48.2693
13467 1 30.8607 43.5215 49.8519
13468 1 29.2781 41.9389 51.4345
13469 1 30.8607 43.5215 53.0171
13470 1 29.2781 41.9389 54.5997
13471 1 30.8607 43.5215 56.1823
13472 1 29.2781 41.9389 57.7649
13473 1 30.8607 43.5215 59.3475
13474 1 29.2781 41.9389 60.9301
13475 1 30.8607 43.5215 62.5127
13476 1 29.2781 45.1041 38.7737
13477 1 30.8607 46.6867 40.3563
13478 1 29.2781 45.1041 41.9389
13479 1 30.8607 46.6867 43.5215
13480 1 29.2781 45.1041 45.1041
13481 1 30.8607 46.6867 46.6867
13482 1 29.2781 45.1041 48.2693
13483 1 30.8607 46.6867 49.8519
13484 1 29.2781 45.1041 51.4345
13485 1 30.8607 46.6867 53.0171
13486 1 29.2781 45.1041 54.5997
13487 1 30.8607 46.6867 56.1823
13488 1 29.2781 45.1041 57.7649
13489 1 30.8607 46.6867 59.3475
13490 1 29.2781 45.1041 60.9301
13491 1 30.8607 46.6867 62.5127
13492 1 29.2781 48.2693 38.7737
13493 1 30.8607 49.8519 40.3563
13494 1 29.2781 48.2693 41.9389
13495 1 30.8607 49.8519 43.5215
13496 1 29.2781 48.2693 45.1041
13497 1 30.8607 49.8519 46.6867
13498 1 29.2781 48.2693 48.2693
13499 1 30.8607 49.8519 49.8519
13500 1 29.2781 48.2693 51.4345
13501 1 30.8607 49.8519 53.0171
13502 1 29.2781 48.2693 54.5997
13503 1 30.8607 49.8519 56.1823
13504 1 29.2781 48.2693 57.7649
13505 1 30.8607 49.8519 59.3475
13506 1 29.2781 48.2693 60.9301
13507 1 30.8607 49.8519 62.5127
13508 1 29.2781 51.4345 38.7737
13509 1 30.8607 53.0171 40.3563
13510 1 29.2781 51.4345 41.9389
13511 1 30.8607 53.0171 43.5215
13512 1 29.2781 51.4345 45.1041
13513 1 30.8607 53.0171 46.6867
13514 1 29.2781 51.4345 48.2693
13515 1 30.8607 53.0171 49.8519
13516 1 29.2781 51.4345 51.4345
13517 1 30.8607 53.0171 53.0171
13518 1 29.2781 51.4345 54.5997
13519 1 30.8607 53.0171 56.1823
13520 1 29.2781 51.4345 57.7649
13521 1 30.8607 53.0171 59.3475
13522 1 29.2781 51.4345 60.9301
13523 1 30.8607 53.0171 62.5127
13524 1 29.2781 54.5997 38.7737
13525 1 30.8607 56.1823 40.3563
13526 1 29.2781 54.5997 41.9389
13527 1 30.8607 56.1823 43.5215
13528 1 29.2781 54.5997 45.1041
13529 1 30.8607 56.1823 46.6867
13530 1 29.2781 54.5997 48.2693
13531 1 30.8607 56.1823 49.8519
13532 1 29.2781 54.5997 51.4345
13533 1 30.8607 56.1823 53.0171
13534 1 29.2781 54.5997 54.5997
13535 1 30.8607 56.1823 56.1823
13536 1 29.2781 54.5997 57.7649
13537 1 30.8607 56.1823 59.3475
13538 1 29.2781 54.5997 60.9301
13539 1 30.8607 56.1823 62.5127
13540 1 29.2781 57.7649 38.7737
13541 1 30.8607 59.3475 40.3563
13542 1 29.2781 57.7649 41.9389
13543 1 30.8607 59.3475 43.5215
13544 1 29.2781 57.7649 45.1041
13545 1 30.8607 59.3475 46.6867
13546 1 29.2781 57.7649 48.2693
13547 1 30.8607 59.3475 49.8519
13548 1 29.2781 57.7649 51.4345
13549 1 30.8607 59.3475 53.0171
13550 1 29.2781 57.7649 54.5997
13551 1 30.8607 59.3475 56.1823
13552 1 29.2781 57.7649 57.7649
13553 1 30.8607 59.3475 59.3475
13554 1 29.2781 57.7649 60.9301
13555 1 30.8607 59.3475 62.5127
13556 1 29.2781 60.9301 38.7737
13557 1 30.8607 62.5127 40.3563
13558 1 29.2781 60.9301 41.9389
13559 1 30.8607 62.5127 43.5215
13560 1 29.2781 60.9301 45.1041
13561 1 30.8607 62.5127 46.6867
13562 1 29.2781 60.9301 48.2693
13563 1 30.8607 62.5127 49.8519
13564 1 29.2781 60.9301 51.4345
13565 1 30.8607 62.5127 53.0171
13566 1 29.2781 60.9301 54.5997
13567 1 30.8607 62.5127 56.1823
13568 1 29.2781 60.9301 57.7649
13569 1 30.8607 62.5127 59.3475
13570 1 29.2781 60.9301 60.9301
13571 1 30.8607 62.5127 62.5127
13572 1 32.4433 0.7913 38.7737
13573 1 34.0259 2.3739 40.3563
13574 1 32.4433 0.7913 41.9389
13575 1 34.0259 2.3739 43.5215
13576 1 32.4433 0.7913 45.1041
13577 1 34.0259 2.3739 46.6867
13578 1 32.4433 0.7913 48.2693
13579 1 34.0259 2.3739 49.8519
13580 1 32.4433 0.7913 51.4345
13581 1 34.0259 2.3739 53.0171
13582 1 32.4433 0.7913 54.5997
13583 1 34.0259 2.3739 56.1823
13584 1 32.4433 0.7913 57.7649
13585 1 34.0259 2.3739 59.3475
13586 1 32.4433 0.7913 60.9301
13587 1 34.0259 2.3739 62.5127
13588 1 32.4433 3.9565 38.7737
13589 1 34.0259 5.5391 40.3563
13590 1 32.4433 3.9565 41.9389
13591 1 34.0259 5.5391 43.5215
13592 1 32.4433 3.9565 45.1041
13593 1 34.0259 5.5391 46.6867
13594 1 32.4433 3.9565 48.2693
13595 1 34.0259 5.5391 49.8519
13596 1 32.4433 3.9565 51.4345
13597 1 34.0259 5.5391 53.0171
13598 1 32.4433 3.9565 54.5997
13599 1 34.0259 5.5391 56.1823
13600 1 32.4433 3.9565 57.7649
13601 1 34.0259 5.5391 59.3475
13602 1 32.4433 3.9565 60.9301
13603 1 34.0259 5.5391 62.5127
13604 1 32.4433 7.1217 38.7737
13605 1 34.0259 8.7043 40.3563
13606 1 32.4433 7.1217 41.9389
13607 1 34.0259 8.7043 43.5215
13608 1 32.4433 7.1217 45.1041
13609 1 34.0259 8.7043 46.6867
13610 1 32.4433 7.1217 48.2693
13611 1 34.0259 8.7043 49.8519
13612 1 32.4433 7.1217 51.4345
13613 1 34.0259 8.7043 53.0171
13614 1 32.4433 7.1217 54.5997
13615 1 34.0259 8.7043 56.1823
13616 1 32.4433 7.1217 57.7649
13617 1 34.0259 8.7043 59.3475
13618 1 32.4433 7.1217 60.9301
13619 1 34.0259 8.7043 62.5127
13620 1 32.4433 10.2869 38.7737
13621 1 34.0259 11.8695 40.3563
13622 1 32.4433 10.2869 41.9389
13623 1 34.0259 11.8695 43.5215
13624 1 32.4433 10.2869 45.1041
13625 1 34.0259 11.8695 46.6867
13626 1 32.4433 10.2869 48.2693
13627 1 34.0259 11.8695 49.8519
13628 1 32.4433 10.2869 51.4345
13629 1 34.0259 11.8695 53.0171
13630 1 32.4433 10.2869 54.5997
13631 1 34.0259 11.8695 56.1823
13632 1 32.4433 10.2869 57.7649
13633 1 34.0259 11.8695 59.3475
13634 1 32.4433 10.2869 60.9301
13635 1 34.0259 11.8695 62.5127
13636 1 32.4433 13.4521 38.7737
13637 1 34.0259 15.0347 40.3563
13638 1 32.4433 13.4521 41.9389
13639 1 34.0259 15.0347 43.5215
13640 1 32.4433 13.4521 45.1041
13641 1 34.0259 15.0347 46.6867
13642 1 32.4433 13.4521 48.2693
13643 1 34.0259 15.0347 49.8519
13644 1 32.4433 13.4521 51.4345
13645 1 34.0259 15.0347 53.0171
13646 1 32.4433 13.4521 54.5997
13647 1 34.0259 15.0347 56.1823
13648 1 32.4433 13.4521 57.7649
13649 1 34.0259 15.0347 59.3475
13650 1 32.4433 13.4521 60.9301
13651 1 34.0259 15.0347 62.5127
13652 1 32.4433 16.6173 38.7737
13653 1 34.0259 18.1999 40.3563
13654 1 32.4433 16.6173 41.9389
13655 1 34.0259 18.1999 43.5215
13656 1 32.4433 16.6173 45.1041
13657 1 34.0259 18.1999 46.6867
13658 1 32.4433 16.6173 48.2693
13659 1 34.0259 18.1999 49.8519
13660 1 32.4433 16.6173 51.4345
13661 1 34.0259 18.1999 53.0171
13662 1 32.4433 16.6173 54.5997
13663 1 34.0259 18.1999 56.1823
13664 1 32.4433 16.6173 57.7649
13665 1 34.0259 18.1999 59.3475
13666 1 32.4433 16.6173 60.9301
13667 1 34.0259 18.1999 62.5127
13668 1 32.4433 19.7825 38.7737
13669 1 34.0259 21.3651 40.3563
13670 1 32.4433 19.7825 41.9389
13671 1 34.0259 21.3651 43.5215
13672 1 32.4433 19.7825 45.1041
13673 1 34.0259 21.3651 46.6867
13674 1 32.4433 19.7825 48.2693
13675 1 34.0259 21.3651 49.8519
13676 1 32.4433 19.7825 51.4345
13677 1 34.0259 21.3651 53.0171
13678 1 32.4433 19.7825 54.5997
13679 1 34.0259 21.3651 56.1823
13680 1 32.4433 19.7825 57.7649
13681 1 34.0259 21.3651 59.3475
13682 1 32.4433 19.7825 60.9301
13683 1 34.0259 21.3651 62.5127
13684 1 32.4433 22.9477 38.7737
13685 1 34.0259 24.5303 40.3563
13686 1 32.4433 22.9477 41.9389
13687 1 34.0259 24.5303 43.5215
13688 1 32.4433 22.9477 45.1041
13689 1 34.0259 24.5303 46.6867
13690 1 32.4433 22.9477 48.2693
13691 1 34.0259 24.5303 49.8519
13692 1 32.4433 22.9477 51.4345
13693 1 34.0259 24.5303 53.0171
13694 1 32.4433 22.9477 54.5997
13695 1 34.0259 24.5303 56.1823
13696 1 32.4433 22.9477 57.7649
13697 1 34.0259 24.5303 59.3475
13698 1 32.4433 22.9477 60.9301
13699 1 34.0259 24.5303 62.5127
13700 1 32.4433 26.1129 38.7737
13701 1 34.0259 27.6955 40.3563
13702 1 32.4433 26.1129 41.9389
13703 1 34.0259 27.6955 43.5215
13704 1 32.4433 26.1129 45.1041
13705 1 34.0259 27.6955 46.6867
13706 1 32.4433 26.1129 48.2693
13707 1 34.0259 27.6955 49.8519
13708 1 32.4433 26.1129 51.4345
13709 1 34.0259 27.6955 53.0171
13710 1 32.4433 26.1129 54.5997
13711 1 34.0259 27.6955 56.1823
13712 1 32.4433 26.1129 57.7649
13713 1 34.0259 27.6955 59.3475
13714 1 32.4433 26.1129 60.9301
13715 1 34.0259 27.6955 62.5127
13716 1 32.4433 29.2781 38.7737
13717 1 34.0259 30.8607 40.3563
13718 1 32.4433 29.2781 41.9389
13719 1 34.0259 30.8607 43.5215
13720 1 32.4433 29.2781 45.1041
13721 1 34.0259 30.8607 46.6867
13722 1 32.4433 29.2781 48.2693
13723 1 34.0259 30.8607 49.8519
13724 1 32.4433 29.2781 51.4345
13725 1 34.0259 30.8607 53.0171
13726 1 32.4433 29.2781 54.5997
13727 1 34.0259 30.8607 56.1823
13728 1 32.4433 29.2781 57.7649
13729 1 34.0259 30.8607 59.3475
13730 1 32.4433 29.2781 60.9301
13731 1 34.0259 30.8607 62.5127
13732 1 32.4433 32.4433 38.7737
13733 1 34.0259 34.0259 40.3563
13734 1 32.4433 32.4433 41.9389
13735 1 34.0259 34.0259 43.5215
13736 1 32.4433 32.4433 45.1041
13737 1 34.0259 34.0259 46.6867
13738 1 32.4433 32.4433 48.2693
13739 1 34.0259 34.0259 49.8519
13740 1 32.4433 32.4433 51.4345
13741 1 34.0259 34.0259 53.0171
13742 1 32.4433 32.4433 54.5997
13743 1 34.0259 34.0259 56.1823
13744 1 32.4433 32.4433 57.7649
13745 1 34.0259 34.0259 59.3475
13746 1 32.4433 32.4433 60.9301
13747 1 34.0259 34.0259 62.5127
13748 1 32.4433 35.6085 38.7737
13749 1 34.0259 37.1911 40.3563
13750 1 32.4433 35.6085 41.9389
13751 1 34.0259 37.1911 43.5215
13752 1 32.4433 35.6085 45.1041
13753 1 34.0259 37.1911 46.6867
13754 1 32.4433 35.6085 48.2693
13755 1 34.0259 37.1911 49.8519
13756 1 32.4433 35.6085 51.4345
13757 1 34.0259 37.1911 53.0171
13758 1 32.4433 35.6085 54.5997
13759 1 34.0259 37.1911 56.1823
13760 1 32.4433 35.6085 57.7649
13761 1 34.0259 37.1911 59.3475
13762 1 32.4433 35.6085 60.9301
13763 1 34.0259 37.1911 62.5127
13764 1 32.4433 38.7737 38.7737
13765 1 34.0259 40.3563 40.3563
13766 1 32.4433 38.7737 41.9389
13767 1 34.0259 40.3563 43.5215
13768 1 32.4433 38.7737 45.1041
13769 1 34.0259 40.3563 46.6867
13770 1 32.4433 38.7737 48.2693
13771 1 34.0259 40.3563 49.8519
13772 1 32.4433 38.7737 51.4345
13773 1 34.0259 40.3563 53.0171
13774 1 32.4433 38.7737 54.5997
13775 1 34.0259 40.3563 56.1823
13776 1 32.4433 38.7737 57.7649
13777 1 34.0259 40.3563 59.3475
13778 1 32.4433 38.7737 60.9301
13779 1 34.0259 40.3563 62.5127
13780 1 32.4433 41.9389 38.7737
13781 1 34.0259 43.5215 40.3563
13782 1 32.4433 41.9389 41.9389
13783 1 34.0259 43.5215 43.5215
13784 1 32.4433 41.9389 45.1041
13785 1 34.0259 43.5215 46.6867
13786 1 32.4433 41.9389 48.2693
13787 1 34.0259 43.5215 49.8519
13788 1 32.4433 41.9389 51.4345
13789 1 34.0259 43.5215 53.0171
13790 1 32.4433 41.9389 54.5997
13791 1 34.0259 43.5215 56.1823
13792 1 32.4433 41.9389 57.7649
13793 1 34.0259 43.5215 59.3475
13794 1 32.4433 41.9389 60.9301
13795 1 34.0259 43.5215 62.5127
13796 1 32.4433 45.1041 38.7737
13797 1 34.0259 46.6867 40.3563
13798 1 32.4433 45.1041 41.9389
13799 1 34.0259 46.6867 43.5215
13800 1 32.4433 45.1041 45.1041
13801 1 34.0259 46.6867 46.6867
13802 1 32.4433 45.1041 48.2693
13803 1 34.0259 46.6867 49.8519
13804 1 32.4433 45.1041 51.4345
13805 1 34.0259 46.6867 53.0171
13806 1 32.4433 45.1041 54.5997
13807 1 34.0259 46.6867 56.1823
13808 1 32.4433 45.1041 57.7649
13809 1 34.0259 46.6867 59.3475
13810 1 32.4433 45.1041 60.9301
13811 1 34.0259 46.6867 62.5127
13812 1 32.4433 48.2693 38.7737
13813 1 34.0259 49.8519 40.3563
13814 1 32.4433 48.2693 41.9389
13815 1 34.0259 49.8519 43.5215
13816 1 32.4433 48.2693 45.1041
13817 1 34.0259 49.8519 46.6867
13818 1 32.4433 48.2693 48.2693
13819 1 34.0259 49.8519 49.8519
13820 1 32.4433 48.2693 51.4345
13821 1 34.0259 49.8519 53.0171
13822 1 32.4433 48.2693 54.5997
13823 1 34.0259 49.8519 56.1823
13824 1 32.4433 48.2693 57.7649
13825 1 34.0259 49.8519 59.3475
13826 1 32.4433 48.2693 60.9301
13827 1 34.0259 49.8519 62.5127
13828 1 32.4433 51.4345 38.7737
13829 1 34.0259 53.0171 40.3563
13830 1 32.4433 51.4345 41.9389
13831 1 34.0259 53.0171 43.5215
13832 1 32.4433 51.4345 45.1041
13833 1 34.0259 53.0171 46.6867
13834 1 32.4433 51.4345 48.2693
13835 1 34.0259 53.0171 49.8519
13836 1 32.4433 51.4345 51.4345
13837 1 34.0259 53.0171 53.0171
13838 1 32.4433 51.4345 54.5997
13839 1 34.0259 53.0171 56.1823
13840 1 32.4433 51.4345 57.7649
13841 1 34.0259 53.0171 59.3475
13842 1 32.4433 51.4345 60.9301
13843 1 34.0259 53.0171 62.5127
13844 1 32.4433 54.5997 38.7737
13845 1 34.0259 56.1823 40.3563
13846 1 32.4433 54.5997 41.9389
13847 1 34.0259 56.1823 43.5215
13848 1 32.4433 54.5997 45.1041
13849 1 34.0259 56.1823 46.6867
13850 1 32.4433 54.5997 48.2693
13851 1 34.0259 56.1823 49.8519
13852 1 32.4433 54.5997 51.4345
13853 1 34.0259 56.1823 53.0171
13854 1 32.4433 54.5997 54.5997
13855 1 34.0259 56.1823 56.1823
13856 1 32.4433 54.5997 57.7649
13857 1 34.0259 56.1823 59.3475
13858 1 32.4433 54.5997 60.9301
13859 1 34.0259 56.1823 62.5127
13860 1 32.4433 57.7649 38.7737
13861 1 34.0259 59.3475 40.3563
13862 1 32.4433 57.7649 41.9389
13863 1 34.0259 59.3475 43.5215
13864 1 32.4433 57.7649 45.1041
13865 1 34.0259 59.3475 46.6867
13866 1 32.4433 57.7649 48.2693
13867 1 34.0259 59.3475 49.8519
13868 1 32.4433 57.7649 51.4345
13869 1 34.0259 59.3475 53.0171
13870 1 32.4433 57.7649 54.5997
13871 1 34.0259 59.3475 56.1823
13872 1 32.4433 57.7649 57.7649
13873 1 34.0259 59.3475 59.3475
13874 1 32.4433 57.7649 60.9301
13875 1 34.0259 59.3475 62.5127
13876 1 32.4433 60.9301 38.7737
13877 1 34.0259 62.5127 40.3563
13878 1 32.4433 60.9301 41.9389
13879 1 34.0259 62.5127 43.5215
13880 1 32.4433 60.9301 45.1041
13881 1 34.0259 62.5127 46.6867
13882 1 32.4433 60.9301 48.2693
13883 1 34.0259 62.5127 49.8519
13884 1 32.4433 60.9301 51.4345
13885 1 34.0259 62.5127 53.0171
13886 1 32.4433 60.9301 54.5997
13887 1 34.0259 62.5127 56.1823
13888 1 32.4433 60.9301 57.7649
13889 1 34.0259 62.5127 59.3475
13890 1 32.4433 60.9301 60.9301
13891 1 34.0259 62.5127 62.5127
13892 1 35.6085 0.7913 38.7737
13893 1 37.1911 2.3739 40.3563
13894 1 35.6085 0.7913 41.9389
13895 1 37.1911 2.3739 43.5215
13896 1 35.6085 0.7913 45.1041
13897 1 37.1911 2.3739 46.6867
13898 1 35.6085 0.7913 48.2693
13899 1 37.1911 2.3739 49.8519
13900 1 35.6085 0.7913 51.4345
13901 1 37.1911 2.3739 53.0171
13902 1 35.6085 0.7913 54.5997
13903 1 37.1911 2.3739 56.1823
13904 1 35.6085 0.7913 57.7649
13905 1 37.1911 2.3739 59.3475
13906 1 35.6085 0.7913 60.9301
13907 1 37.1911 2.3739 62.5127
13908 1 35.6085 3.9565 38.7737
13909 1 37.1911 5.5391 40.3563
13910 1 35.6085 3.9565 41.9389
13911 1 37.1911 5.5391 43.5215
13912 1 35.6085 3.9565 45.1041
13913 1 37.1911 5.5391 46.6867
13914 1 35.6085 3.9565 48.2693
13915 1 37.1911 5.5391 49.8519
13916 1 35.6085 3.9565 51.4345
13917 1 37.1911 5.5391 53.0171
13918 1 35.6085 3.9565 54.5997
13919 1 37.1911 5.5391 56.1823
13920 1 35.6085 3.9565 57.7649
13921 1 37.1911 5.5391 59.3475
13922 1 35.6085 3.9565 60.9301
13923 1 37.1911 5.5391 62.5127
13924 1 35.6085 7.1217 38.7737
13925 1 37.1911 8.7043 40.3563
13926 1 35.6085 7.1217 41.9389
13927 1 37.1911 8.7043 43.5215
13928 1 35.6085 7.1217 45.1041
13929 1 37.1911 8.7043 46.6867
13930 1 35.6085 7.1217 48.2693
13931 1 37.1911 8.7043 49.8519
13932 1 35.6085 7.1217 51.4345
13933 1 37.1911 8.7043 53.0171
13934 1 35.6085 7.1217 54.5997
13935 1 37.1911 8.7043 56.1823
13936 1 35.6085 7.1217 57.7649
13937 1 37.1911 8.7043 59.3475
13938 1 35.6085 7.1217 60.9301
13939 1 37.1911 8.7043 62.5127
13940 1 35.6085 10.2869 38.7737
13941 1 37.1911 11.8695 40.3563
13942 1 35.6085 10.2869 41.9389
13943 1 37.1911 11.8695 43.5215
13944 1 35.6085 10.2869 45.1041
13945 1 37.1911 11.8695 46.6867
13946 1 35.6085 10.2869 48.2693
13947 1 37.1911 11.8695 49.8519
13948 1 35.6085 10.2869 51.4345
13949 1 37.1911 11.8695 53.0171
13950 1 35.6085 10.2869 54.5997
13951 1 37.1911 11.8695 56.1823
13952 1 35.6085 10.2869 57.7649
13953 1 37.1911 11.8695 59.3475
13954 1 35.6085 10.2869 60.9301
13955 1 37.1911 11.8695 62.5127
13956 1 35.6085 13.4521 38.7737
13957 1 37.1911 15.0347 40.3563
13958 1 35.6085 13.4521 41.9389
13959 1 37.1911 15.0347 43.5215
13960 1 35.6085 13.4521 45.1041
13961 1 37.1911 15.0347 46.6867
13962 1 35.6085 13.4521 48.2693
13963 1 37.1911 15.0347 49.8519
13964 1 35.6085 13.4521 51.4345
13965 1 37.1911 15.0347 53.0171
13966 1 35.6085 13.4521 54.5997
13967 1 37.1911 15.0347 56.1823
13968 1 35.6085 13.4521 57.7649
13969 1 37.1911 15.0347 59.3475
13970 1 35.6085 13.4521 60.9301
13971 1 37.1911 15.0347 62.5127
13972 1 35.6085 16.6173 38.7737
13973 1 37.1911 18.1999 40.3563
13974 1 35.6085 16.6173 41.9389
13975 1 37.1911 18.1999 43.5215
13976 1 35.6085 16.6173 45.1041
13977 1 37.1911 18.1999 46.6867
13978 1 35.6085 16.6173 48.2693
13979 1 37.1911 18.1999 49.8519
13980 1 35.6085 16.6173 51.4345
13981 1 37.1911 18.1999 53.0171
13982 1 35.6085 16.6173 54.5997
13983 1 37.1911 18.1999 56.1823
13984 1 35.6085 16.6173 57.7649
13985 1 37.1911 18.1999 59.3475
13986 1 35.6085 16.6173 60.9301
13987 1 37.1911 18.1999 62.5127
13988 1 35.6085 19.7825 38.7737
13989 1 37.1911 21.3651 40.3563
13990 1 35.6085 19.7825 41.9389
13991 1 37.1911 21.3651 43.5215
13992 1 35.6085 19.7825 45.1041
13993 1 37.1911 21.3651 46.6867
13994 1 35.6085 19.7825 48.2693
13995 1 37.1911 21.3651 49.8519
13996 1 35.6085 19.7825 51.4345
13997 1 37.1911 21.3651 53.0171
13998 1 35.6085 19.7825 54.5997
13999 1 37.1911 21.3651 56.1823
14000 1 35.6085 19.7825 57.7649
14001 1 37.1911 21.3651 59.3475
14002 1 35.6085 19.7825 60.9301
14003 1 37.1911 21.3651 62.5127
14004 1 35.6085 22.9477 38.7737
14005 1 37.1911 24.5303 40.3563
14006 1 35.6085 22.9477 41.9389
14007 1 37.1911 24.5303 43.5215
14008 1 35.6085 22.9477 45.1041
14009 1 37.1911 24.5303 46.6867
14010 1 35.6085 22.9477 48.2693
14011 1 37.1911 24.5303 49.8519
14012 1 35.6085 22.9477 51.4345
14013 1 37.1911 24.5303 53.0171
14014 1 35.6085 22.9477 54.5997
14015 1 37.1911 24.5303 56.1823
14016 1 35.6085 22.9477 57.7649
14017 1 37.1911 24.5303 59.3475
14018 1 35.6085 22.9477 60.9301
14019 1 37.1911 24.5303 62.5127
14020 1 35.6085 26.1129 38.7737
14021 1 37.1911 27.6955 40.3563
14022 1 35.6085 26.1129 41.9389
14023 1 37.1911 27.6955 43.5215
14024 1 35.6085 26.1129 45.1041
14025 1 37.1911 27.6955 46.6867
14026 1 35.6085 26.1129 48.2693
14027 1 37.1911 27.6955 49.8519
14028 1 35.6085 26.1129 51.4345
14029 1 37.1911 27.6955 53.0171
14030 1 35.6085 26.1129 54.5997
14031 1 37.1911 27.6955 56.1823
14032 1 35.6085 26.1129 57.7649
14033 1 37.1911 27.6955 59.3475
14034 1 35.6085 26.1129 60.9301
14035 1 37.1911 27.6955 62.5127
14036 1 35.6085 29.2781 38.7737
14037 1 37.1911 30.8607 40.3563
14038 1 35.6085 29.2781 41.9389
14039 1 37.1911 30.8607 43.5215
14040 1 35.6085 29.2781 45.1041
14041 1 37.1911 30.8607 46.6867
14042 1 35.6085 29.2781 48.2693
14043 1 37.1911 30.8607 49.8519
14044 1 35.6085 29.2781 51.4345
14045 1 37.1911 30.8607 53.0171
14046 1 35.6085 29.2781 54.5997
14047 1 37.1911 30.8607 56.1823
14048 1 35.6085 29.2781 57.7649
14049 1 37.1911 30.8607 59.3475
14050 1 35.6085 29.2781 60.9301
14051 1 37.1911 30.8607 62.5127
14052 1 35.6085 32.4433 38.7737
14053 1 37.1911 34.0259 40.3563
14054 1 35.6085 32.4433 41.9389
14055 1 37.1911 34.0259 43.5215
14056 1 35.6085 32.4433 45.1041
14057 1 37.1911 34.0259 46.6867
14058 1 35.6085 32.4433 48.2693
14059 1 37.1911 34.0259 49.8519
14060 1 35.6085 32.4433 51.4345
14061 1 37.1911 34.0259 53.0171
14062 1 35.6085 32.4433 54.5997
14063 1 37.1911 34.0259 56.1823
14064 1 35.6085 32.4433 57.7649
14065 1 37.1911 34.0259 59.3475
14066 1 35.6085 32.4433 60.9301
14067 1 37.1911 34.0259 62.5127
14068 1 35.6085 35.6085 38.7737
14069 1 37.1911 37.1911 40.3563
14070 1 35.6085 35.6085 41.9389
14071 1 37.1911 37.1911 43.5215
14072 1 35.6085 35.6085 45.1041
14073 1 37.1911 37.1911 46.6867
14074 1 35.6085 35.6085 48.2693
14075 1 37.1911 37.1911 49.8519
14076 1 35.6085 35.6085 51.4345
14077 1 37.1911 37.1911 53.0171
14078 1 35.6085 35.6085 54.5997
14079 1 37.1911 37.1911 56.1823
14080 1 35.6085 35.6085 57.7649
14081 1 37.1911 37.1911 59.3475
14082 1 35.6085 35.6085 60.9301
14083 1 37.1911 37.1911 62.5127
14084 1 35.6085 38.7737 38.7737
14085 1 37.1911 40.3563 40.3563
14086 1 35.6085 38.7737 41.9389
14087 1 37.1911 40.3563 43.5215
14088 1 35.6085 38.7737 45.1041
14089 1 37.1911 40.3563 46.6867
14090 1 35.6085 38.7737 48.2693
14091 1 37.1911 40.3563 49.8519
14092 1 35.6085 38.7737 51.4345
14093 1 37.1911 40.3563 53.0171
14094 1 35.6085 38.7737 54.5997
14095 1 37.1911 40.3563 56.1823
14096 1 35.6085 38.7737 57.7649
14097 1 37.1911 40.3563 59.3475
14098 1 35.6085 38.7737 60.9301
14099 1 37.1911 40.3563 62.5127
14100 1 35.6085 41.9389 38.7737
14101 1 37.1911 43.5215 40.3563
14102 1 35.6085 41.9389 41.9389
14103 1 37.1911 43.5215 43.5215
14104 1 35.6085 41.9389 45.1041
14105 1 37.1911 43.5215 46.6867
14106 1 35.6085 41.9389 48.2693
14107 1 37.1911 43.5215 49.8519
14108 1 35.6085 41.9389 51.4345
14109 1 37.1911 43.5215 53.0171
14110 1 35.6085 41.9389 54.5997
14111 1 37.1911 43.5215 56.1823
14112 1 35.6085 41.9389 57.7649
14113 1 37.1911 43.5215 59.3475
14114 1 35.6085 41.9389 60.9301
14115 1 37.1911 43.5215 62.5127
14116 1 35.6085 45.1041 38.7737
14117 1 37.1911 46.6867 40.3563
14118 1 35.6085 45.1041 41.9389
14119 1 37.1911 46.6867 43.5215
14120 1 35.6085 45.1041 45.1041
14121 1 37.1911 46.6867 46.6867
14122 1 35.6085 45.1041 48.2693
14123 1 37.1911 46.6867 49.8519
14124 1 35.6085 45.1041 51.4345
14125 1 37.1911 46.6867 53.0171
14126 1 35.6085 45.1041 54.5997
14127 1 37.1911 46.6867 56.1823
14128 1 35.6085 45.1041 57.7649
14129 1 37.1911 46.6867 59.3475
14130 1 35.6085 45.1041 60.9301
14131 1 37.1911 46.6867 62.5127
14132 1 35.6085 48.2693 38.7737
14133 1 37.1911 49.8519 40.3563
14134 1 35.6085 48.2693 41.9389
14135 1 37.1911 49.8519 43.5215
14136 1 35.6085 48.2693 45.1041
14137 1 37.1911 49.8519 46.6867
14138 1 35.6085 48.2693 48.2693
14139 1 37.1911 49.8519 49.8519
14140 1 35.6085 48.2693 51.4345
14141 1 37.1911 49.8519 53.0171
14142 1 35.6085 48.2693 54.5997
14143 1 37.1911 49.8519 56.1823
14144 1 35.6085 48.2693 57.7649
14145 1 37.1911 49.8519 59.3475
14146 1 35.6085 48.2693 60.9301
14147 1 37.1911 49.8519 62.5127
14148 1 35.6085 51.4345 38.7737
14149 1 37.1911 53.0171 40.3563
14150 1 35.6085 51.4345 41.9389
14151 1 37.1911 53.0171 43.5215
14152 1 35.6085 51.4345 45.1041
14153 1 37.1911 53.0171 46.6867
14154 1 35.6085 51.4345 48.2693
14155 1 37.1911 53.0171 49.8519
14156 1 35.6085 51.4345 51.4345
14157 1 37.1911 53.0171 53.0171
14158 1 35.6085 51.4345 54.5997
14159 1 37.1911 53.0171 56.1823
14160 1 35.6085 51.4345 57.7649
14161 1 37.1911 53.0171 59.3475
14162 1 35.6085 51.4345 60.9301
14163 1 37.1911 53.0171 62.5127
14164 1 35.6085 54.5997 38.7737
14165 1 37.1911 56.1823 40.3563
14166 1 35.6085 54.5997 41.9389
14167 1 37.1911 56.1823 43.5215
14168 1 35.6085 54.5997 45.1041
14169 1 37.1911 56.1823 46.6867
14170 1 35.6085 54.5997 48.2693
14171 1 37.1911 56.1823 49.8519
14172 1 35.6085 54.5997 51.4345
14173 1 37.1911 56.1823 53.0171
14174 1 35.6085 54.5997 54.5997
14175 1 37.1911 56.1823 56.1823
14176 1 35.6085 54.5997 57.7649
14177 1 37.1911 56.1823 59.3475
14178 1 35.6085 54.5997 60.9301
14179 1 37.1911 56.1823 62.5127
14180 1 35.6085 57.7649 38.7737
14181 1 37.1911 59.3475 40.3563
14182 1 35.6085 57.7649 41.9389
14183 1 37.1911 59.3475 43.5215
14184 1 35.6085 57.7649 45.1041
14185 1 37.1911 59.3475 46.6867
14186 1 35.6085 57.7649 48.2693
14187 1 37.1911 59.3475 49.8519
14188 1 35.6085 57.7649 51.4345
14189 1 37.1911 59.3475 53.0171
14190 1 35.6085 57.7649 54.5997
14191 1 37.1911 59.3475 56.1823
14192 1 35.6085 57.7649 57.7649
14193 1 37.1911 59.3475 59.3475
14194 1 35.6085 57.7649 60.9301
14195 1 37.1911 59.3475 62.5127
14196 1 35.6085 60.9301 38.7737
14197 1 37.1911 62.5127 40.3563
14198 1 35.6085 60.9301 41.9389
14199 1 37.1911 62.5127 43.5215
14200 1 35.6085 60.9301 45.1041
14201 1 37.1911 62.5127 46.6867
14202 1 35.6085 60.9301 48.2693
14203 1 37.1911 62.5127 49.8519
14204 1 35.6085 60.9301 51.4345
14205 1 37.1911 62.5127 53.0171
14206 1 35.6085 60.9301 54.5997
14207 1 37.1911 62.5127 56.1823
14208 1 35.6085 60.9301 57.7649
14209 1 37.1911 62.5127 59.3475
14210 1 35.6085 60.9301 60.9301
14211 1 37.1911 62.5127 62.5127
14212 1 38.7737 0.7913 38.7737
14213 1 40.3563 2.3739 40.3563
14214 1 38.7737 0.7913 41.9389
14215 1 40.3563 2.3739 43.5215
14216 1 38.7737 0.7913 45.1041
14217 1 40.3563 2.3739 46.6867
14218 1 38.7737 0.7913 48.2693
14219 1 40.3563 2.3739 49.8519
14220 1 38.7737 0.7913 51.4345
14221 1 40.3563 2.3739 53.0171
14222 1 38.7737 0.7913 54.5997
14223 1 40.3563 2.3739 56.1823
14224 1 38.7737 0.7913 57.7649
14225 1 40.3563 2.3739 59.3475
14226 1 38.7737 0.7913 60.9301
14227 1 40.3563 2.3739 62.5127
14228 1 38.7737 3.9565 38.7737
14229 1 40.3563 5.5391 40.3563
14230 1 38.7737 3.9565 41.9389
14231 1 40.3563 5.5391 43.5215
14232 1 38.7737 3.9565 45.1041
14233 1 40.3563 5.5391 46.6867
14234 1 38.7737 3.9565 48.2693
14235 1 40.3563 5.5391 49.8519
14236 1 38.7737 3.9565 51.4345
14237 1 40.3563 5.5391 53.0171
14238 1 38.7737 3.9565 54.5997
14239 1 40.3563 5.5391 56.1823
14240 1 38.7737 3.9565 57.7649
14241 1 40.3563 5.5391 59.3475
14242 1 38.7737 3.9565 60.9301
14243 1 40.3563 5.5391 62.5127
14244 1 38.7737 7.1217 38.7737
14245 1 40.3563 8.7043 40.3563
14246 1 38.7737 7.1217 41.9389
14247 1 40.3563 8.7043 43.5215
14248 1 38.7737 7.1217 45.1041
14249 1 40.3563 8.7043 46.6867
14250 1 38.7737 7.1217 48.2693
14251 1 40.3563 8.7043 49.8519
14252 1 38.7737 7.1217 51.4345
14253 1 40.3563 8.7043 53.0171
14254 1 38.7737 7.1217 54.5997
14255 1 40.3563 8.7043 56.1823
14256 1 38.7737 7.1217 57.7649
14257 1 40.3563 8.7043 59.3475
14258 1 38.7737 7.1217 60.9301
14259 1 40.3563 8.7043 62.5127
14260 1 38.7737 10.2869 38.7737
14261 1 40.3563 11.8695 40.3563
14262 1 38.7737 10.2869 41.9389
14263 1 40.3563 11.8695 43.5215
14264 1 38.7737 10.2869 45.1041
14265 1 40.3563 11.8695 46.6867
14266 1 38.7737 10.2869 48.2693
14267 1 40.3563 11.8695 49.8519
14268 1 38.7737 10.2869 51.4345
14269 1 40.3563 11.8695 53.0171
14270 1 38.7737 10.2869 54.5997
14271 1 40.3563 11.8695 56.1823
14272 1 38.7737 10.2869 57.7649
14273 1 40.3563 11.8695 59.3475
14274 1 38.7737 10.2869 60.9301
14275 1 40.3563 11.8695 62.5127
14276 1 38.7737 13.4521 38.7737
14277 1 40.3563 15.0347 40.3563
14278 1 38.7737 13.4521 41.9389
14279 1 40.3563 15.0347 43.5215
14280 1 38.7737 13.4521 45.1041
14281 1 40.3563 15.0347 46.6867
14282 1 38.7737 13.4521 48.2693
14283 1 40.3563 15.0347 49.8519
14284 1 38.7737 13.4521 51.4345
14285 1 40.3563 15.0347 53.0171
14286 1 38.7737 13.4521 54.5997
14287 1 40.3563 15.0347 56.1823
14288 1 38.7737 13.4521 57.7649
14289 1 40.3563 15.0347 59.3475
14290 1 38.7737 13.4521 60.9301
14291 1 40.3563 15.0347 62.5127
14292 1 38.7737 16.6173 38.7737
14293 1 40.3563 18.1999 40.3563
14294 1 38.7737 16.6173 41.9389
14295 1 40.3563 18.1999 43.5215
14296 1 38.7737 16.6173 45.1041
14297 1 40.3563 18.1999 46.6867
14298 1 38.7737 16.6173 48.2693
14299 1 40.3563 18.1999 49.8519
14300 1 38.7737 16.6173 51.4345
14301 1 40.3563 18.1999 53.0171
14302 1 38.7737 16.6173 54.5997
14303 1 40.3563 18.1999 56.1823
14304 1 38.7737 16.6173 57.7649
14305 1 40.3563 18.1999 59.3475
14306 1 38.7737 16.6173 60.9301
14307 1 40.3563 18.1999 62.5127
14308 1 38.7737 19.7825 38.7737
14309 1 40.3563 21.3651 40.3563
14310 1 38.7737 19.7825 41.9389
14311 1 40.3563 21.3651 43.5215
14312 1 38.7737 19.7825 45.1041
14313 1 40.3563 21.3651 46.6867
14314 1 38.7737 19.7825 48.2693
14315 1 40.3563 21.3651 49.8519
14316 1 38.7737 19.7825 51.4345
14317 1 40.3563 21.3651 53.0171
14318 1 38.7737 19.7825 54.5997
14319 1 40.3563 21.3651 56.1823
14320 1 38.7737 19.7825 57.7649
14321 1 40.3563 21.3651 59.3475
14322 1 38.7737 19.7825 60.9301
14323 1 40.3563 21.3651 62.5127
14324 1 38.7737 22.9477 38.7737
14325 1 40.3563 24.5303 40.3563
14326 1 38.7737 22.9477 41.9389
14327 1 40.3563 24.5303 43.5215
14328 1 38.7737 22.9477 45.1041
14329 1 40.3563 24.5303 46.6867
14330 1 38.7737 22.9477 48.2693
14331 1 40.3563 24.5303 49.8519
14332 1 38.7737 22.9477 51.4345
14333 1 40.3563 24.5303 53.0171
14334 1 38.7737 22.9477 54.5997
14335 1 40.3563 24.5303 56.1823
14336 1 38.7737 22.9477 57.7649
14337 1 40.3563 24.5303 59.3475
14338 1 38.7737 22.9477 60.9301
14339 1 40.3563 24.5303 62.5127
14340 1 38.7737 26.1129 38.7737
14341 1 40.3563 27.6955 40.3563
14342 1 38.7737 26.1129 41.9389
14343 1 40.3563 27.6955 43.5215
14344 1 38.7737 26.1129 45.1041
14345 1 40.3563 27.6955 46.6867
14346 1 38.7737 26.1129 48.2693
14347 1 40.3563 27.6955 49.8519
14348 1 38.7737 26.1129 51.4345
14349 1 40.3563 27.6955 53.0171
14350 1 38.7737 26.1129 54.5997
14351 1 40.3563 27.6955 56.1823
14352 1 38.7737 26.1129 57.7649
14353 1 40.3563 27.6955 59.3475
14354 1 38.7737 26.1129 60.9301
14355 1 40.3563 27.6955 62.5127
14356 1 38.7737 29.2781 38.7737
14357 1 40.3563 30.8607 40.3563
14358 1 38.7737 29.2781 41.9389
14359 1 40.3563 30.8607 43.5215
14360 1 38.7737 29.2781 45.1041
14361 1 40.3563 30.8607 46.6867
14362 1 38.7737 29.2781 48.2693
14363 1 40.3563 30.8607 49.8519
14364 1 38.7737 29.2781 51.4345
14365 1 40.3563 30.8607 53.0171
14366 1 38.7737 29.2781 54.5997
14367 1 40.3563 30.8607 56.1823
14368 1 38.7737 29.2781 57.7649
14369 1 40.3563 30.8607 59.3475
14370 1 38.7737 29.2781 60.9301
14371 1 40.3563 30.8607 62.5127
14372 1 38.7737 32.4433 38.7737
14373 1 40.3563 34.0259 40.3563
14374 1 38.7737 32.4433 41.9389
14375 1 40.3563 34.0259 43.5215
14376 1 38.7737 32.4433 45.1041
14377 1 40.3563 34.0259 46.6867
14378 1 38.7737 32.4433 48.2693
14379 1 40.3563 34.0259 49.8519
14380 1 38.7737 32.4433 51.4345
14381 1 40.3563 34.0259 53.0171
14382 1 38.7737 32.4433 54.5997
14383 1 40.3563 34.0259 56.1823
14384 1 38.7737 32.4433 57.7649
14385 1 40.3563 34.0259 59.3475
14386 1 38.7737 32.4433 60.9301
14387 1 40.3563 34.0259 62.5127
14388 1 38.7737 35.6085 38.7737
14389 1 40.3563 37.1911 40.3563
14390 1 38.7737 35.6085 41.9389
14391 1 40.3563 37.1911 43.5215
14392 1 38.7737 35.6085 45.1041
14393 1 40.3563 37.1911 46.6867
14394 1 38.7737 35.6085 48.2693
14395 1 40.3563 37.1911 49.8519
14396 1 38.7737 35.6085 51.4345
14397 1 40.3563 37.1911 53.0171
14398 1 38.7737 35.6085 54.5997
14399 1 40.3563 37.1911 56.1823
14400 1 38.7737 35.6085 57.7649
14401 1 40.3563 37.1911 59.3475
14402 1 38.7737 35.6085 60.9301
14403 1 40.3563 37.1911 62.5127
14404 1 38.7737 38.7737 38.7737
14405 1 40.3563 40.3563 40.3563
14406 1 38.7737 38.7737 41.9389
14407 1 40.3563 40.3563 43.5215
14408 1 38.7737 38.7737 45.1041
14409 1 40.3563 40.3563 46.6867
14410 1 38.7737 38.7737 48.2693
14411 1 40.3563 40.3563 49.8519
14412 1 38.7737 38.7737 51.4345
14413 1 40.3563 40.3563 53.0171
14414 1 38.7737 38.7737 54.5997
14415 1 40.3563 40.3563 56.1823
14416 1 38.7737 38.7737 57.7649
14417 1 40.3563 40.3563 59.3475
14418 1 38.7737 38.7737 60.9301
14419 1 40.3563 40.3563 62.5127
14420 1 38.7737 41.9389 38.7737
14421 1 40.3563 43.5215 40.3563
14422 1 38.7737 41.9389 41.9389
14423 1 40.3563 43.5215 43.5215
14424 1 38.7737 41.9389 45.1041
14425 1 40.3563 43.5215 46.6867
14426 1 38.7737 41.9389 48.2693
14427 1 40.3563 43.5215 49.8519
14428 1 38.7737 41.9389 51.4345
14429 1 40.3563 43.5215 53.0171
14430 1 38.7737 41.9389 54.5997
14431 1 40.3563 43.5215 56.1823
14432 1 38.7737 41.9389 57.7649
14433 1 40.3563 43.5215 59.3475
14434 1 38.7737 41.9389 60.9301
14435 1 40.3563 43.5215 62.5127
14436 1 38.7737 45.1041 38.7737
14437 1 40.3563 46.6867 40.3563
14438 1 38.7737 45.1041 41.9389
14439 1 40.3563 46.6867 43.5215
14440 1 38.7737 45.1041 45.1041
14441 1 40.3563 46.6867 46.6867
14442 1 38.7737 45.1041 48.2693
14443 1 40.3563 46.6867 49.8519
14444 1 38.7737 45.1041 51.4345
14445 1 40.3563 46.6867 53.0171
14446 1 38.7737 45.1041 54.5997
14447 1 40.3563 46.6867 56.1823
14448 1 38.7737 45.1041 57.7649
14449 1 40.3563 46.6867 59.3475
14450 1 38.7737 45.1041 60.9301
14451 1 40.3563 46.6867 62.5127
14452 1 38.7737 48.2693 38.7737
14453 1 40.3563 49.8519 40.3563
14454 1 38.7737 48.2693 41.9389
14455 1 40.3563 49.8519 43.5215
14456 1 38.7737 48.2693 45.1041
14457 1 40.3563 49.8519 46.6867
14458 1 38.7737 48.2693 48.2693
14459 1 40.3563 49.8519 49.8519
14460 1 38.7737 48.2693 51.4345
14461 1 40.3563 49.8519 53.0171
14462 1 38.7737 48.2693 54.5997
14463 1 40.3563 49.8519 56.1823
14464 1 38.7737 48.2693 57.7649
14465 1 40.3563 49.8519 59.3475
14466 1 38.7737 48.2693 60.9301
14467 1 40.3563 49.8519 62.5127
14468 1 38.7737 51.4345 38.7737
14469 1 40.3563 53.0171 40.3563
14470 1 38.7737 51.4345 41.9389
14471 1 40.3563 53.0171 43.5215
14472 1 38.7737 51.4345 45.1041
14473 1 40.3563 53.0171 46.6867
14474 1 38.7737 51.4345 48.2693
14475 1 40.3563 53.0171 49.8519
14476 1 38.7737 51.4345 51.4345
14477 1 40.3563 53.0171 53.0171
14478 1 38.7737 51.4345 54.5997
14479 1 40.3563 53.0171 56.1823
14480 1 38.7737 51.4345 57.7649
14481 1 40.3563 53.0171 59.3475
14482 1 38.7737 51.4345 60.9301
14483 1 40.3563 53.0171 62.5127
14484 1 38.7737 54.5997 38.7737
14485 1 40.3563 56.1823 40.3563
14486 1 38.7737 54.5997 41.9389
14487 1 40.3563 56.1823 43.5215
14488 1 38.7737 54.5997 45.1041
14489 1 40.3563 56.1823 46.6867
14490 1 38.7737 54.5997 48.2693
14491 1 40.3563 56.1823 49.8519
14492 1 38.7737 54.5997 51.4345
14493 1 40.3563 56.1823 53.0171
14494 1 38.7737 54.5997 54.5997
14495 1 40.3563 56.1823 56.1823
14496 1 38.7737 54.5997 57.7649
14497 1 40.3563 56.1823 59.3475
14498 1 38.7737 54.5997 60.9301
14499 1 40.3563 56.1823 62.5127
14500 1 38.7737 57.7649 38.7737
14501 1 40.3563 59.3475 40.3563
14502 1 38.7737 57.7649 41.9389
14503 1 40.3563 59.3475 43.5215
14504 1 38.7737 57.7649 45.1041
14505 1 40.3563 59.3475 46.6867
14506 1 38.7737 57.7649 48.2693
14507 1 40.3563 59.3475 49.8519
14508 1 38.7737 57.7649 51.4345
14509 1 40.3563 59.3475 53.0171
14510 1 38.7737 57.7649 54.5997
14511 1 40.3563 59.3475 56.1823
14512 1 38.7737 57.7649 57.7649
14513 1 40.3563 59.3475 59.3475
14514 1 38.7737 57.7649 60.9301
14515 1 40.3563 59.3475 62.5127
14516 1 38.7737 60.9301 38.7737
14517 1 40.3563 62.5127 40.3563
14518 1 38.7737 60.9301 41.9389
14519 1 40.3563 62.5127 43.5215
14520 1 38.7737 60.9301 45.1041
14521 1 40.3563 62.5127 46.6867
14522 1 38.7737 60.9301 48.2693
14523 1 40.3563 62.5127 49.8519
14524 1 38.7737 60.9301 51.4345
14525 1 40.3563 62.5127 53.0171
14526 1 38.7737 60.9301 54.5997
14527 1 40.3563 62.5127 56.1823
14528 1 38.7737 60.9301 57.7649
14529 1 40.3563 62.5127 59.3475
14530 1 38.7737 60.9301 60.9301
14531 1 40.3563 62.5127 62.5127
14532 1 41.9389 0.7913 38.7737
14533 1 43.5215 2.3739 40.3563
14534 1 41.9389 0.7913 41.9389
14535 1 43.5215 2.3739 43.5215
14536 1 41.9389 0.7913 45.1041
14537 1 43.5215 2.3739 46.6867
14538 1 41.9389 0.7913 48.2693
14539 1 43.5215 2.3739 49.8519
14540 1 41.9389 0.7913 51.4345
14541 1 43.5215 2.3739 53.0171
14542 1 41.9389 0.7913 54.5997
14543 1 43.5215 2.3739 56.1823
14544 1 41.9389 0.7913 57.7649
14545 1 43.5215 2.3739 59.3475
14546 1 41.9389 0.7913 60.9301
14547 1 43.5215 2.3739 62.5127
14548 1 41.9389 3.9565 38.7737
14549 1 43.5215 5.5391 40.3563
14550 1 41.9389 3.9565 41.9389
14551 1 43.5215 5.5391 43.5215
14552 1 41.9389 3.9565 45.1041
14553 1 43.5215 5.5391 46.6867
14554 1 41.9389 3.9565 48.2693
14555 1 43.5215 5.5391 49.8519
14556 1 41.9389 3.9565 51.4345
14557 1 43.5215 5.5391 53.0171
14558 1 41.9389 3.9565 54.5997
14559 1 43.5215 5.5391 56.1823
14560 1 41.9389 3.9565 57.7649
14561 1 43.5215 5.5391 59.3475
14562 1 41.9389 3.9565 60.9301
14563 1 43.5215 5.5391 62.5127
14564 1 41.9389 7.1217 38.7737
14565 1 43.5215 8.7043 40.3563
14566 1 41.9389 7.1217 41.9389
14567 1 43.5215 8.7043 43.5215
14568 1 41.9389 7.1217 45.1041
14569 1 43.5215 8.7043 46.6867
14570 1 41.9389 7.1217 48.2693
14571 1 43.5215 8.7043 49.8519
14572 1 41.9389 7.1217 51.4345
14573 1 43.5215 8.7043 53.0171
14574 1 41.9389 7.1217 54.5997
14575 1 43.5215 8.7043 56.1823
14576 1 41.9389 7.1217 57.7649
14577 1 43.5215 8.7043 59.3475
14578 1 41.9389 7.1217 60.9301
14579 1 43.5215 8.7043 62.5127
14580 1 41.9389 10.2869 38.7737
14581 1 43.5215 11.8695 40.3563
14582 1 41.9389 10.2869 41.9389
14583 1 43.5215 11.8695 43.5215
14584 1 41.9389 10.2869 45.1041
14585 1 43.5215 11.8695 46.6867
14586 1 41.9389 10.2869 48.2693
14587 1 43.5215 11.8695 49.8519
14588 1 41.9389 10.2869 51.4345
14589 1 43.5215 11.8695 53.0171
14590 1 41.9389 10.2869 54.5997
14591 1 43.5215 11.8695 56.1823
14592 1 41.9389 10.2869 57.7649
14593 1 43.5215 11.8695 59.3475
14594 1 41.9389 10.2869 60.9301
14595 1 43.5215 11.8695 62.5127
14596 1 41.9389 13.4521 38.7737
14597 1 43.5215 15.0347 40.3563
14598 1 41.9389 13.4521 41.9389
14599 1 43.5215 15.0347 43.5215
14600 1 41.9389 13.4521 45.1041
14601 1 43.5215 15.0347 46.6867
14602 1 41.9389 13.4521 48.2693
14603 1 43.5215 15.0347 49.8519
14604 1 41.9389 13.4521 51.4345
14605 1 43.5215 15.0347 53.0171
14606 1 41.9389 13.4521 54.5997
14607 1 43.5215 15.0347 56.1823
14608 1 41.9389 13.4521 57.7649
14609 1 43.5215 15.0347 59.3475
14610 1 41.9389 13.4521 60.9301
14611 1 43.5215 15.0347 62.5127
14612 1 41.9389 16.6173 38.7737
14613 1 43.5215 18.1999 40.3563
14614 1 41.9389 16.6173 41.9389
14615 1 43.5215 18.1999 43.5215
14616 1 41.9389 16.6173 45.1041
14617 1 43.5215 18.1999 46.6867
14618 1 41.9389 16.6173 48.2693
14619 1 43.5215 18.1999 49.8519
14620 1 41.9389 16.6173 51.4345
14621 1 43.5215 18.1999 53.0171
14622 1 41.9389 16.6173 54.5997
14623 1 43.5215 18.1999 56.1823
14624 1 41.9389 16.6173 57.7649
14625 1 43.5215 18.1999 59.3475
14626 1 41.9389 16.6173 60.9301
14627 1 43.5215 18.1999 62.5127
14628 1 41.9389 19.7825 38.7737
14629 1 43.5215 21.3651 40.3563
14630 1 41.9389 19.7825 41.9389
14631 1 43.5215 21.3651 43.5215
14632 1 41.9389 19.7825 45.1041
14633 1 43.5215 21.3651 46.6867
14634 1 41.9389 19.7825 48.2693
14635 1 43.5215 21.3651 49.8519
14636 1 41.9389 19.7825 51.4345
14637 1 43.5215 21.3651 53.0171
14638 1 41.9389 19.7825 54.5997
14639 1 43.5215 21.3651 56.1823
14640 1 41.9389 19.7825 57.7649
14641 1 43.5215 21.3651 59.3475
14642 1 41.9389 19.7825 60.9301
14643 1 43.5215 21.3651 62.5127
14644 1 41.9389 22.9477 38.7737
14645 1 43.5215 24.5303 40.3563
14646 1 41.9389 22.9477 41.9389
14647 1 43.5215 24.5303 43.5215
14648 1 41.9389 22.9477 45.1041
14649 1 43.5215 24.5303 46.6867
14650 1 41.9389 22.9477 48.2693
14651 1 43.5215 24.5303 49.8519
14652 1 41.9389 22.9477 51.4345
14653 1 43.5215 24.5303 53.0171
14654 1 41.9389 22.9477 54.5997
14655 1 43.5215 24.5303 56.1823
14656 1 41.9389 22.9477 57.7649
14657 1 43.5215 24.5303 59.3475
14658 1 41.9389 22.9477 60.9301
14659 1 43.5215 24.5303 62.5127
14660 1 41.9389 26.1129 38.7737
14661 1 43.5215 27.6955 40.3563
14662 1 41.9389 26.1129 41.9389
14663 1 43.5215 27.6955 43.5215
14664 1 41.9389 26.1129 45.1041
14665 1 43.5215 27.6955 46.6867
14666 1 41.9389 26.1129 48.2693
14667 1 43.5215 27.6955 49.8519
14668 1 41.9389 26.1129 51.4345
14669 1 43.5215 27.6955 53.0171
14670 1 41.9389 26.1129 54.5997
14671 1 43.5215 27.6955 56.1823
14672 1 41.9389 26.1129 57.7649
14673 1 43.5215 27.6955 59.3475
14674 1 41.9389 26.1129 60.9301
14675 1 43.5215 27.6955 62.5127
14676 1 41.9389 29.2781 38.7737
14677 1 43.5215 30.8607 40.3563
14678 1 41.9389 29.2781 41.9389
14679 1 43.5215 30.8607 43.5215
14680 1 41.9389 29.2781 45.1041
14681 1 43.5215 30.8607 46.6867
14682 1 41.9389 29.2781 48.2693
14683 1 43.5215 30.8607 49.8519
14684 1 41.9389 29.2781 51.4345
14685 1 43.5215 30.8607 53.0171
14686 1 41.9389 29.2781 54.5997
14687 1 43.5215 30.8607 56.1823
14688 1 41.9389 29.2781 57.7649
14689 1 43.5215 30.8607 59.3475
14690 1 41.9389 29.2781 60.9301
14691 1 43.5215 30.8607 62.5127
14692 1 41.9389 32.4433 38.7737
14693 1 43.5215 34.0259 40.3563
14694 1 41.9389 32.4433 41.9389
14695 1 43.5215 34.0259 43.5215
14696 1 41.9389 32.4433 45.1041
14697 1 43.5215 34.0259 46.6867
14698 1 41.9389 32.4433 48.2693
14699 1 43.5215 34.0259 49.8519
14700 1 41.9389 32.4433 51.4345
14701 1 43.5215 34.0259 53.0171
14702 1 41.9389 32.4433 54.5997
14703 1 43.5215 34.0259 56.1823
14704 1 41.9389 32.4433 57.7649
14705 1 43.5215 34.0259 59.3475
14706 1 41.9389 32.4433 60.9301
14707 1 43.5215 34.0259 62.5127
14708 1 41.9389 35.6085 38.7737
14709 1 43.5215 37.1911 40.3563
14710 1 41.9389 35.6085 41.9389
14711 1 43.5215 37.1911 43.5215
14712 1 41.9389 35.6085 45.1041
14713 1 43.5215 37.1911 46.6867
14714 1 41.9389 35.6085 48.2693
14715 1 43.5215 37.1911 49.8519
14716 1 41.9389 35.6085 51.4345
14717 1 43.5215 37.1911 53.0171
14718 1 41.9389 35.6085 54.5997
14719 1 43.5215 37.1911 56.1823
14720 1 41.9389 35.6085 57.7649
14721 1 43.5215 37.1911 59.3475
14722 1 41.9389 35.6085 60.9301
14723 1 43.5215 37.1911 62.5127
14724 1 41.9389 38.7737 38.7737
14725 1 43.5215 40.3563 40.3563
14726 1 41.9389 38.7737 41.9389
14727 1 43.5215 40.3563 43.5215
14728 1 41.9389 38.7737 45.1041
14729 1 43.5215 40.3563 46.6867
14730 1 41.9389 38.7737 48.2693
14731 1 43.5215 40.3563 49.8519
14732 1 41.9389 38.7737 51.4345
14733 1 43.5215 40.3563 53.0171
14734 1 41.9389 38.7737 54.5997
14735 1 43.5215 40.3563 56.1823
14736 1 41.9389 38.7737 57.7649
14737 1 43.5215 40.3563 59.3475
14738 1 41.9389 38.7737 60.9301
14739 1 43.5215 40.3563 62.5127
14740 1 41.9389 41.9389 38.7737
14741 1 43.5215 43.5215 40.3563
14742 1 41.9389 41.9389 41.9389
14743 1 43.5215 43.5215 43.5215
14744 1 41.9389 41.9389 45.1041
14745 1 43.5215 43.5215 46.6867
14746 1 41.9389 41.9389 48.2693
14747 1 43.5215 43.5215 49.8519
14748 1 41.9389 41.9389 51.4345
14749 1 43.5215 43.5215 53.0171
14750 1 41.9389 41.9389 54.5997
14751 1 43.5215 43.5215 56.1823
14752 1 41.9389 41.9389 57.7649
14753 1 43.5215 43.5215 59.3475
14754 1 41.9389 41.9389 60.9301
14755 1 43.5215 43.5215 62.5127
14756 1 41.9389 45.1041 38.7737
14757 1 43.5215 46.6867 40.3563
14758 1 41.9389 45.1041 41.9389
14759 1 43.5215 46.6867 43.5215
14760 1 41.9389 45.1041 45.1041
14761 1 43.5215 46.6867 46.6867
14762 1 41.9389 45.1041 48.2693
14763 1 43.5215 46.6867 49.8519
14764 1 41.9389 45.1041 51.4345
14765 1 43.5215 46.6867 53.0171
14766 1 41.9389 45.1041 54.5997
14767 1 43.5215 46.6867 56.1823
14768 1 41.9389 45.1041 57.7649
14769 1 43.5215 46.6867 59.3475
14770 1 41.9389 45.1041 60.9301
14771 1 43.5215 46.6867 62.5127
14772 1 41.9389 48.2693 38.7737
14773 1 43.5215 49.8519 40.3563
14774 1 41.9389 48.2693 41.9389
14775 1 43.5215 49.8519 43.5215
14776 1 41.9389 48.2693 45.1041
14777 1 43.5215 49.8519 46.6867
14778 1 41.9389 48.2693 48.2693
14779 1 43.5215 49.8519 49.8519
14780 1 41.9389 48.2693 51.4345
14781 1 43.5215 49.8519 53.0171
14782 1 41.9389 48.2693 54.5997
14783 1 43.5215 49.8519 56.1823
14784 1 41.9389 48.2693 57.7649
14785 1 43.5215 49.8519 59.3475
14786 1 41.9389 48.2693 60.9301
14787 1 43.5215 49.8519 62.5127
14788 1 41.9389 51.4345 38.7737
14789 1 43.5215 53.0171 40.3563
14790 1 41.9389 51.4345 41.9389
14791 1 43.5215 53.0171 43.5215
14792 1 41.9389 51.4345 45.1041
14793 1 43.5215 53.0171 46.6867
14794 1 41.9389 51.4345 48.2693
14795 1 43.5215 53.0171 49.8519
14796 1 41.9389 51.4345 51.4345
14797 1 43.5215 53.0171 53.0171
14798 1 41.9389 51.4345 54.5997
14799 1 43.5215 53.0171 56.1823
14800 1 41.9389 51.4345 57.7649
14801 1 43.5215 53.0171 59.3475
14802 1 41.9389 51.4345 60.9301
14803 1 43.5215 53.0171 62.5127
14804 1 41.9389 54.5997 38.7737
14805 1 43.5215 56.1823 40.3563
14806 1 41.9389 54.5997 41.9389
14807 1 43.5215 56.1823 43.5215
14808 1 41.9389 54.5997 45.1041
14809 1 43.5215 56.1823 46.6867
14810 1 41.9389 54.5997 48.2693
14811 1 43.5215 56.1823 49.8519
14812 1 41.9389 54.5997 51.4345
14813 1 43.5215 56.1823 53.0171
14814 1 41.9389 54.5997 54.5997
14815 1 43.5215 56.1823 56.1823
14816 1 41.9389 54.5997 57.7649
14817 1 43.5215 56.1823 59.3475
14818 1 41.9389 54.5997 60.9301
14819 1 43.5215 56.1823 62.5127
14820 1 41.9389 57.7649 38.7737
14821 1 43.5215 59.3475 40.3563
14822 1 41.9389 57.7649 41.9389
14823 1 43.5215 59.3475 43.5215
14824 1 41.9389 57.7649 45.1041
14825 1 43.5215 59.3475 46.6867
14826 1 41.9389 57.7649 48.2693
14827 1 43.5215 59.3475 49.8519
14828 1 41.9389 57.7649 51.4345
14829 1 43.5215 59.3475 53.0171
14830 1 41.9389 57.7649 54.5997
14831 1 43.5215 59.3475 56.1823
14832 1 41.9389 57.7649 57.7649
14833 1 43.5215 59.3475 59.3475
14834 1 41.9389 57.7649 60.9301
14835 1 43.5215 59.3475 62.5127
14836 1 41.9389 60.9301 38.7737
14837 1 43.5215 62.5127 40.3563
14838 1 41.9389 60.9301 41.9389
14839 1 43.5215 62.5127 43.5215
14840 1 41.9389 60.9301 45.1041
14841 1 43.5215 62.5127 46.6867
14842 1 41.9389 60.9301 48.2693
14843 1 43.5215 62.5127 49.8519
14844 1 41.9389 60.9301 51.4345
14845 1 43.5215 62.5127 53.0171
14846 1 41.9389 60.9301 54.5997
14847 1 43.5215 62.5127 56.1823
14848 1 41.9389 60.9301 57.7649
14849 1 43.5215 62.5127 59.3475
14850 1 41.9389 60.9301 60.9301
14851 1 43.5215 62.5127 62.5127
14852 1 16.6173 0.7913 22.9477
14853 1 18.1999 2.3739 24.5303
14854 1 16.6173 0.7913 26.1129
14855 1 18.1999 2.3739 27.6955
14856 1 16.6173 0.7913 29.2781
14857 1 18.1999 2.3739 30.8607
14858 1 16.6173 0.7913 32.4433
14859 1 18.1999 2.3739 34.0259
14860 1 16.6173 0.7913 35.6085
14861 1 18.1999 2.3739 37.1911
14862 1 16.6173 3.9565 22.9477
14863 1 18.1999 5.5391 24.5303
14864 1 16.6173 3.9565 26.1129
14865 1 18.1999 5.5391 27.6955
14866 1 16.6173 3.9565 29.2781
14867 1 18.1999 5.5391 30.8607
14868 1 16.6173 3.9565 32.4433
14869 1 18.1999 5.5391 34.0259
14870 1 16.6173 3.9565 35.6085
14871 1 18.1999 5.5391 37.1911
14872 1 16.6173 7.1217 22.9477
14873 1 18.1999 8.7043 24.5303
14874 1 16.6173 7.1217 26.1129
14875 1 18.1999 8.7043 27.6955
14876 1 16.6173 7.1217 29.2781
14877 1 18.1999 8.7043 30.8607
14878 1 16.6173 7.1217 32.4433
14879 1 18.1999 8.7043 34.0259
14880 1 16.6173 7.1217 35.6085
14881 1 18.1999 8.7043 37.1911
14882 1 16.6173 10.2869 22.9477
14883 1 18.1999 11.8695 24.5303
14884 1 16.6173 10.2869 26.1129
14885 1 18.1999 11.8695 27.6955
14886 1 16.6173 10.2869 29.2781
14887 1 18.1999 11.8695 30.8607
14888 1 16.6173 10.2869 32.4433
14889 1 18.1999 11.8695 34.0259
14890 1 16.6173 10.2869 35.6085
14891 1 18.1999 11.8695 37.1911
14892 1 16.6173 13.4521 22.9477
14893 1 18.1999 15.0347 24.5303
14894 1 16.6173 13.4521 26.1129
14895 1 18.1999 15.0347 27.6955
14896 1 16.6173 13.4521 29.2781
14897 1 18.1999 15.0347 30.8607
14898 1 16.6173 13.4521 32.4433
14899 1 18.1999 15.0347 34.0259
14900 1 16.6173 13.4521 35.6085
14901 1 18.1999 15.0347 37.1911
14902 1 16.6173 16.6173 22.9477
14903 1 18.1999 18.1999 24.5303
14904 1 16.6173 16.6173 26.1129
14905 1 18.1999 18.1999 27.6955
14906 1 16.6173 16.6173 29.2781
14907 1 18.1999 18.1999 30.8607
14908 1 16.6173 16.6173 32.4433
14909 1 18.1999 18.1999 34.0259
14910 1 16.6173 16.6173 35.6085
14911 1 18.1999 18.1999 37.1911
14912 1 19.7825 0.7913 22.9477
14913 1 21.3651 2.3739 24.5303
14914 1 19.7825 0.7913 26.1129
14915 1 21.3651 2.3739 27.6955
14916 1 19.7825 0.7913 29.2781
14917 1 21.3651 2.3739 30.8607
14918 1 19.7825 0.7913 32.4433
14919 1 21.3651 2.3739 34.0259
14920 1 19.7825 0.7913 35.6085
14921 1 21.3651 2.3739 37.1911
14922 1 19.7825 3.9565 22.9477
14923 1 21.3651 5.5391 24.5303
14924 1 19.7825 3.9565 26.1129
14925 1 21.3651 5.5391 27.6955
14926 1 19.7825 3.9565 29.2781
14927 1 21.3651 5.5391 30.8607
14928 1 19.7825 3.9565 32.4433
14929 1 21.3651 5.5391 34.0259
14930 1 19.7825 3.9565 35.6085
14931 1 21.3651 5.5391 37.1911
14932 1 19.7825 7.1217 22.9477
14933 1 21.3651 8.7043 24.5303
14934 1 19.7825 7.1217 26.1129
14935 1 21.3651 8.7043 27.6955
14936 1 19.7825 7.1217 29.2781
14937 1 21.3651 8.7043 30.8607
14938 1 19.7825 7.1217 32.4433
14939 1 21.3651 8.7043 34.0259
14940 1 19.7825 7.1217 35.6085
14941 1 21.3651 8.7043 37.1911
14942 1 19.7825 10.2869 22.9477
14943 1 21.3651 11.8695 24.5303
14944 1 19.7825 10.2869 26.1129
14945 1 21.3651 11.8695 27.6955
14946 1 19.7825 10.2869 29.2781
14947 1 21.3651 11.8695 30.8607
14948 1 19.7825 10.2869 32.4433
14949 1 21.3651 11.8695 34.0259
14950 1 19.7825 10.2869 35.6085
14951 1 21.3651 11.8695 37.1911
14952 1 19.7825 13.4521 22.9477
14953 1 21.3651 15.0347 24.5303
14954 1 19.7825 13.4521 26.1129
14955 1 21.3651 15.0347 27.6955
14956 1 19.7825 13.4521 29.2781
14957 1 21.3651 15.0347 30.8607
14958 1 19.7825 13.4521 32.4433
14959 1 21.3651 15.0347 34.0259
14960 1 19.7825 13.4521 35.6085
14961 1 21.3651 15.0347 37.1911
14962 1 19.7825 16.6173 22.9477
14963 1 21.3651 18.1999 24.5303
14964 1 19.7825 16.6173 26.1129
14965 1 21.3651 18.1999 27.6955
14966 1 19.7825 16.6173 29.2781
14967 1 21.3651 18.1999 30.8607
14968 1 19.7825 16.6173 32.4433
14969 1 21.3651 18.1999 34.0259
14970 1 19.7825 16.6173 35.6085
14971 1 21.3651 18.1999 37.1911
14972 1 22.9477 0.7913 22.9477
14973 1 24.5303 2.3739 24.5303
14974 1 22.9477 0.7913 26.1129
14975 1 24.5303 2.3739 27.6955
14976 1 22.9477 0.7913 29.2781
14977 1 24.5303 2.3739 30.8607
14978 1 22.9477 0.7913 32.4433
14979 1 24.5303 2.3739 34.0259
14980 1 22.9477 0.7913 35.6085
14981 1 24.5303 2.3739 37.1911
14982 1 22.9477 3.9565 22.9477
14983 1 24.5303 5.5391 24.5303
14984 1 22.9477 3.9565 26.1129
14985 1 24.5303 5.5391 27.6955
14986 1 22.9477 3.9565 29.2781
14987 1 24.5303 5.5391 30.8607
14988 1 22.9477 3.9565 32.4433
14989 1 24.5303 5.5391 34.0259
14990 1 22.9477 3.9565 35.6085
14991 1 24.5303 5.5391 37.1911
14992 1 22.9477 7.1217 22.9477
14993 1 24.5303 8.7043 24.5303
14994 1 22.9477 7.1217 26.1129
14995 1 24.5303 8.7043 27.6955
14996 1 22.9477 7.1217 29.2781
14997 1 24.5303 8.7043 30.8607
14998 1 22.9477 7.1217 32.4433
14999 1 24.5303 8.7043 34.0259
15000 1 22.9477 7.1217 35.6085
15001 1 24.5303 8.7043 37.1911
15002 1 22.9477 10.2869 22.9477
15003 1 24.5303 11.8695 24.5303
15004 1 22.9477 10.2869 26.1129
15005 1 24.5303 11.8695 27.6955
15006 1 22.9477 10.2869 29.2781
15007 1 24.5303 11.8695 30.8607
15008 1 22.9477 10.2869 32.4433
15009 1 24.5303 11.8695 34.0259
15010 1 22.9477 10.2869 35.6085
15011 1 24.5303 11.8695 37.1911
15012 1 22.9477 13.4521 22.9477
15013 1 24.5303 15.0347 24.5303
15014 1 22.9477 13.4521 26.1129
15015 1 24.5303 15.0347 27.6955
15016 1 22.9477 13.4521 29.2781
15017 1 24.5303 15.0347 30.8607
15018 1 22.9477 13.4521 32.4433
15019 1 24.5303 15.0347 34.0259
15020 1 22.9477 13.4521 35.6085
15021 1 24.5303 15.0347 37.1911
15022 1 22.9477 16.6173 22.9477
15023 1 24.5303 18.1999 24.5303
15024 1 22.9477 16.6173 26.1129
15025 1 24.5303 18.1999 27.6955
15026 1 22.9477 16.6173 29.2781
15027 1 24.5303 18.1999 30.8607
15028 1 22.9477 16.6173 32.4433
15029 1 24.5303 18.1999 34.0259
15030 1 22.9477 16.6173 35.6085
15031 1 24.5303 18.1999 37.1911
15032 1 26.1129 0.7913 22.9477
15033 1 27.6955 2.3739 24.5303
15034 1 26.1129 0.7913 26.1129
15035 1 27.6955 2.3739 27.6955
15036 1 26.1129 0.7913 29.2781
15037 1 27.6955 2.3739 30.8607
15038 1 26.1129 0.7913 32.4433
15039 1 27.6955 2.3739 34.0259
15040 1 26.1129 0.7913 35.6085
15041 1 27.6955 2.3739 37.1911
15042 1 26.1129 3.9565 22.9477
15043 1 27.6955 5.5391 24.5303
15044 1 26.1129 3.9565 26.1129
15045 1 27.6955 5.5391 27.6955
15046 1 26.1129 3.9565 29.2781
15047 1 27.6955 5.5391 30.8607
15048 1 26.1129 3.9565 32.4433
15049 1 27.6955 5.5391 34.0259
15050 1 26.1129 3.9565 35.6085
15051 1 27.6955 5.5391 37.1911
15052 1 26.1129 7.1217 22.9477
15053 1 27.6955 8.7043 24.5303
15054 1 26.1129 7.1217 26.1129
15055 1 27.6955 8.7043 27.6955
15056 1 26.1129 7.1217 29.2781
15057 1 27.6955 8.7043 30.8607
15058 1 26.1129 7.1217 32.4433
15059 1 27.6955 8.7043 34.0259
15060 1 26.1129 7.1217 35.6085
15061 1 27.6955 8.7043 37.1911
15062 1 26.1129 10.2869 22.9477
15063 1 27.6955 11.8695 24.5303
15064 1 26.1129 10.2869 26.1129
15065 1 27.6955 11.8695 27.6955
15066 1 26.1129 10.2869 29.2781
15067 1 27.6955 11.8695 30.8607
15068 1 26.1129 10.2869 32.4433
15069 1 27.6955 11.8695 34.0259
15070 1 26.1129 10.2869 35.6085
15071 1 27.6955 11.8695 37.1911
15072 1 26.1129 13.4521 22.9477
15073 1 27.6955 15.0347 24.5303
15074 1 26.1129 13.4521 26.1129
15075 1 27.6955 15.0347 27.6955
15076 1 26.1129 13.4521 29.2781
15077 1 27.6955 15.0347 30.8607
15078 1 26.1129 13.4521 32.4433
15079 1 27.6955 15.0347 34.0259
15080 1 26.1129 13.4521 35.6085
15081 1 27.6955 15.0347 37.1911
15082 1 26.1129 16.6173 22.9477
15083 1 27.6955 18.1999 24.5303
15084 1 26.1129 16.6173 26.1129
15085 1 27.6955 18.1999 27.6955
15086 1 26.1129 16.6173 29.2781
15087 1 27.6955 18.1999 30.8607
15088 1 26.1129 16.6173 32.4433
15089 1 27.6955 18.1999 34.0259
15090 1 26.1129 16.6173 35.6085
15091 1 27.6955 18.1999 37.1911
15092 1 29.2781 0.7913 22.9477
15093 1 30.8607 2.3739 24.5303
15094 1 29.2781 0.7913 26.1129
15095 1 30.8607 2.3739 27.6955
15096 1 29.2781 0.7913 29.2781
15097 1 30.8607 2.3739 30.8607
15098 1 29.2781 0.7913 32.4433
15099 1 30.8607 2.3739 34.0259
15100 1 29.2781 0.7913 35.6085
15101 1 30.8607 2.3739 37.1911
15102 1 29.2781 3.9565 22.9477
15103 1 30.8607 5.5391 24.5303
15104 1 29.2781 3.9565 26.1129
15105 1 30.8607 5.5391 27.6955
15106 1 29.2781 3.9565 29.2781
15107 1 30.8607 5.5391 30.8607
15108 1 29.2781 3.9565 32.4433
15109 1 30.8607 5.5391 34.0259
15110 1 29.2781 3.9565 35.6085
15111 1 30.8607 5.5391 37.1911
15112 1 29.2781 7.1217 22.9477
15113 1 30.8607 8.7043 24.5303
15114 1 29.2781 7.1217 26.1129
15115 1 30.8607 8.7043 27.6955
15116 1 29.2781 7.1217 29.2781
15117 1 30.8607 8.7043 30.8607
15118 1 29.2781 7.1217 32.4433
15119 1 30.8607 8.7043 34.0259
15120 1 29.2781 7.1217 35.6085
15121 1 30.8607 8.7043 37.1911
15122 1 29.2781 10.2869 22.9477
15123 1 30.8607 11.8695 24.5303
15124 1 29.2781 10.2869 26.1129
15125 1 30.8607 11.8695 27.6955
15126 1 29.2781 10.2869 29.2781
15127 1 30.8607 11.8695 30.8607
15128 1 29.2781 10.2869 32.4433
15129 1 30.8607 11.8695 34.0259
15130 1 29.2781 10.2869 35.6085
15131 1 30.8607 11.8695 37.1911
15132 1 29.2781 13.4521 22.9477
15133 1 30.8607 15.0347 24.5303
15134 1 29.2781 13.4521 26.1129
15135 1 30.8607 15.0347 27.6955
15136 1 29.2781 13.4521 29.2781
15137 1 30.8607 15.0347 30.8607
15138 1 29.2781 13.4521 32.4433
15139 1 30.8607 15.0347 34.0259
15140 1 29.2781 13.4521 35.6085
15141 1 30.8607 15.0347 37.1911
15142 1 29.2781 16.6173 22.9477
15143 1 30.8607 18.1999 24.5303
15144 1 29.2781 16.6173 26.1129
15145 1 30.8607 18.1999 27.6955
15146 1 29.2781 16.6173 29.2781
15147 1 30.8607 18.1999 30.8607
15148 1 29.2781 16.6173 32.4433
15149 1 30.8607 18.1999 34.0259
15150 1 29.2781 16.6173 35.6085
15151 1 30.8607 18.1999 37.1911
15152 1 32.4433 0.7913 22.9477
15153 1 34.0259 2.3739 24.5303
15154 1 32.4433 0.7913 26.1129
15155 1 34.0259 2.3739 27.6955
15156 1 32.4433 0.7913 29.2781
15157 1 34.0259 2.3739 30.8607
15158 1 32.4433 0.7913 32.4433
15159 1 34.0259 2.3739 34.0259
15160 1 32.4433 0.7913 35.6085
15161 1 34.0259 2.3739 37.1911
15162 1 32.4433 3.9565 22.9477
15163 1 34.0259 5.5391 24.5303
15164 1 32.4433 3.9565 26.1129
15165 1 34.0259 5.5391 27.6955
15166 1 32.4433 3.9565 29.2781
15167 1 34.0259 5.5391 30.8607
15168 1 32.4433 3.9565 32.4433
15169 1 34.0259 5.5391 34.0259
15170 1 32.4433 3.9565 35.6085
15171 1 34.0259 5.5391 37.1911
15172 1 32.4433 7.1217 22.9477
15173 1 34.0259 8.7043 24.5303
15174 1 32.4433 7.1217 26.1129
15175 1 34.0259 8.7043 27.6955
15176 1 32.4433 7.1217 29.2781
15177 1 34.0259 8.7043 30.8607
15178 1 32.4433 7.1217 32.4433
15179 1 34.0259 8.7043 34.0259
15180 1 32.4433 7.1217 35.6085
15181 1 34.0259 8.7043 37.1911
15182 1 32.4433 10.2869 22.9477
15183 1 34.0259 11.8695 24.5303
15184 1 32.4433 10.2869 26.1129
15185 1 34.0259 11.8695 27.6955
15186 1 32.4433 10.2869 29.2781
15187 1 34.0259 11.8695 30.8607
15188 1 32.4433 10.2869 32.4433
15189 1 34.0259 11.8695 34.0259
15190 1 32.4433 10.2869 35.6085
15191 1 34.0259 11.8695 37.1911
15192 1 32.4433 13.4521 22.9477
15193 1 34.0259 15.0347 24.5303
15194 1 32.4433 13.4521 26.1129
15195 1 34.0259 15.0347 27.6955
15196 1 32.4433 13.4521 29.2781
15197 1 34.0259 15.0347 30.8607
15198 1 32.4433 13.4521 32.4433
15199 1 34.0259 15.0347 34.0259
15200 1 32.4433 13.4521 35.6085
15201 1 34.0259 15.0347 37.1911
15202 1 32.4433 16.6173 22.9477
15203 1 34.0259 18.1999 24.5303
15204 1 32.4433 16.6173 26.1129
15205 1 34.0259 18.1999 27.6955
15206 1 32.4433 16.6173 29.2781
15207 1 34.0259 18.1999 30.8607
15208 1 32.4433 16.6173 32.4433
15209 1 34.0259 18.1999 34.0259
15210 1 32.4433 16.6173 35.6085
15211 1 34.0259 18.1999 37.1911
15212 1 35.6085 0.7913 22.9477
15213 1 37.1911 2.3739 24.5303
15214 1 35.6085 0.7913 26.1129
15215 1 37.1911 2.3739 27.6955
15216 1 35.6085 0.7913 29.2781
15217 1 37.1911 2.3739 30.8607
15218 1 35.6085 0.7913 32.4433
15219 1 37.1911 2.3739 34.0259
15220 1 35.6085 0.7913 35.6085
15221 1 37.1911 2.3739 37.1911
15222 1 35.6085 3.9565 22.9477
15223 1 37.1911 5.5391 24.5303
15224 1 35.6085 3.9565 26.1129
15225 1 37.1911 5.5391 27.6955
15226 1 35.6085 3.9565 29.2781
15227 1 37.1911 5.5391 30.8607
15228 1 35.6085 3.9565 32.4433
15229 1 37.1911 5.5391 34.0259
15230 1 35.6085 3.9565 35.6085
15231 1 37.1911 5.5391 37.1911
15232 1 35.6085 7.1217 22.9477
15233 1 37.1911 8.7043 24.5303
15234 1 35.6085 7.1217 26.1129
15235 1 37.1911 8.7043 27.6955
15236 1 35.6085 7.1217 29.2781
15237 1 37.1911 8.7043 30.8607
15238 1 35.6085 7.1217 32.4433
15239 1 37.1911 8.7043 34.0259
15240 1 35.6085 7.1217 35.6085
15241 1 37.1911 8.7043 37.1911
15242 1 35.6085 10.2869 22.9477
15243 1 37.1911 11.8695 24.5303
15244 1 35.6085 10.2869 26.1129
15245 1 37.1911 11.8695 27.6955
15246 1 35.6085 10.2869 29.2781
15247 1 37.1911 11.8695 30.8607
15248 1 35.6085 10.2869 32.4433
15249 1 37.1911 11.8695 34.0259
15250 1 35.6085 10.2869 35.6085
15251 1 37.1911 11.8695 37.1911
15252 1 35.6085 13.4521 22.9477
15253 1 37.1911 15.0347 24.5303
15254 1 35.6085 13.4521 26.1129
15255 1 37.1911 15.0347 27.6955
15256 1 35.6085 13.4521 29.2781
15257 1 37.1911 15.0347 30.8607
15258 1 35.6085 13.4521 32.4433
15259 1 37.1911 15.0347 34.0259
15260 1 35.6085 13.4521 35.6085
15261 1 37.1911 15.0347 37.1911
15262 1 35.6085 16.6173 22.9477
15263 1 37.1911 18.1999 24.5303
15264 1 35.6085 16.6173 26.1129
15265 1 37.1911 18.1999 27.6955
15266 1 35.6085 16.6173 29.2781
15267 1 37.1911 18.1999 30.8607
15268 1 35.6085 16.6173 32.4433
15269 1 37.1911 18.1999 34.0259
15270 1 35.6085 16.6173 35.6085
15271 1 37.1911 18.1999 37.1911
15272 1 38.7737 0.7913 22.9477
15273 1 40.3563 2.3739 24.5303
15274 1 38.7737 0.7913 26.1129
15275 1 40.3563 2.3739 27.6955
15276 1 38.7737 0.7913 29.2781
15277 1 40.3563 2.3739 30.8607
15278 1 38.7737 0.7913 32.4433
15279 1 40.3563 2.3739 34.0259
15280 1 38.7737 0.7913 35.6085
15281 1 40.3563 2.3739 37.1911
15282 1 38.7737 3.9565 22.9477
15283 1 40.3563 5.5391 24.5303
15284 1 38.7737 3.9565 26.1129
15285 1 40.3563 5.5391 27.6955
15286 1 38.7737 3.9565 29.2781
15287 1 40.3563 5.5391 30.8607
15288 1 38.7737 3.9565 32.4433
15289 1 40.3563 5.5391 34.0259
15290 1 38.7737 3.9565 35.6085
15291 1 40.3563 5.5391 37.1911
15292 1 38.7737 7.1217 22.9477
15293 1 40.3563 8.7043 24.5303
15294 1 38.7737 7.1217 26.1129
15295 1 40.3563 8.7043 27.6955
15296 1 38.7737 7.1217 29.2781
15297 1 40.3563 8.7043 30.8607
15298 1 38.7737 7.1217 32.4433
15299 1 40.3563 8.7043 34.0259
15300 1 38.7737 7.1217 35.6085
15301 1 40.3563 8.7043 37.1911
15302 1 38.7737 10.2869 22.9477
15303 1 40.3563 11.8695 24.5303
15304 1 38.7737 10.2869 26.1129
15305 1 40.3563 11.8695 27.6955
15306 1 38.7737 10.2869 29.2781
15307 1 40.3563 11.8695 30.8607
15308 1 38.7737 10.2869 32.4433
15309 1 40.3563 11.8695 34.0259
15310 1 38.7737 10.2869 35.6085
15311 1 40.3563 11.8695 37.1911
15312 1 38.7737 13.4521 22.9477
15313 1 40.3563 15.0347 24.5303
15314 1 38.7737 13.4521 26.1129
15315 1 40.3563 15.0347 27.6955
15316 1 38.7737 13.4521 29.2781
15317 1 40.3563 15.0347 30.8607
15318 1 38.7737 13.4521 32.4433
15319 1 40.3563 15.0347 34.0259
15320 1 38.7737 13.4521 35.6085
15321 1 40.3563 15.0347 37.1911
15322 1 38.7737 16.6173 22.9477
15323 1 40.3563 18.1999 24.5303
15324 1 38.7737 16.6173 26.1129
15325 1 40.3563 18.1999 27.6955
15326 1 38.7737 16.6173 29.2781
15327 1 40.3563 18.1999 30.8607
15328 1 38.7737 16.6173 32.4433
15329 1 40.3563 18.1999 34.0259
15330 1 38.7737 16.6173 35.6085
15331 1 40.3563 18.1999 37.1911
15332 1 41.9389 0.7913 22.9477
15333 1 43.5215 2.3739 24.5303
15334 1 41.9389 0.7913 26.1129
15335 1 43.5215 2.3739 27.6955
15336 1 41.9389 0.7913 29.2781
15337 1 43.5215 2.3739 30.8607
15338 1 41.9389 0.7913 32.4433
15339 1 43.5215 2.3739 34.0259
15340 1 41.9389 0.7913 35.6085
15341 1 43.5215 2.3739 37.1911
15342 1 41.9389 3.9565 22.9477
15343 1 43.5215 5.5391 24.5303
15344 1 41.9389 3.9565 26.1129
15345 1 43.5215 5.5391 27.6955
15346 1 41.9389 3.9565 29.2781
15347 1 43.5215 5.5391 30.8607
15348 1 41.9389 3.9565 32.4433
15349 1 43.5215 5.5391 34.0259
15350 1 41.9389 3.9565 35.6085
15351 1 43.5215 5.5391 37.1911
15352 1 41.9389 7.1217 22.9477
15353 1 43.5215 8.7043 24.5303
15354 1 41.9389 7.1217 26.1129
15355 1 43.5215 8.7043 27.6955
15356 1 41.9389 7.1217 29.2781
15357 1 43.5215 8.7043 30.8607
15358 1 41.9389 7.1217 32.4433
15359 1 43.5215 8.7043 34.0259
15360 1 41.9389 7.1217 35.6085
15361 1 43.5215 8.7043 37.1911
15362 1 41.9389 10.2869 22.9477
15363 1 43.5215 11.8695 24.5303
15364 1 41.9389 10.2869 26.1129
15365 1 43.5215 11.8695 27.6955
15366 1 41.9389 10.2869 29.2781
15367 1 43.5215 11.8695 30.8607
15368 1 41.9389 10.2869 32.4433
15369 1 43.5215 11.8695 34.0259
15370 1 41.9389 10.2869 35.6085
15371 1 43.5215 11.8695 37.1911
15372 1 41.9389 13.4521 22.9477
15373 1 43.5215 15.0347 24.5303
15374 1 41.9389 13.4521 26.1129
15375 1 43.5215 15.0347 27.6955
15376 1 41.9389 13.4521 29.2781
15377 1 43.5215 15.0347 30.8607
15378 1 41.9389 13.4521 32.4433
15379 1 43.5215 15.0347 34.0259
15380 1 41.9389 13.4521 35.6085
15381 1 43.5215 15.0347 37.1911
15382 1 41.9389 16.6173 22.9477
15383 1 43.5215 18.1999 24.5303
15384 1 41.9389 16.6173 26.1129
15385 1 43.5215 18.1999 27.6955
15386 1 41.9389 16.6173 29.2781
15387 1 43.5215 18.1999 30.8607
15388 1 41.9389 16.6173 32.4433
15389 1 43.5215 18.1999 34.0259
15390 1 41.9389 16.6173 35.6085
15391 1 43.5215 18.1999 37.1911
15392 1 16.6173 41.9389 22.9477
15393 1 18.1999 43.5215 24.5303
15394 1 16.6173 41.9389 26.1129
15395 1 18.1999 43.5215 27.6955
15396 1 16.6173 41.9389 29.2781
15397 1 18.1999 43.5215 30.8607
15398 1 16.6173 41.9389 32.4433
15399 1 18.1999 43.5215 34.0259
15400 1 16.6173 41.9389 35.6085
15401 1 18.1999 43.5215 37.1911
15402 1 16.6173 45.1041 22.9477
15403 1 18.1999 46.6867 24.5303
15404 1 16.6173 45.1041 26.1129
15405 1 18.1999 46.6867 27.6955
15406 1 16.6173 45.1041 29.2781
15407 1 18.1999 46.6867 30.8607
15408 1 16.6173 45.1041 32.4433
15409 1 18.1999 46.6867 34.0259
15410 1 16.6173 45.1041 35.6085
15411 1 18.1999 46.6867 37.1911
15412 1 16.6173 48.2693 22.9477
15413 1 18.1999 49.8519 24.5303
15414 1 16.6173 48.2693 26.1129
15415 1 18.1999 49.8519 27.6955
15416 1 16.6173 48.2693 29.2781
15417 1 18.1999 49.8519 30.8607
15418 1 16.6173 48.2693 32.4433
15419 1 18.1999 49.8519 34.0259
15420 1 16.6173 48.2693 35.6085
15421 1 18.1999 49.8519 37.1911
15422 1 16.6173 51.4345 22.9477
15423 1 18.1999 53.0171 24.5303
15424 1 16.6173 51.4345 26.1129
15425 1 18.1999 53.0171 27.6955
15426 1 16.6173 51.4345 29.2781
15427 1 18.1999 53.0171 30.8607
15428 1 16.6173 51.4345 32.4433
15429 1 18.1999 53.0171 34.0259
15430 1 16.6173 51.4345 35.6085
15431 1 18.1999 53.0171 37.1911
15432 1 16.6173 54.5997 22.9477
15433 1 18.1999 56.1823 24.5303
15434 1 16.6173 54.5997 26.1129
15435 1 18.1999 56.1823 27.6955
15436 1 16.6173 54.5997 29.2781
15437 1 18.1999 56.1823 30.8607
15438 1 16.6173 54.5997 32.4433
15439 1 18.1999 56.1823 34.0259
15440 1 16.6173 54.5997 35.6085
15441 1 18.1999 56.1823 37.1911
15442 1 16.6173 57.7649 22.9477
15443 1 18.1999 59.3475 24.5303
15444 1 16.6173 57.7649 26.1129
15445 1 18.1999 59.3475 27.6955
15446 1 16.6173 57.7649 29.2781
15447 1 18.1999 59.3475 30.8607
15448 1 16.6173 57.7649 32.4433
15449 1 18.1999 59.3475 34.0259
15450 1 16.6173 57.7649 35.6085
15451 1 18.1999 59.3475 37.1911
15452 1 16.6173 60.9301 22.9477
15453 1 18.1999 62.5127 24.5303
15454 1 16.6173 60.9301 26.1129
15455 1 18.1999 62.5127 27.6955
15456 1 16.6173 60.9301 29.2781
15457 1 18.1999 62.5127 30.8607
15458 1 16.6173 60.9301 32.4433
15459 1 18.1999 62.5127 34.0259
15460 1 16.6173 60.9301 35.6085
15461 1 18.1999 62.5127 37.1911
15462 1 19.7825 41.9389 22.9477
15463 1 21.3651 43.5215 24.5303
15464 1 19.7825 41.9389 26.1129
15465 1 21.3651 43.5215 27.6955
15466 1 19.7825 41.9389 29.2781
15467 1 21.3651 43.5215 30.8607
15468 1 19.7825 41.9389 32.4433
15469 1 21.3651 43.5215 34.0259
15470 1 19.7825 41.9389 35.6085
15471 1 21.3651 43.5215 37.1911
15472 1 19.7825 45.1041 22.9477
15473 1 21.3651 46.6867 24.5303
15474 1 19.7825 45.1041 26.1129
15475 1 21.3651 46.6867 27.6955
15476 1 19.7825 45.1041 29.2781
15477 1 21.3651 46.6867 30.8607
15478 1 19.7825 45.1041 32.4433
15479 1 21.3651 46.6867 34.0259
15480 1 19.7825 45.1041 35.6085
15481 1 21.3651 46.6867 37.1911
15482 1 19.7825 48.2693 22.9477
15483 1 21.3651 49.8519 24.5303
15484 1 19.7825 48.2693 26.1129
15485 1 21.3651 49.8519 27.6955
15486 1 19.7825 48.2693 29.2781
15487 1 21.3651 49.8519 30.8607
15488 1 19.7825 48.2693 32.4433
15489 1 21.3651 49.8519 34.0259
15490 1 19.7825 48.2693 35.6085
15491 1 21.3651 49.8519 37.1911
15492 1 19.7825 51.4345 22.9477
15493 1 21.3651 53.0171 24.5303
15494 1 19.7825 51.4345 26.1129
15495 1 21.3651 53.0171 27.6955
15496 1 19.7825 51.4345 29.2781
15497 1 21.3651 53.0171 30.8607
15498 1 19.7825 51.4345 32.4433
15499 1 21.3651 53.0171 34.0259
15500 1 19.7825 51.4345 35.6085
15501 1 21.3651 53.0171 37.1911
15502 1 19.7825 54.5997 22.9477
15503 1 21.3651 56.1823 24.5303
15504 1 19.7825 54.5997 26.1129
15505 1 21.3651 56.1823 27.6955
15506 1 19.7825 54.5997 29.2781
15507 1 21.3651 56.1823 30.8607
15508 1 19.7825 54.5997 32.4433
15509 1 21.3651 56.1823 34.0259
15510 1 19.7825 54.5997 35.6085
15511 1 21.3651 56.1823 37.1911
15512 1 19.7825 57.7649 22.9477
15513 1 21.3651 59.3475 24.5303
15514 1 19.7825 57.7649 26.1129
15515 1 21.3651 59.3475 27.6955
15516 1 19.7825 57.7649 29.2781
15517 1 21.3651 59.3475 30.8607
15518 1 19.7825 57.7649 32.4433
15519 1 21.3651 59.3475 34.0259
15520 1 19.7825 57.7649 35.6085
15521 1 21.3651 59.3475 37.1911
15522 1 19.7825 60.9301 22.9477
15523 1 21.3651 62.5127 24.5303
15524 1 19.7825 60.9301 26.1129
15525 1 21.3651 62.5127 27.6955
15526 1 19.7825 60.9301 29.2781
15527 1 21.3651 62.5127 30.8607
15528 1 19.7825 60.9301 32.4433
15529 1 21.3651 62.5127 34.0259
15530 1 19.7825 60.9301 35.6085
15531 1 21.3651 62.5127 37.1911
15532 1 22.9477 41.9389 22.9477
15533 1 24.5303 43.5215 24.5303
15534 1 22.9477 41.9389 26.1129
15535 1 24.5303 43.5215 27.6955
15536 1 22.9477 41.9389 29.2781
15537 1 24.5303 43.5215 30.8607
15538 1 22.9477 41.9389 32.4433
15539 1 24.5303 43.5215 34.0259
15540 1 22.9477 41.9389 35.6085
15541 1 24.5303 43.5215 37.1911
15542 1 22.9477 45.1041 22.9477
15543 1 24.5303 46.6867 24.5303
15544 1 22.9477 45.1041 26.1129
15545 1 24.5303 46.6867 27.6955
15546 1 22.9477 45.1041 29.2781
15547 1 24.5303 46.6867 30.8607
15548 1 22.9477 45.1041 32.4433
15549 1 24.5303 46.6867 34.0259
15550 1 22.9477 45.1041 35.6085
15551 1 24.5303 46.6867 37.1911
15552 1 22.9477 48.2693 22.9477
15553 1 24.5303 49.8519 24.5303
15554 1 22.9477 48.2693 26.1129
15555 1 24.5303 49.8519 27.6955
15556 1 22.9477 48.2693 29.2781
15557 1 24.5303 49.8519 30.8607
15558 1 22.9477 48.2693 32.4433
15559 1 24.5303 49.8519 34.0259
15560 1 22.9477 48.2693 35.6085
15561 1 24.5303 49.8519 37.1911
15562 1 22.9477 51.4345 22.9477
15563 1 24.5303 53.0171 24.5303
15564 1 22.9477 51.4345 26.1129
15565 1 24.5303 53.0171 27.6955
15566 1 22.9477 51.4345 29.2781
15567 1 24.5303 53.0171 30.8607
15568 1 22.9477 51.4345 32.4433
15569 1 24.5303 53.0171 34.0259
15570 1 22.9477 51.4345 35.6085
15571 1 24.5303 53.0171 37.1911
15572 1 22.9477 54.5997 22.9477
15573 1 24.5303 56.1823 24.5303
15574 1 22.9477 54.5997 26.1129
15575 1 24.5303 56.1823 27.6955
15576 1 22.9477 54.5997 29.2781
15577 1 24.5303 56.1823 30.8607
15578 1 22.9477 54.5997 32.4433
15579 1 24.5303 56.1823 34.0259
15580 1 22.9477 54.5997 35.6085
15581 1 24.5303 56.1823 37.1911
15582 1 22.9477 57.7649 22.9477
15583 1 24.5303 59.3475 24.5303
15584 1 22.9477 57.7649 26.1129
15585 1 24.5303 59.3475 27.6955
15586 1 22.9477 57.7649 29.2781
15587 1 24.5303 59.3475 30.8607
15588 1 22.9477 57.7649 32.4433
15589 1 24.5303 59.3475 34.0259
15590 1 22.9477 57.7649 35.6085
15591 1 24.5303 59.3475 37.1911
15592 1 22.9477 60.9301 22.9477
15593 1 24.5303 62.5127 24.5303
15594 1 22.9477 60.9301 26.1129
15595 1 24.5303 62.5127 27.6955
15596 1 22.9477 60.9301 29.2781
15597 1 24.5303 62.5127 30.8607
15598 1 22.9477 60.9301 32.4433
15599 1 24.5303 62.5127 34.0259
15600 1 22.9477 60.9301 35.6085
15601 1 24.5303 62.5127 37.1911
15602 1 26.1129 41.9389 22.9477
15603 1 27.6955 43.5215 24.5303
15604 1 26.1129 41.9389 26.1129
15605 1 27.6955 43.5215 27.6955
15606 1 26.1129 41.9389 29.2781
15607 1 27.6955 43.5215 30.8607
15608 1 26.1129 41.9389 32.4433
15609 1 27.6955 43.5215 34.0259
15610 1 26.1129 41.9389 35.6085
15611 1 27.6955 43.5215 37.1911
15612 1 26.1129 45.1041 22.9477
15613 1 27.6955 46.6867 24.5303
15614 1 26.1129 45.1041 26.1129
15615 1 27.6955 46.6867 27.6955
15616 1 26.1129 45.1041 29.2781
15617 1 27.6955 46.6867 30.8607
15618 1 26.1129 45.1041 32.4433
15619 1 27.6955 46.6867 34.0259
15620 1 26.1129 45.1041 35.6085
15621 1 27.6955 46.6867 37.1911
15622 1 26.1129 48.2693 22.9477
15623 1 27.6955 49.8519 24.5303
15624 1 26.1129 48.2693 26.1129
15625 1 27.6955 49.8519 27.6955
15626 1 26.1129 48.2693 29.2781
15627 1 27.6955 49.8519 30.8607
15628 1 26.1129 48.2693 32.4433
15629 1 27.6955 49.8519 34.0259
15630 1 26.1129 48.2693 35.6085
15631 1 27.6955 49.8519 37.1911
15632 1 26.1129 51.4345 22.9477
15633 1 27.6955 53.0171 24.5303
15634 1 26.1129 51.4345 26.1129
15635 1 27.6955 53.0171 27.6955
15636 1 26.1129 51.4345 29.2781
15637 1 27.6955 53.0171 30.8607
15638 1 26.1129 51.4345 32.4433
15639 1 27.6955 53.0171 34.0259
15640 1 26.1129 51.4345 35.6085
15641 1 27.6955 53.0171 37.1911
15642 1 26.1129 54.5997 22.9477
15643 1 27.6955 56.1823 24.5303
15644 1 26.1129 54.5997 26.1129
15645 1 27.6955 56.1823 27.6955
15646 1 26.1129 54.5997 29.2781
15647 1 27.6955 56.1823 30.8607
15648 1 26.1129 54.5997 32.4433
15649 1 27.6955 56.1823 34.0259
15650 1 26.1129 54.5997 35.6085
15651 1 27.6955 56.1823 37.1911
15652 1 26.1129 57.7649 22.9477
15653 1 27.6955 59.3475 24.5303
15654 1 26.1129 57.7649 26.1129
15655 1 27.6955 59.3475 27.6955
15656 1 26.1129 57.7649 29.2781
15657 1 27.6955 59.3475 30.8607
15658 1 26.1129 57.7649 32.4433
15659 1 27.6955 59.3475 34.0259
15660 1 26.1129 57.7649 35.6085
15661 1 27.6955 59.3475 37.1911
15662 1 26.1129 60.9301 22.9477
15663 1 27.6955 62.5127 24.5303
15664 1 26.1129 60.9301 26.1129
15665 1 27.6955 62.5127 27.6955
15666 1 26.1129 60.9301 29.2781
15667 1 27.6955 62.5127 30.8607
15668 1 26.1129 60.9301 32.4433
15669 1 27.6955 62.5127 34.0259
15670 1 26.1129 60.9301 35.6085
15671 1 27.6955 62.5127 37.1911
15672 1 29.2781 41.9389 22.9477
15673 1 30.8607 43.5215 24.5303
15674 1 29.2781 41.9389 26.1129
15675 1 30.8607 43.5215 27.6955
15676 1 29.2781 41.9389 29.2781
15677 1 30.8607 43.5215 30.8607
15678 1 29.2781 41.9389 32.4433
15679 1 30.8607 43.5215 34.0259
15680 1 29.2781 41.9389 35.6085
15681 1 30.8607 43.5215 37.1911
15682 1 29.2781 45.1041 22.9477
15683 1 30.8607 46.6867 24.5303
15684 1 29.2781 45.1041 26.1129
15685 1 30.8607 46.6867 27.6955
15686 1 29.2781 45.1041 29.2781
15687 1 30.8607 46.6867 30.8607
15688 1 29.2781 45.1041 32.4433
15689 1 30.8607 46.6867 34.0259
15690 1 29.2781 45.1041 35.6085
15691 1 30.8607 46.6867 37.1911
15692 1 29.2781 48.2693 22.9477
15693 1 30.8607 49.8519 24.5303
15694 1 29.2781 48.2693 26.1129
15695 1 30.8607 49.8519 27.6955
15696 1 29.2781 48.2693 29.2781
15697 1 30.8607 49.8519 30.8607
15698 1 29.2781 48.2693 32.4433
15699 1 30.8607 49.8519 34.0259
15700 1 29.2781 48.2693 35.6085
15701 1 30.8607 49.8519 37.1911
15702 1 29.2781 51.4345 22.9477
15703 1 30.8607 53.0171 24.5303
15704 1 29.2781 51.4345 26.1129
15705 1 30.8607 53.0171 27.6955
15706 1 29.2781 51.4345 29.2781
15707 1 30.8607 53.0171 30.8607
15708 1 29.2781 51.4345 32.4433
15709 1 30.8607 53.0171 34.0259
15710 1 29.2781 51.4345 35.6085
15711 1 30.8607 53.0171 37.1911
15712 1 29.2781 54.5997 22.9477
15713 1 30.8607 56.1823 24.5303
15714 1 29.2781 54.5997 26.1129
15715 1 30.8607 56.1823 27.6955
15716 1 29.2781 54.5997 29.2781
15717 1 30.8607 56.1823 30.8607
15718 1 29.2781 54.5997 32.4433
15719 1 30.8607 56.1823 34.0259
15720 1 29.2781 54.5997 35.6085
15721 1 30.8607 56.1823 37.1911
15722 1 29.2781 57.7649 22.9477
15723 1 30.8607 59.3475 24.5303
15724 1 29.2781 57.7649 26.1129
15725 1 30.8607 59.3475 27.6955
15726 1 29.2781 57.7649 29.2781
15727 1 30.8607 59.3475 30.8607
15728 1 29.2781 57.7649 32.4433
15729 1 30.8607 59.3475 34.0259
15730 1 29.2781 57.7649 35.6085
15731 1 30.8607 59.3475 37.1911
15732 1 29.2781 60.9301 22.9477
15733 1 30.8607 62.5127 24.5303
15734 1 29.2781 60.9301 26.1129
15735 1 30.8607 62.5127 27.6955
15736 1 29.2781 60.9301 29.2781
15737 1 30.8607 62.5127 30.8607
15738 1 29.2781 60.9301 32.4433
15739 1 30.8607 62.5127 34.0259
15740 1 29.2781 60.9301 35.6085
15741 1 30.8607 62.5127 37.1911
15742 1 32.4433 41.9389 22.9477
15743 1 34.0259 43.5215 24.5303
15744 1 32.4433 41.9389 26.1129
15745 1 34.0259 43.5215 27.6955
15746 1 32.4433 41.9389 29.2781
15747 1 34.0259 43.5215 30.8607
15748 1 32.4433 41.9389 32.4433
15749 1 34.0259 43.5215 34.0259
15750 1 32.4433 41.9389 35.6085
15751 1 34.0259 43.5215 37.1911
15752 1 32.4433 45.1041 22.9477
15753 1 34.0259 46.6867 24.5303
15754 1 32.4433 45.1041 26.1129
15755 1 34.0259 46.6867 27.6955
15756 1 32.4433 45.1041 29.2781
15757 1 34.0259 46.6867 30.8607
15758 1 32.4433 45.1041 32.4433
15759 1 34.0259 46.6867 34.0259
15760 1 32.4433 45.1041 35.6085
15761 1 34.0259 46.6867 37.1911
15762 1 32.4433 48.2693 22.9477
15763 1 34.0259 49.8519 24.5303
15764 1 32.4433 48.2693 26.1129
15765 1 34.0259 49.8519 27.6955
15766 1 32.4433 48.2693 29.2781
15767 1 34.0259 49.8519 30.8607
15768 1 32.4433 48.2693 32.4433
15769 1 34.0259 49.8519 34.0259
15770 1 32.4433 48.2693 35.6085
15771 1 34.0259 49.8519 37.1911
15772 1 32.4433 51.4345 22.9477
15773 1 34.0259 53.0171 24.5303
15774 1 32.4433 51.4345 26.1129
15775 1 34.0259 53.0171 27.6955
15776 1 32.4433 51.4345 29.2781
15777 1 34.0259 53.0171 30.8607
15778 1 32.4433 51.4345 32.4433
15779 1 34.0259 53.0171 34.0259
15780 1 32.4433 51.4345 35.6085
15781 1 34.0259 53.0171 37.1911
15782 1 32.4433 54.5997 22.9477
15783 1 34.0259 56.1823 24.5303
15784 1 32.4433 54.5997 26.1129
15785 1 34.0259 56.1823 27.6955
15786 1 32.4433 54.5997 29.2781
15787 1 34.0259 56.1823 30.8607
15788 1 32.4433 54.5997 32.4433
15789 1 34.0259 56.1823 34.0259
15790 1 32.4433 54.5997 35.6085
15791 1 34.0259 56.1823 37.1911
15792 1 32.4433 57.7649 22.9477
15793 1 34.0259 59.3475 24.5303
15794 1 32.4433 57.7649 26.1129
15795 1 34.0259 59.3475 27.6955
15796 1 32.4433 57.7649 29.2781
15797 1 34.0259 59.3475 30.8607
15798 1 32.4433 57.7649 32.4433
15799 1 34.0259 59.3475 34.0259
15800 1 32.4433 57.7649 35.6085
15801 1 34.0259 59.3475 37.1911
15802 1 32.4433 60.9301 22.9477
15803 1 34.0259 62.5127 24.5303
15804 1 32.4433 60.9301 26.1129
15805 1 34.0259 62.5127 27.6955
15806 1 32.4433 60.9301 29.2781
15807 1 34.0259 62.5127 30.8607
15808 1 32.4433 60.9301 32.4433
15809 1 34.0259 62.5127 34.0259
15810 1 32.4433 60.9301 35.6085
15811 1 34.0259 62.5127 37.1911
15812 1 35.6085 41.9389 22.9477
15813 1 37.1911 43.5215 24.5303
15814 1 35.6085 41.9389 26.1129
15815 1 37.1911 43.5215 27.6955
15816 1 35.6085 41.9389 29.2781
15817 1 37.1911 43.5215 30.8607
15818 1 35.6085 41.9389 32.4433
15819 1 37.1911 43.5215 34.0259
15820 1 35.6085 41.9389 35.6085
15821 1 37.1911 43.5215 37.1911
15822 1 35.6085 45.1041 22.9477
15823 1 37.1911 46.6867 24.5303
15824 1 35.6085 45.1041 26.1129
15825 1 37.1911 46.6867 27.6955
15826 1 35.6085 45.1041 29.2781
15827 1 37.1911 46.6867 30.8607
15828 1 35.6085 45.1041 32.4433
15829 1 37.1911 46.6867 34.0259
15830 1 35.6085 45.1041 35.6085
15831 1 37.1911 46.6867 37.1911
15832 1 35.6085 48.2693 22.9477
15833 1 37.1911 49.8519 24.5303
15834 1 35.6085 48.2693 26.1129
15835 1 37.1911 49.8519 27.6955
15836 1 35.6085 48.2693 29.2781
15837 1 37.1911 49.8519 30.8607
15838 1 35.6085 48.2693 32.4433
15839 1 37.1911 49.8519 34.0259
15840 1 35.6085 48.2693 35.6085
15841 1 37.1911 49.8519 37.1911
15842 1 35.6085 51.4345 22.9477
15843 1 37.1911 53.0171 24.5303
15844 1 35.6085 51.4345 26.1129
15845 1 37.1911 53.0171 27.6955
15846 1 35.6085 51.4345 29.2781
15847 1 37.1911 53.0171 30.8607
15848 1 35.6085 51.4345 32.4433
15849 1 37.1911 53.0171 34.0259
15850 1 35.6085 51.4345 35.6085
15851 1 37.1911 53.0171 37.1911
15852 1 35.6085 54.5997 22.9477
15853 1 37.1911 56.1823 24.5303
15854 1 35.6085 54.5997 26.1129
15855 1 37.1911 56.1823 27.6955
15856 1 35.6085 54.5997 29.2781
15857 1 37.1911 56.1823 30.8607
15858 1 35.6085 54.5997 32.4433
15859 1 37.1911 56.1823 34.0259
15860 1 35.6085 54.5997 35.6085
15861 1 37.1911 56.1823 37.1911
15862 1 35.6085 57.7649 22.9477
15863 1 37.1911 59.3475 24.5303
15864 1 35.6085 57.7649 26.1129
15865 1 37.1911 59.3475 27.6955
15866 1 35.6085 57.7649 29.2781
15867 1 37.1911 59.3475 30.8607
15868 1 35.6085 57.7649 32.4433
15869 1 37.1911 59.3475 34.0259
15870 1 35.6085 57.7649 35.6085
15871 1 37.1911 59.3475 37.1911
15872 1 35.6085 60.9301 22.9477
15873 1 37.1911 62.5127 24.5303
15874 1 35.6085 60.9301 26.1129
15875 1 37.1911 62.5127 27.6955
15876 1 35.6085 60.9301 29.2781
15877 1 37.1911 62.5127 30.8607
15878 1 35.6085 60.9301 32.4433
15879 1 37.1911 62.5127 34.0259
15880 1 35.6085 60.9301 35.6085
15881 1 37.1911 62.5127 37.1911
15882 1 38.7737 41.9389 22.9477
15883 1 40.3563 43.5215 24.5303
15884 1 38.7737 41.9389 26.1129
15885 1 40.3563 43.5215 27.6955
15886 1 38.7737 41.9389 29.2781
15887 1 40.3563 43.5215 30.8607
15888 1 38.7737 41.9389 32.4433
15889 1 40.3563 43.5215 34.0259
15890 1 38.7737 41.9389 35.6085
15891 1 40.3563 43.5215 37.1911
15892 1 38.7737 45.1041 22.9477
15893 1 40.3563 46.6867 24.5303
15894 1 38.7737 45.1041 26.1129
15895 1 40.3563 46.6867 27.6955
15896 1 38.7737 45.1041 29.2781
15897 1 40.3563 46.6867 30.8607
15898 1 38.7737 45.1041 32.4433
15899 1 40.3563 46.6867 34.0259
15900 1 38.7737 45.1041 35.6085
15901 1 40.3563 46.6867 37.1911
15902 1 38.7737 48.2693 22.9477
15903 1 40.3563 49.8519 24.5303
15904 1 38.7737 48.2693 26.1129
15905 1 40.3563 49.8519 27.6955
15906 1 38.7737 48.2693 29.2781
15907 1 40.3563 49.8519 30.8607
15908 1 38.7737 48.2693 32.4433
15909 1 40.3563 49.8519 34.0259
15910 1 38.7737 48.2693 35.6085
15911 1 40.3563 49.8519 37.1911
15912 1 38.7737 51.4345 22.9477
15913 1 40.3563 53.0171 24.5303
15914 1 38.7737 51.4345 26.1129
15915 1 40.3563 53.0171 27.6955
15916 1 38.7737 51.4345 29.2781
15917 1 40.3563 53.0171 30.8607
15918 1 38.7737 51.4345 32.4433
15919 1 40.3563 53.0171 34.0259
15920 1 38.7737 51.4345 35.6085
15921 1 40.3563 53.0171 37.1911
15922 1 38.7737 54.5997 22.9477
15923 1 40.3563 56.1823 24.5303
15924 1 38.7737 54.5997 26.1129
15925 1 40.3563 56.1823 27.6955
15926 1 38.7737 54.5997 29.2781
15927 1 40.3563 56.1823 30.8607
15928 1 38.7737 54.5997 32.4433
15929 1 40.3563 56.1823 34.0259
15930 1 38.7737 54.5997 35.6085
15931 1 40.3563 56.1823 37.1911
15932 1 38.7737 57.7649 22.9477
15933 1 40.3563 59.3475 24.5303
15934 1 38.7737 57.7649 26.1129
15935 1 40.3563 59.3475 27.6955
15936 1 38.7737 57.7649 29.2781
15937 1 40.3563 59.3475 30.8607
15938 1 38.7737 57.7649 32.4433
15939 1 40.3563 59.3475 34.0259
15940 1 38.7737 57.7649 35.6085
15941 1 40.3563 59.3475 37.1911
15942 1 38.7737 60.9301 22.9477
15943 1 40.3563 62.5127 24.5303
15944 1 38.7737 60.9301 26.1129
15945 1 40.3563 62.5127 27.6955
15946 1 38.7737 60.9301 29.2781
15947 1 40.3563 62.5127 30.8607
15948 1 38.7737 60.9301 32.4433
15949 1 40.3563 62.5127 34.0259
15950 1 38.7737 60.9301 35.6085
15951 1 40.3563 62.5127 37.1911
15952 1 41.9389 41.9389 22.9477
15953 1 43.5215 43.5215 24.5303
15954 1 41.9389 41.9389 26.1129
15955 1 43.5215 43.5215 27.6955
15956 1 41.9389 41.9389 29.2781
15957 1 43.5215 43.5215 30.8607
15958 1 41.9389 41.9389 32.4433
15959 1 43.5215 43.5215 34.0259
15960 1 41.9389 41.9389 35.6085
15961 1 43.5215 43.5215 37.1911
15962 1 41.9389 45.1041 22.9477
15963 1 43.5215 46.6867 24.5303
15964 1 41.9389 45.1041 26.1129
15965 1 43.5215 46.6867 27.6955
15966 1 41.9389 45.1041 29.2781
15967 1 43.5215 46.6867 30.8607
15968 1 41.9389 45.1041 32.4433
15969 1 43.5215 46.6867 34.0259
15970 1 41.9389 45.1041 35.6085
15971 1 43.5215 46.6867 37.1911
15972 1 41.9389 48.2693 22.9477
15973 1 43.5215 49.8519 24.5303
15974 1 41.9389 48.2693 26.1129
15975 1 43.5215 49.8519 27.6955
15976 1 41.9389 48.2693 29.2781
15977 1 43.5215 49.8519 30.8607
15978 1 41.9389 48.2693 32.4433
15979 1 43.5215 49.8519 34.0259
15980 1 41.9389 48.2693 35.6085
15981 1 43.5215 49.8519 37.1911
15982 1 41.9389 51.4345 22.9477
15983 1 43.5215 53.0171 24.5303
15984 1 41.9389 51.4345 26.1129
15985 1 43.5215 53.0171 27.6955
15986 1 41.9389 51.4345 29.2781
15987 1 43.5215 53.0171 30.8607
15988 1 41.9389 51.4345 32.4433
15989 1 43.5215 53.0171 34.0259
15990 1 41.9389 51.4345 35.6085
15991 1 43.5215 53.0171 37.1911
15992 1 41.9389 54.5997 22.9477
15993 1 43.5215 56.1823 24.5303
15994 1 41.9389 54.5997 26.1129
15995 1 43.5215 56.1823 27.6955
15996 1 41.9389 54.5997 29.2781
15997 1 43.5215 56.1823 30.8607
15998 1 41.9389 54.5997 32.4433
15999 1 43.5215 56.1823 34.0259
16000 1 41.9389 54.5997 35.6085
16001 1 43.5215 56.1823 37.1911
16002 1 41.9389 57.7649 22.9477
16003 1 43.5215 59.3475 24.5303
16004 1 41.9389 57.7649 26.1129
16005 1 43.5215 59.3475 27.6955
16006 1 41.9389 57.7649 29.2781
16007 1 43.5215 59.3475 30.8607
16008 1 41.9389 57.7649 32.4433
16009 1 43.5215 59.3475 34.0259
16010 1 41.9389 57.7649 35.6085
16011 1 43.5215 59.3475 37.1911
16012 1 41.9389 60.9301 22.9477
16013 1 43.5215 62.5127 24.5303
16014 1 41.9389 60.9301 26.1129
16015 1 43.5215 62.5127 27.6955
16016 1 41.9389 60.9301 29.2781
16017 1 43.5215 62.5127 30.8607
16018 1 41.9389 60.9301 32.4433
16019 1 43.5215 62.5127 34.0259
16020 1 41.9389 60.9301 35.6085
16021 1 43.5215 62.5127 37.1911
