./desired/Juslin/10_7/45_60/cluster.dat


8202 atoms
0 bonds
0 angles
0 dihedrals
0 impropers

2 atom types
0 bond types
0 angle types
0 dihedral types
0 improper types


0.000      50.6432 xlo xhi
0.000      50.6432 ylo yhi
0.000      50.6432 zlo zhi


Atoms

1 1 15.0374 27.6825 11.8502
2 1 15.0068 27.6936 15.0014
3 1 14.9802 27.7236 18.1676
4 1 14.993 27.7228 21.3779
5 1 14.9816 27.7457 24.5315
6 1 14.9523 27.7779 27.8207
7 1 15.023 27.6803 30.9106
8 1 15.0601 27.6388 34.0378
9 1 13.8014 28.8818 36.0064
10 1 15.0255 30.877 11.8343
11 1 15.0008 30.8801 14.9896
12 1 14.9492 30.9279 18.1418
13 1 14.9343 30.942 21.3124
14 1 14.9795 30.9148 24.567
15 1 14.9602 30.9141 27.7723
16 1 15.0062 30.8591 30.918
17 1 15.0756 30.8037 34.1226
18 1 15.077 30.8586 37.2574
19 1 15.0316 34.0265 11.8378
20 1 15.0049 34.0639 14.9955
21 1 14.999 34.0767 18.1844
22 1 14.9818 34.0769 21.3708
23 1 15.0073 34.0688 24.5453
24 1 14.9788 34.0562 27.7392
25 1 14.9946 34.0561 30.9317
26 1 13.4676 32.4279 32.5313
27 1 15.0524 33.9988 37.2644
28 1 15.0417 37.1878 11.8608
29 1 15.0249 37.2012 15.0363
30 1 15.0131 37.2167 18.1898
31 1 14.9978 37.2127 21.3687
32 1 15.0064 37.2041 24.5472
33 1 15.0249 37.2164 27.7255
34 1 15.0357 37.2113 30.899
35 1 15.0392 37.1914 34.0954
36 1 15.0563 37.1861 37.2516
37 1 16.6321 26.0953 10.2662
38 1 18.2012 27.6879 11.8573
39 1 16.6244 26.0839 13.4324
40 1 18.1511 27.7245 14.9827
41 1 16.5722 26.1091 16.5764
42 1 18.065 27.7865 18.1074
43 1 16.5306 26.1442 19.7294
44 1 17.9555 27.8422 21.2608
45 1 16.6238 25.9845 22.9717
46 1 17.7874 27.9166 24.4653
47 1 16.239 26.2041 26.2079
48 1 18.1811 27.6079 27.6819
49 1 16.5801 26.0876 29.3824
50 1 18.1819 27.6887 30.9051
51 1 16.6206 26.0753 32.527
52 1 18.2195 27.6554 34.0989
53 1 16.6565 26.0604 35.6846
54 1 18.2438 27.6009 37.2777
55 1 15.3533 27.3531 37.5938
56 1 16.6289 29.2716 10.2709
57 1 18.2114 30.8533 11.8305
58 1 16.6028 29.288 13.4303
59 1 18.1639 30.8952 14.9746
60 1 16.5552 29.3171 16.5428
61 1 18.0923 30.9626 18.1224
62 1 16.4812 29.3812 19.7061
63 1 18.0757 30.979 21.3103
64 1 16.4652 29.4379 22.8713
65 1 18.0481 31.0259 24.5323
66 1 16.563 29.3883 26.2213
67 1 18.0737 31.0004 27.8372
68 1 16.5994 29.2968 29.3673
69 1 18.142 30.9023 30.9854
70 1 16.624 29.2494 32.5154
71 1 18.2092 30.8368 34.0897
72 1 16.645 29.2015 35.7111
73 1 18.2508 30.8198 37.2511
74 1 16.6216 32.4289 10.2683
75 1 18.1925 34.0403 11.8478
76 1 16.5756 32.4607 13.4209
77 1 18.1824 34.0621 15.0179
78 1 16.5813 32.4897 16.5702
79 1 18.1659 34.0872 18.1739
80 1 16.5512 32.5197 19.735
81 1 18.1584 34.0897 21.3511
82 1 16.5255 32.5401 22.935
83 1 18.1575 34.0815 24.5475
84 1 16.5664 32.522 26.1596
85 1 18.1781 34.089 27.7423
86 1 16.5603 32.502 29.3764
87 1 18.1728 34.0615 30.952
88 1 16.5867 32.4461 32.5226
89 1 18.2044 34.0331 34.0931
90 1 16.6376 32.4098 35.6818
91 1 18.2271 33.9937 37.2516
92 1 16.6184 35.6083 10.2729
93 1 18.2161 37.2025 11.8578
94 1 16.61 35.6166 13.4523
95 1 18.1955 37.2192 15.0377
96 1 16.6008 35.6373 16.6052
97 1 18.185 37.2197 18.2045
98 1 16.5903 35.6385 19.7764
99 1 18.1883 37.2217 21.3599
100 1 16.5771 35.6545 22.9761
101 1 16.5794 35.6432 26.136
102 1 18.1942 37.2207 27.739
103 1 16.6024 35.6378 29.3383
104 1 18.1961 37.2102 30.9226
105 1 16.6203 35.6209 32.5089
106 1 16.6402 35.5956 35.6613
107 1 15.0164 34.0252 34.0883
108 1 18.2289 37.1682 37.2474
109 1 19.7997 26.08 10.2859
110 1 21.3928 27.6893 11.8515
111 1 19.7806 26.0993 13.4334
112 1 21.3338 27.7008 15.002
113 1 19.7394 26.1468 16.5426
114 1 21.2026 27.8412 18.0958
115 1 19.5723 26.2882 19.6442
116 1 20.9806 27.9349 21.2676
117 1 19.3598 26.4049 22.8723
118 1 21.6367 28.4544 24.0713
119 2 19.9625 27.4066 25.7185
120 1 21.1848 27.8689 28.0581
121 1 19.757 26.0157 29.542
122 1 21.3683 27.6603 30.9208
123 1 19.7864 26.0471 32.5287
124 1 21.3971 27.6305 34.0815
125 1 19.8241 26.0515 35.6628
126 1 21.3959 27.6299 37.2385
127 1 19.8035 29.2538 10.2795
128 1 21.3712 30.853 11.847
129 1 19.781 29.2615 13.4155
130 1 21.3165 30.9165 14.9648
131 1 19.6847 29.3546 16.5375
132 1 21.2812 30.9637 18.1349
133 1 19.5887 29.4412 19.6872
134 1 21.2519 30.9429 21.3679
135 1 19.4833 29.4315 22.9449
136 1 21.3329 31.1094 24.4595
137 1 19.7142 29.8763 26.1663
138 1 21.3092 31.0403 27.8901
139 1 19.6193 29.4197 29.3918
140 1 21.3222 30.8924 30.98
141 1 19.7831 29.2501 32.4966
142 1 21.3699 30.8235 34.0858
143 1 19.8046 29.2261 35.6615
144 1 21.3867 30.8019 37.2291
145 1 19.795 32.432 10.2729
146 1 21.3814 34.0261 11.8628
147 1 19.7617 32.4848 13.4163
148 1 21.3633 34.0562 14.991
149 1 19.7294 32.5025 16.5737
150 1 21.3441 34.0898 18.1798
151 1 19.7243 32.5406 19.7553
152 1 21.3459 34.0776 21.3467
153 1 19.7043 32.5466 22.9273
154 1 21.3511 34.08 24.5312
155 1 19.7472 32.575 26.1559
156 1 21.3543 34.0847 27.7451
157 1 19.723 32.54 29.3676
158 1 21.3601 34.0442 30.9306
159 1 19.7674 32.4441 32.5138
160 1 21.384 33.9995 34.0796
161 1 19.8017 32.4144 35.6566
162 1 21.3866 33.9816 37.2236
163 1 19.7947 35.6024 10.2826
164 1 21.3806 37.1766 11.8669
165 1 19.7973 35.6181 13.4059
166 1 21.3614 37.1929 15.028
167 1 19.7709 35.6421 16.5876
168 1 21.3709 37.2138 18.1877
169 1 19.7752 35.6347 19.7756
170 1 21.3686 37.2139 21.3703
171 1 19.7608 35.6445 22.9608
172 1 18.1856 37.2196 24.5512
173 1 19.7807 35.6446 26.1279
174 1 21.3626 37.2064 27.7152
175 1 19.7644 35.6367 29.3218
176 1 18.2149 37.1804 34.0769
177 1 19.7786 35.6137 32.4931
178 1 21.3774 37.1795 34.0647
179 1 19.7982 35.5777 35.6576
180 1 21.3801 37.1588 37.2323
181 1 22.9784 26.0843 10.3042
182 1 24.5556 27.6751 11.8658
183 1 22.9509 26.1039 13.4619
184 1 24.5287 27.7382 15.0196
185 1 22.9266 26.1461 16.6025
186 1 24.2522 27.9271 18.0607
187 1 22.6456 26.3106 19.7037
188 1 24.6848 28.0787 20.8057
189 1 23.0484 26.9386 22.4338
190 1 24.5683 28.3692 24.62
191 2 22.7202 27.1686 26.1361
192 1 24.4694 28.2536 27.7849
193 1 22.9405 26.0657 29.0787
194 1 24.5137 27.6517 30.8388
195 1 22.9796 26.0359 32.4602
196 1 24.546 27.6266 34.0444
197 1 22.9834 26.0318 35.6496
198 1 24.5604 27.6263 37.2161
199 1 22.9689 29.2597 10.2961
200 1 24.5419 30.8418 11.8637
201 1 22.9514 29.2865 13.4448
202 1 24.5323 30.8607 15.0299
203 1 22.8303 29.3956 16.4925
204 1 24.4771 30.9261 18.1548
205 1 22.7484 29.4394 19.7173
206 1 24.6982 31.1793 21.0619
207 1 23.2859 29.6536 22.5723
208 1 24.5346 31.0722 24.5579
209 1 22.8315 29.7568 26.1977
210 1 24.5557 31.007 27.7738
211 1 22.8633 29.4087 29.427
212 1 24.5524 30.8464 30.9081
213 1 22.9588 29.237 32.4933
214 1 24.5477 30.8232 34.0645
215 1 22.9736 29.2199 35.6432
216 1 24.5641 30.8094 37.2283
217 1 22.9642 32.4207 10.289
218 1 24.5453 34.0174 11.8614
219 1 22.9519 32.4433 13.4279
220 1 24.5451 34.0354 15.0202
221 1 22.9321 32.4947 16.5697
222 1 24.5426 34.0524 18.1794
223 1 22.8861 32.5276 19.7414
224 1 24.5563 34.0802 21.3236
225 1 22.9656 32.5307 22.8959
226 1 24.5735 34.0775 24.5302
227 1 22.9245 32.5547 26.1418
228 1 24.5505 34.0724 27.728
229 1 22.9647 32.516 29.3441
230 1 24.5512 34.0285 30.9279
231 1 22.9519 32.4231 32.4924
232 1 24.5359 33.9979 34.0613
233 1 22.9779 32.3996 35.6452
234 1 24.5514 33.9871 37.2346
235 1 22.9606 35.598 10.2834
236 1 24.5529 37.1753 11.8558
237 1 22.9529 35.6065 13.4355
238 1 24.5536 37.185 15.0286
239 1 22.9711 35.6291 16.6084
240 1 24.5396 37.1988 18.1911
241 1 22.9529 35.6455 19.7743
242 1 26.1442 35.6438 19.7684
243 1 22.9566 35.6496 22.9553
244 1 21.3616 37.2096 24.5439
245 1 22.9561 35.6394 26.1429
246 1 21.3818 37.1942 30.9009
247 1 22.9603 35.6288 29.3243
248 1 24.5442 37.1717 30.9001
249 1 22.9652 35.6031 32.4898
250 1 24.5442 37.175 34.0557
251 1 22.9584 35.5844 35.6487
252 1 24.5401 37.1544 37.2218
253 1 24.5393 37.2076 21.3563
254 1 26.1518 26.0853 10.2847
255 1 26.1342 26.0822 13.4613
256 1 26.1396 26.1242 16.4722
257 1 24.7168 25.3798 20.9458
258 2 24.2514 25.8267 24.4404
259 2 25.0101 25.9018 26.9799
260 1 26.1146 26.0297 29.3612
261 1 26.1188 26.0497 32.467
262 1 26.1532 26.0335 35.6329
263 1 26.1313 29.2451 10.2973
264 1 26.1439 29.2684 13.4489
265 1 26.1826 29.2721 16.6303
266 1 26.3107 29.5728 19.5096
267 1 26.1539 29.7045 22.8039
268 1 26.2135 29.508 26.2173
269 1 26.2089 29.3044 29.3802
270 1 26.1303 29.2048 32.4711
271 1 26.1383 29.2132 35.6281
272 1 26.1434 32.4097 10.2959
273 1 26.1309 32.4296 13.4218
274 1 26.1522 32.4557 16.6101
275 1 26.2718 32.5984 19.6451
276 1 26.1653 32.5295 22.9194
277 1 26.1471 32.5209 26.1529
278 1 26.1724 32.465 29.3338
279 1 26.1375 32.4101 32.4891
280 1 26.128 32.3931 35.6523
281 1 26.1346 35.5908 10.2803
282 1 26.1399 35.6166 13.4455
283 1 26.1228 35.6128 16.5842
284 1 24.548 37.2008 24.5446
285 1 26.1351 35.6273 26.1349
286 1 26.1352 35.6124 29.3169
287 1 26.137 35.5901 32.4988
288 1 26.1246 35.5753 35.6636
289 1 24.5569 37.2019 27.7157
290 1 26.1575 35.6363 22.9548
291 1 13.4661 32.4881 35.6536
292 1 13.5154 26.0387 35.7005
293 1 13.4671 35.6275 32.502
294 1 13.4144 29.3039 29.3605
295 1 13.4276 35.633 16.6007
296 1 13.4238 35.6438 19.7726
297 1 13.3776 32.4899 19.7573
298 1 13.4406 35.6391 29.324
299 1 13.3994 32.47 26.1453
300 1 13.418 29.3151 22.9451
301 1 13.4545 26.0789 32.5109
302 1 13.4146 32.4686 16.5884
303 1 13.4499 35.6125 13.4437
304 1 13.4394 29.2921 26.1461
305 1 13.4358 35.6275 26.141
306 1 13.4634 35.6165 35.6661
307 1 13.4545 26.0835 29.3286
308 1 13.4186 32.458 29.3383
309 1 13.4149 29.2795 16.587
310 1 13.4552 26.0872 13.4368
311 1 13.4388 26.1195 26.1674
312 1 13.4383 32.4381 13.4251
313 1 13.4567 35.6062 10.2759
314 1 13.4137 29.296 19.7652
315 1 13.4447 29.2632 13.431
316 1 13.4411 26.0974 16.6015
317 1 13.4753 29.2439 32.4213
318 1 13.4662 32.4464 10.2787
319 1 13.4347 26.1148 19.7774
320 1 13.4618 29.2599 10.2874
321 1 13.4687 26.0861 10.2913
322 1 13.4214 35.6353 22.9789
323 1 13.4106 32.4627 22.9572
324 1 13.4554 26.1058 22.9601
325 1 26.104 26.486 19.0535
326 1 26.0058 27.0543 22.8335
327 2 26.8042 25.9677 25.1864
328 2 21.4405 25.8045 24.2381
329 2 27.3789 25.6164 21.0468
330 2 18.475 25.3173 25.3758
331 2 20.4289 25.3723 27.1116
332 1 29.3133 26.0627 10.2911
333 1 30.9123 27.6636 11.8815
334 1 29.3199 26.0798 13.4402
335 1 29.4032 29.3708 16.5171
336 1 29.3747 26.1365 16.5328
337 1 30.8897 27.6665 21.3771
338 1 30.8503 27.6669 24.5431
339 1 29.3338 26.0573 26.1451
340 1 30.8592 27.6603 27.7232
341 1 29.2705 26.0404 29.2985
342 1 30.8777 27.6278 30.8945
343 1 29.2966 26.0608 32.4665
344 1 30.8911 27.6359 34.0591
345 1 29.3051 26.0492 35.6349
346 1 30.8965 27.6407 37.2262
347 1 29.3163 29.2419 10.2997
348 1 32.5117 32.4352 13.4197
349 1 30.93 34.0601 14.991
350 1 28.0378 27.8541 18.1184
351 1 29.4413 29.4269 22.8934
352 1 30.9182 30.8761 24.5729
353 1 29.3589 29.2984 26.1913
354 1 30.9273 30.8476 27.7469
355 1 29.2982 29.2233 29.3118
356 1 30.9004 30.8313 30.907
357 1 29.3126 29.2087 32.4765
358 1 30.8957 30.8033 34.0624
359 1 29.3027 29.2115 35.6376
360 1 30.8893 30.7964 37.2246
361 1 29.2938 32.4161 10.286
362 1 30.9053 30.8353 11.8496
363 1 30.8963 34.009 11.8571
364 1 29.3174 32.4454 13.4351
365 1 32.5065 35.5948 13.4433
366 1 29.3281 35.6425 16.5867
367 1 31.0107 30.9189 18.1434
368 1 30.9241 34.0679 21.3756
369 1 29.3514 32.4941 22.9519
370 1 30.9098 34.0397 24.553
371 1 29.3369 32.4588 26.1577
372 1 30.8911 34.0037 27.7339
373 1 29.3317 32.4525 29.3395
374 1 30.8918 34.001 30.9142
375 1 29.311 32.4118 32.4889
376 1 30.8993 33.9703 34.0657
377 1 29.2909 32.3969 35.6518
378 1 30.8746 33.9784 37.2183
379 1 29.3243 35.5941 10.303
380 1 30.9128 37.1704 11.8614
381 1 30.8867 37.1962 21.3754
382 1 30.9039 37.1917 24.5617
383 1 29.3283 35.6143 26.1464
384 1 30.8963 37.1785 27.7328
385 1 29.3118 35.5936 29.3273
386 1 30.9017 37.1643 30.8919
387 1 29.2998 35.5695 32.4886
388 1 30.887 37.1471 34.0573
389 1 29.3001 35.5506 35.643
390 1 30.8847 37.143 37.2325
391 1 32.4671 26.0613 10.3071
392 1 30.9309 27.6743 14.9984
393 1 34.0679 27.6732 18.2294
394 1 34.044 27.6572 21.3936
395 1 32.4172 26.0458 22.9759
396 1 34.0384 27.6471 24.5647
397 1 32.4777 26.0636 26.1528
398 1 34.0398 27.6295 27.733
399 1 32.4902 26.0504 29.3284
400 1 34.041 27.6365 30.9062
401 1 32.4836 26.0459 32.4876
402 1 34.0522 27.6378 34.0797
403 1 32.4773 26.0537 35.6619
404 1 34.0623 27.6383 37.2304
405 1 32.4725 29.2426 10.3016
406 1 35.66 32.4211 13.4507
407 1 32.4835 29.2487 13.4422
408 1 30.9753 27.7057 18.1628
409 1 32.5193 29.2803 16.5945
410 1 30.9817 30.9023 21.3626
411 1 34.081 30.8491 18.2006
412 1 34.0768 30.8476 21.3893
413 1 32.4811 29.2487 22.9783
414 1 34.0568 30.8126 24.5597
415 1 32.4646 29.2315 26.1507
416 1 34.0517 30.8301 27.7343
417 1 32.4672 29.2116 29.3159
418 1 34.0687 30.8135 30.9074
419 1 32.4647 29.2283 32.481
420 1 34.0506 30.8099 34.0475
421 1 32.4662 29.2174 35.6484
422 1 34.0548 30.8203 37.2155
423 1 32.4902 32.4207 10.2876
424 1 34.0697 34.0108 11.8625
425 1 34.083 34.0159 15.0289
426 1 35.661 32.4078 16.6335
427 1 32.5268 32.4676 19.7674
428 1 29.3806 32.5046 16.5251
429 1 34.0588 34.0059 21.3809
430 1 32.5 32.4368 22.9766
431 1 34.069 34.0074 24.5454
432 1 32.493 32.4277 26.1571
433 1 34.0585 33.9953 27.7379
434 1 32.4772 32.4141 29.3107
435 1 34.0562 33.9813 30.8986
436 1 32.4838 32.3868 32.4805
437 1 34.0437 33.9869 34.0641
438 1 32.4516 32.3869 35.6426
439 1 34.0665 33.9739 37.2252
440 1 32.4748 35.5915 10.2794
441 1 37.2278 37.1728 11.8812
442 1 34.0754 37.175 11.8641
443 1 29.3149 35.6336 22.966
444 1 32.515 32.4644 16.5899
445 1 32.4925 35.6181 19.7758
446 1 29.3367 35.6418 19.769
447 1 34.0713 37.1857 21.3866
448 1 32.4802 35.5998 22.9773
449 1 34.0649 37.1622 24.5581
450 1 32.4852 35.5844 26.1515
451 1 34.0493 37.1666 27.7168
452 1 32.4741 35.5666 29.3168
453 1 34.0593 37.1477 30.8917
454 1 32.474 35.5631 32.4769
455 1 34.0559 37.1435 34.054
456 1 32.451 35.5758 35.6472
457 1 34.0373 37.1465 37.2116
458 1 34.0637 37.1746 15.0221
459 1 30.9374 30.8869 14.9944
460 1 34.0605 37.1935 18.2071
461 1 30.9496 34.07 18.1615
462 1 35.646 29.2296 10.2843
463 1 37.2246 27.6741 15.0666
464 1 37.2264 27.6471 18.2322
465 1 37.1972 27.6513 21.4076
466 1 35.6152 26.0605 22.9795
467 1 37.202 27.6287 24.5684
468 1 35.6292 26.0489 26.1485
469 1 37.2231 27.6335 27.7321
470 1 35.6409 26.0497 29.3291
471 1 37.2145 27.6419 30.8929
472 1 35.6417 26.0565 32.4856
473 1 37.2189 27.6431 34.0713
474 1 35.643 26.0623 35.6548
475 1 37.2063 27.6282 37.2411
476 1 34.0626 27.6575 11.8795
477 1 35.6589 29.2616 13.467
478 1 35.6667 29.2449 16.6314
479 1 37.234 30.824 18.2223
480 1 35.6442 29.2376 19.8088
481 1 37.2129 30.821 21.395
482 1 35.6277 29.2338 22.9793
483 1 37.2122 30.823 24.5529
484 1 35.6257 29.2333 26.1509
485 1 37.2181 30.8045 27.7202
486 1 35.6497 29.2227 29.3104
487 1 37.2164 30.8156 30.8937
488 1 35.6428 29.2215 32.4854
489 1 37.207 30.807 34.0598
490 1 35.6241 29.2244 35.6391
491 1 37.2052 30.8164 37.2403
492 1 35.6342 32.4114 10.2987
493 1 37.2266 34.0024 11.8779
494 1 35.6464 35.5737 10.288
495 1 37.2383 30.8274 11.8924
496 1 37.2379 30.8254 15.056
497 1 34.101 30.8382 15.0308
498 1 37.2413 33.9978 18.2117
499 1 35.6542 32.4244 19.808
500 1 37.2192 33.999 21.3938
501 1 35.643 32.4044 22.9817
502 1 37.2162 33.9823 24.5477
503 1 35.6282 32.3869 26.1432
504 1 37.2306 33.9734 27.7167
505 1 35.6392 32.3947 29.3025
506 1 37.2124 33.9918 30.8855
507 1 35.6392 32.3899 32.4828
508 1 37.2194 33.9821 34.0529
509 1 35.6367 32.4065 35.6466
510 1 37.1969 33.9726 37.2254
511 1 35.6549 35.5942 13.4527
512 1 35.6448 35.6036 16.6339
513 1 37.2285 34.0061 15.0683
514 1 37.2274 37.1702 18.2341
515 1 35.6486 35.5856 19.8066
516 1 37.2236 37.1613 21.3898
517 1 35.6329 35.5869 22.9723
518 1 37.2171 37.1653 24.5477
519 1 35.6334 35.5734 26.1409
520 1 37.2104 37.1531 27.7126
521 1 35.6402 35.5716 29.308
522 1 37.2104 37.1589 30.8961
523 1 35.6265 35.5896 32.4755
524 1 37.2161 37.1456 34.0427
525 1 35.6251 35.5685 35.6303
526 1 37.2056 37.1456 37.2184
527 1 34.0756 30.835 11.8844
528 1 34.0802 34.0147 18.1954
529 1 37.2258 27.6475 11.8864
530 1 37.2337 37.1658 15.0493
531 1 32.4912 26.0684 13.4634
532 1 30.8887 37.1991 18.1968
533 1 29.4024 32.5279 19.7405
534 1 35.6426 26.0832 10.297
535 1 34.0784 27.6658 15.0461
536 1 35.6198 26.0632 19.8161
537 1 29.0467 25.9638 23.0694
538 1 27.8076 28.1465 21.2337
539 1 32.5121 29.272 19.779
540 1 35.6533 26.07 13.4741
541 1 32.5161 35.6133 16.6096
542 1 32.4645 26.0687 19.8065
543 1 29.5116 29.4078 19.7091
544 1 30.9068 37.2059 15.0259
545 1 29.4856 26.1464 19.6949
546 1 29.3066 35.6018 13.4375
547 1 29.336 29.2826 13.4313
548 1 35.6399 26.0668 16.6261
549 1 32.4982 26.0852 16.6235
550 1 27.7297 27.6369 37.2155
551 1 27.7136 30.8064 34.0614
552 1 27.722 33.9869 34.0669
553 1 27.7175 30.8051 37.222
554 1 27.7138 37.1577 37.2226
555 1 27.7141 27.6368 30.8587
556 1 27.7243 27.6392 34.0607
557 1 27.7323 34.0191 30.9067
558 1 27.6997 33.985 37.2261
559 1 27.7319 34.0553 24.5347
560 1 27.7167 37.1938 24.5385
561 1 27.7197 37.2013 21.3648
562 1 27.6087 27.6249 27.6358
563 1 27.6892 37.1577 34.0653
564 1 27.7369 34.0327 27.7343
565 1 27.7115 37.1854 27.7268
566 1 27.7264 37.1541 30.9024
567 1 27.7273 30.8527 11.8572
568 1 27.7133 37.1816 11.8758
569 1 27.7368 30.8509 30.9544
570 1 27.763 30.9743 24.5324
571 1 27.7378 37.2283 18.1878
572 1 27.7697 34.0777 21.3538
573 1 27.7352 34.0284 14.9967
574 1 27.741 27.7061 15.0018
575 1 27.7205 37.1852 15.0331
576 1 27.7805 34.1103 18.1405
577 1 27.7205 27.672 11.8764
578 1 27.7344 34.0066 11.8584
579 1 27.7808 30.9187 27.7752
580 1 27.7425 30.8669 15.0067
581 1 27.9202 31.0147 18.064
582 1 27.8552 31.0065 21.2909
583 1 27.7577 28.2184 24.4474
584 1 15.0467 11.8572 11.8726
585 1 13.4475 10.2659 13.4609
586 1 15.0414 11.8115 15.0498
587 1 15.0501 11.8244 18.2151
588 1 15.0564 11.8162 21.3903
589 1 15.0424 11.795 24.5586
590 1 15.0403 11.7907 27.7299
591 1 15.0486 11.7928 30.9276
592 1 15.0459 11.7879 34.0811
593 1 15.0673 11.7997 37.2582
594 1 15.0577 14.9916 11.8743
595 1 15.0522 15.011 15.0448
596 1 15.0513 14.9943 18.2112
597 1 15.0423 15.003 21.3954
598 1 15.0434 14.9791 24.5723
599 1 15.0333 14.9568 27.7352
600 1 15.0294 14.9441 30.9263
601 1 15.0282 14.9462 34.0907
602 1 15.0524 14.9537 37.2533
603 1 15.0479 18.1773 11.8934
604 1 15.0375 18.1599 15.0385
605 1 15.0562 18.1684 18.2127
606 1 15.0388 18.1526 21.3927
607 1 15.061 18.1421 24.5486
608 1 15.0379 18.1337 27.7324
609 1 15.0087 18.1105 30.9333
610 1 15.0332 18.1034 34.11
611 1 15.0512 18.1138 37.2618
612 1 15.0518 21.3323 11.8742
613 1 15.0437 21.3271 15.0333
614 1 15.037 21.3249 18.1951
615 1 15.0101 21.3056 21.3517
616 1 15.0735 21.312 24.5736
617 1 15.0553 21.2997 27.7343
618 1 15.0 21.2867 30.943
619 1 15.0327 21.2952 34.0974
620 1 15.0562 21.2821 37.2689
621 1 15.0063 24.4577 27.769
622 1 15.0258 24.4673 30.9445
623 1 16.6334 10.2676 10.2889
624 1 18.2093 11.8428 11.8747
625 1 16.6165 10.2551 13.4481
626 1 18.2093 11.824 15.0464
627 1 16.6328 10.2392 16.6257
628 1 18.1899 11.8097 18.211
629 1 16.6286 10.2349 19.8086
630 1 18.1917 11.8039 21.3868
631 1 16.6252 10.2343 22.9812
632 1 18.2085 11.7724 24.557
633 1 16.6289 10.2142 26.1323
634 1 18.2117 11.7721 27.7469
635 1 16.657 10.2051 29.3382
636 1 18.2174 11.7687 30.9077
637 1 16.6491 10.195 32.4896
638 1 18.229 11.7894 34.0879
639 1 16.6451 10.2199 35.6613
640 1 18.2337 11.7867 37.2522
641 1 16.6305 13.413 10.3042
642 1 18.217 14.998 11.8957
643 1 16.634 13.4222 13.4566
644 1 18.2325 14.9892 15.0509
645 1 16.6318 13.3971 16.6394
646 1 18.2101 14.988 18.1969
647 1 16.6414 13.4023 19.8117
648 1 18.2249 14.9523 21.3922
649 1 16.648 13.3911 22.9718
650 1 18.207 14.9486 24.572
651 1 16.6434 13.3665 26.1581
652 1 18.1795 14.9073 27.7555
653 1 16.6158 13.3236 29.3449
654 1 18.1878 14.9027 30.9604
655 1 16.6107 13.3487 32.5061
656 1 18.2165 14.9391 34.112
657 1 16.6352 13.3507 35.677
658 1 18.2174 14.9551 37.2582
659 1 16.6557 16.592 10.3031
660 1 18.2199 18.1914 11.8778
661 1 16.6286 16.5848 13.4831
662 1 18.2068 18.1596 15.0551
663 1 16.6275 16.5614 16.6334
664 1 18.2027 18.1538 18.2158
665 1 16.6374 16.5675 19.8008
666 1 18.2231 18.1322 21.3823
667 1 16.6495 16.555 22.979
668 1 18.2398 18.1184 24.5875
669 1 16.6255 16.5309 26.1696
670 1 18.1274 18.0293 27.8041
671 1 16.5939 16.4945 29.3634
672 1 18.1527 18.0293 31.0049
673 1 16.6042 16.5058 32.5502
674 1 18.2079 18.0908 34.1156
675 1 16.627 16.5405 35.6798
676 1 18.2481 18.0965 37.271
677 1 16.643 19.7461 10.3042
678 1 18.2186 21.3377 11.8648
679 1 16.6286 19.7484 13.4605
680 1 18.2155 21.3426 15.0354
681 1 16.62 19.7454 16.6212
682 1 18.1797 21.3395 18.2069
683 1 16.6326 19.7404 19.7929
684 1 18.1494 21.3583 21.3999
685 1 16.6705 19.7315 22.9886
686 1 18.3649 21.261 24.5589
687 1 16.6259 19.7266 26.1484
688 1 18.0941 21.2341 27.8258
689 1 16.5671 19.6643 29.3851
690 1 18.1093 21.2207 31.0178
691 1 16.5807 19.6737 32.5467
692 1 18.2248 21.2799 34.1312
693 1 16.6339 19.6841 35.6903
694 1 18.224 21.28 37.2612
695 1 16.6435 22.9209 10.295
696 1 16.6347 22.9293 13.4623
697 1 18.1933 24.5219 15.0038
698 1 16.6061 22.9165 16.6092
699 1 16.5761 22.9181 19.7387
700 1 16.4572 22.8921 22.9325
701 1 16.7158 22.9666 26.065
702 1 16.5465 22.8671 29.3921
703 1 16.5924 22.8667 32.5368
704 1 16.6455 22.8708 35.6945
705 1 18.2501 24.4375 37.2572
706 1 19.794 10.2584 10.2972
707 1 21.3751 11.8139 11.8816
708 1 19.7917 10.2576 13.458
709 1 21.4001 11.8122 15.0538
710 1 19.7905 10.2412 16.6402
711 1 21.4051 11.7792 18.2193
712 1 19.8047 10.2251 19.798
713 1 21.392 11.7787 21.4028
714 1 19.8131 10.2075 23.0011
715 1 21.3881 11.7477 24.5803
716 1 19.8127 10.1978 26.1353
717 1 21.3836 11.7529 27.7605
718 1 19.8048 10.1886 29.3313
719 1 21.3924 11.7642 30.9109
720 1 19.819 10.1939 32.506
721 1 21.4009 11.7674 34.0914
722 1 19.8186 10.202 35.6543
723 1 21.4037 11.7881 37.2722
724 1 19.8107 13.4234 10.3016
725 1 21.3957 14.9766 11.8974
726 1 19.8135 13.4026 13.4607
727 1 21.3904 14.9798 15.0298
728 1 19.7853 13.3857 16.6049
729 1 21.3903 14.932 18.2073
730 1 19.8006 13.3634 19.8058
731 1 21.4045 14.9111 21.3985
732 1 19.8008 13.3676 22.964
733 1 21.3672 14.8909 24.6027
734 1 19.8026 13.3329 26.1761
735 1 21.368 14.8654 27.7903
736 1 19.8035 13.3282 29.3426
737 1 21.385 14.8934 30.9547
738 1 19.8079 13.3603 32.531
739 1 21.3838 14.9219 34.1062
740 1 19.8073 13.3581 35.682
741 1 21.4016 14.9469 37.2696
742 1 19.8062 16.5857 10.3122
743 1 21.4088 18.1736 11.886
744 1 19.8184 16.5572 13.4656
745 1 21.3881 18.1491 15.0702
746 1 19.7714 16.5365 16.6156
747 1 21.2901 18.1065 18.1548
748 1 19.8126 16.5344 19.7804
749 1 21.4214 18.0148 21.3115
750 1 19.8037 16.5149 22.9877
751 1 21.2999 17.9229 24.6997
752 1 19.7487 16.4508 26.2318
753 1 21.2952 17.9558 27.8844
754 1 19.744 16.4404 29.3999
755 1 21.3746 18.0626 30.9846
756 1 19.7901 16.4992 32.5404
757 1 21.4131 18.0819 34.0944
758 1 19.8155 16.5175 35.6786
759 1 21.3923 18.1165 37.2546
760 1 19.813 19.7357 10.3166
761 1 21.4077 21.3328 11.9036
762 1 19.8069 19.7525 13.4615
763 1 21.3973 21.3263 15.0579
764 1 19.8009 19.747 16.6279
765 1 21.3862 21.2951 18.1933
766 1 19.7824 19.7417 19.7903
767 2 20.5136 22.3121 22.2009
768 1 19.8521 19.6504 22.8277
769 1 19.7736 22.7473 26.5001
770 1 19.7033 19.5678 26.3881
771 1 21.2475 21.0018 28.088
772 1 19.6275 19.5738 29.4676
773 1 21.2201 21.2432 30.9763
774 1 19.757 19.6411 32.5754
775 1 21.3913 21.278 34.1057
776 1 19.8107 19.6931 35.6919
777 1 21.4067 21.2844 37.2527
778 1 19.8188 22.9275 10.3002
779 1 19.7943 22.9192 13.4732
780 1 19.7811 22.9166 16.605
781 1 19.7729 22.9092 19.7182
782 2 18.8187 23.6977 23.5395
783 1 19.5539 22.786 29.4675
784 1 19.7807 22.8645 32.5563
785 1 19.817 22.8465 35.6661
786 1 22.9624 10.247 10.305
787 1 24.5592 11.8062 11.8834
788 1 22.9555 10.2322 13.4642
789 1 24.5511 11.7906 15.0451
790 1 22.9533 10.2105 16.6385
791 1 24.5482 11.7661 18.2218
792 1 22.9784 10.2063 19.827
793 1 24.5792 11.7583 21.3977
794 1 22.9766 10.1916 22.9887
795 1 24.5835 11.7529 24.5885
796 1 22.9679 10.1956 26.1577
797 1 24.5653 11.7402 27.7696
798 1 22.9857 10.1774 29.3342
799 1 24.5704 11.751 30.9377
800 1 22.9723 10.1885 32.5237
801 1 24.5815 11.7597 34.1067
802 1 22.9756 10.1946 35.6703
803 1 24.5683 11.7736 37.2723
804 1 22.9741 13.4077 10.3007
805 1 24.557 14.9865 11.8859
806 1 22.9655 13.3769 13.4604
807 1 24.5636 14.9587 15.062
808 1 22.9786 13.361 16.6478
809 1 24.5937 14.9034 18.1788
810 1 22.9866 13.346 19.7975
811 1 24.5874 14.8615 21.4032
812 1 22.9762 13.3281 22.9908
813 1 24.5882 14.8697 24.5956
814 1 22.9884 13.3239 26.1806
815 1 24.589 14.8575 27.7783
816 1 22.979 13.3303 29.3563
817 1 24.5869 14.886 30.9696
818 1 22.9857 13.3341 32.5126
819 1 24.5944 14.9132 34.1061
820 1 22.9614 13.3647 35.6924
821 1 24.5763 14.9281 37.2651
822 1 22.9825 16.5757 10.3197
823 1 24.5449 18.1495 11.8907
824 1 22.9827 16.5748 13.4757
825 1 23.0046 19.7096 16.671
826 1 22.9405 16.5149 16.6228
827 1 23.2528 19.078 19.5169
828 1 22.9827 16.383 19.7633
829 1 22.98 19.1389 23.1036
830 1 22.956 16.3868 23.0208
831 1 24.6281 17.8056 24.6999
832 1 22.9632 16.431 26.2534
833 1 24.6666 17.9464 27.8547
834 1 23.0006 16.4462 29.3788
835 1 24.6137 18.0055 31.0048
836 1 22.9801 16.5045 32.5312
837 1 24.5821 18.0779 34.1245
838 1 22.9928 16.5184 35.6946
839 1 24.5731 18.1159 37.2639
840 1 22.9697 19.749 10.3192
841 1 24.5583 21.3198 11.9157
842 1 22.9777 19.7379 13.4885
843 1 24.5565 21.3395 15.1108
844 1 26.169 19.7401 16.6269
845 1 24.4579 21.3792 18.5177
846 1 21.9739 20.8605 20.8298
847 2 23.0176 21.7695 23.0574
848 1 21.3379 20.6694 24.7487
849 1 24.5685 20.5839 24.8114
850 1 22.9132 19.2893 26.3521
851 1 24.7825 20.9117 27.8916
852 1 23.0377 19.5106 29.4342
853 1 24.9299 20.9931 31.1776
854 1 22.9772 19.6754 32.4951
855 1 24.5946 21.2369 34.0968
856 1 22.9978 19.6899 35.6675
857 1 24.585 21.2818 37.2528
858 1 22.9665 22.9095 10.3122
859 1 22.9711 22.9173 13.4831
860 1 22.9569 22.9321 16.69
861 1 22.6373 23.2318 19.874
862 2 21.3159 23.2857 24.5157
863 1 22.9134 22.0113 26.3938
864 1 23.2859 22.2021 29.7744
865 1 22.9842 22.8106 32.5186
866 1 22.9959 22.8541 35.6598
867 1 24.5783 24.451 37.2401
868 1 26.1611 10.241 10.3041
869 1 26.1326 10.2269 13.474
870 1 26.1475 10.1945 16.6548
871 1 26.1606 10.187 19.8209
872 1 26.1503 10.1801 22.9929
873 1 26.141 10.177 26.1833
874 1 26.1459 10.1716 29.3307
875 1 26.1573 10.1792 32.5139
876 1 26.1627 10.1813 35.6682
877 1 26.1448 13.4025 10.2996
878 1 26.1658 13.3743 13.4561
879 1 26.1685 13.352 16.6232
880 1 26.1649 13.3305 19.8189
881 1 26.1862 13.3139 22.9938
882 1 26.1695 13.3012 26.1773
883 1 26.1635 13.3025 29.3622
884 1 26.1596 13.327 32.5241
885 1 26.154 13.3546 35.693
886 1 26.1556 16.5643 10.3167
887 1 26.165 16.5558 13.4541
888 1 24.7764 17.865 17.9433
889 1 24.6244 17.7226 21.434
890 1 26.224 16.3852 23.0311
891 1 26.2298 16.376 26.238
892 1 26.196 16.4106 29.4044
893 1 26.1887 16.4591 32.5731
894 1 26.1625 16.5175 35.7039
895 1 26.147 19.736 13.4768
896 2 24.6258 20.3208 21.4288
897 1 26.2352 19.2138 23.1221
898 1 26.3632 19.4459 26.3007
899 1 26.3036 19.4794 29.4669
900 1 26.3481 19.4767 32.685
901 1 26.1692 19.6844 35.6945
902 1 26.1333 22.9123 10.3278
903 1 26.1336 22.9127 13.5019
904 1 26.1267 22.9309 16.6705
905 2 24.7405 22.8553 21.3747
906 2 24.4573 23.275 24.7308
907 1 26.3894 22.5433 26.3153
908 1 26.3859 22.663 29.4921
909 1 26.1883 22.8738 32.525
910 1 26.1645 22.8715 35.675
911 1 26.1459 19.7401 10.3099
912 1 24.5741 18.1195 15.0558
913 1 13.4521 10.2869 10.2869
914 1 13.4777 13.4156 13.4654
915 1 13.4842 22.8781 35.6717
916 1 13.4624 13.3639 35.6755
917 1 13.4634 19.7206 35.6907
918 1 13.4677 10.2385 22.986
919 1 13.4551 22.9031 32.5176
920 1 13.4719 13.4286 10.3025
921 1 13.4568 10.2526 16.6283
922 1 13.4626 13.3986 19.8146
923 1 13.4811 13.3661 32.5037
924 1 13.4706 10.2024 32.5067
925 1 13.456 16.529 35.6769
926 1 13.4895 19.7474 22.9845
927 1 13.4418 16.53 32.503
928 1 13.4719 16.5741 13.476
929 1 13.4587 16.5465 29.3196
930 1 13.4579 10.2127 35.6597
931 1 15.0135 24.5035 18.1869
932 1 13.4905 16.5742 22.9835
933 1 13.4718 13.3983 22.9909
934 1 13.4531 19.7268 19.7976
935 1 13.4605 19.731 26.1492
936 2 22.766 24.5882 26.2602
937 1 13.4487 19.7156 32.5112
938 1 15.0123 24.5237 24.5703
939 1 13.4672 16.5926 10.2927
940 1 13.4707 13.372 29.3427
941 1 13.4484 22.9195 22.9726
942 1 13.4723 19.7677 13.46
943 1 13.4976 22.9141 26.1375
944 1 13.461 19.7184 29.3315
945 1 21.244 24.6098 18.1451
946 1 13.4499 19.7505 16.6318
947 1 13.4462 22.9274 19.7784
948 1 13.4485 22.904 29.3402
949 1 15.0234 24.5147 15.0241
950 1 15.0785 24.4452 37.2858
951 1 18.1336 24.5486 21.1768
952 1 13.474 22.9228 10.2869
953 1 13.4849 19.7596 10.3107
954 1 18.144 24.5306 18.1467
955 1 21.3613 24.5193 15.0474
956 2 23.0147 24.308 22.7018
957 1 21.3909 24.5018 11.8741
958 1 24.4613 24.5347 18.2577
959 1 15.0462 24.5121 11.8597
960 1 18.2029 24.4974 11.8605
961 1 15.0588 24.4674 34.1033
962 1 18.0824 24.4362 27.8974
963 1 24.5337 24.4989 15.0654
964 1 21.3791 24.4156 30.9948
965 2 21.7633 23.6944 28.4755
966 1 18.2239 24.4521 34.117
967 1 18.1432 24.4651 31.0111
968 1 21.3984 24.4386 34.0835
969 1 21.4114 24.4629 37.2457
970 1 24.5719 24.4646 34.0488
971 1 24.5259 24.4081 30.8577
972 1 13.4757 16.5737 16.6407
973 1 15.008 24.5249 21.3482
974 1 24.5647 24.5159 11.8946
975 1 24.5341 23.6206 27.9646
976 1 13.4781 13.4041 16.6406
977 1 13.4697 10.2418 19.8087
978 1 13.4655 10.2223 26.1579
979 1 13.4567 10.2154 29.3209
980 1 20.8999 24.8087 21.3497
981 1 13.4599 22.92 16.6335
982 1 13.4803 16.5841 19.8131
983 1 13.4723 13.3915 26.1424
984 1 13.4614 22.9221 13.455
985 1 13.4728 16.5417 26.1498
986 2 25.9948 24.4946 23.0475
987 1 26.432 23.0313 19.505
988 1 26.2069 19.5203 19.5567
989 1 26.297 16.3952 16.5147
990 1 26.2171 16.4165 19.7469
991 2 26.1958 21.8656 23.2478
992 1 27.7871 21.231 18.1822
993 1 29.3476 13.3624 13.4493
994 1 29.3218 10.2108 13.4808
995 1 30.9073 11.7613 15.0475
996 1 29.3155 10.1964 16.6373
997 1 29.3386 13.3433 16.6306
998 1 29.3268 10.2059 19.81
999 1 30.9215 11.7503 21.3899
1000 1 29.3267 10.1713 23.0052
1001 1 30.9352 11.7513 24.5811
1002 1 29.336 10.1757 26.1732
1003 1 30.9218 11.727 27.7566
1004 1 29.3262 10.1677 29.3461
1005 1 30.9211 11.7403 30.9169
1006 1 29.3212 10.1751 32.5153
1007 1 30.9184 11.7495 34.1067
1008 1 29.3219 10.2005 35.6859
1009 1 30.9171 11.7687 37.2691
1010 1 29.3257 13.3784 10.318
1011 1 30.9203 14.9737 11.8784
1012 1 27.7833 14.9052 14.9949
1013 1 29.3696 16.503 16.6086
1014 1 30.9379 14.9225 18.2106
1015 1 29.337 13.3297 19.8206
1016 1 30.9439 14.9089 21.3883
1017 1 29.3478 13.3308 22.9946
1018 1 30.9487 14.8882 24.5687
1019 1 29.357 13.314 26.1872
1020 1 30.9681 14.8664 27.7895
1021 1 29.3579 13.3083 29.3657
1022 1 30.9455 14.8963 30.9613
1023 1 29.3526 13.3224 32.5381
1024 1 30.9414 14.9264 34.1175
1025 1 29.3355 13.3375 35.7103
1026 1 30.9148 14.9299 37.2835
1027 1 29.3135 19.7312 13.4658
1028 1 27.8311 18.0095 18.1369
1029 1 29.4065 19.6048 19.7125
1030 1 29.3795 16.4609 19.777
1031 1 30.9289 18.0675 21.3837
1032 1 29.3745 16.4579 22.987
1033 1 30.983 18.0215 24.612
1034 1 29.4112 16.4248 26.2318
1035 1 31.0242 17.9947 27.8314
1036 1 29.4042 16.4313 29.4077
1037 1 30.9939 18.0483 30.9959
1038 1 29.3845 16.4747 32.5792
1039 1 30.9639 18.0809 34.1465
1040 1 29.3633 16.4784 35.7251
1041 1 30.921 18.1198 37.2804
1042 1 30.8831 21.3126 11.8851
1043 1 32.4795 22.9037 13.4665
1044 1 30.906 21.3143 15.039
1045 1 30.9516 21.2712 18.166
1046 1 30.8929 21.2067 21.2472
1047 1 29.4087 19.5467 23.0006
1048 1 31.1234 21.0593 24.8209
1049 1 29.4831 19.5018 26.3213
1050 1 31.0216 21.1728 27.8654
1051 1 29.4419 19.6022 29.451
1052 1 30.9695 21.2517 30.9634
1053 1 29.424 19.6454 32.5912
1054 1 30.9241 21.3053 34.1144
1055 1 29.3637 19.6984 35.6968
1056 1 30.9132 21.29 37.2572
1057 1 29.3144 22.9004 10.3182
1058 1 29.3182 22.9096 16.6212
1059 1 29.3982 22.8678 19.6465
1060 1 30.8036 24.4384 21.427
1061 1 29.7961 22.4981 23.1719
1062 1 29.5108 22.6945 26.361
1063 1 30.9088 24.4553 27.7778
1064 1 29.3624 22.8336 29.3621
1065 1 30.9136 24.4681 30.9196
1066 1 29.3451 22.8733 32.523
1067 1 30.8983 24.4801 34.0757
1068 1 29.3136 22.8726 35.6801
1069 1 30.9158 24.467 37.2422
1070 1 32.4956 13.3903 10.3285
1071 1 34.0815 11.7802 15.068
1072 1 34.0657 11.786 18.2293
1073 1 30.9041 11.7646 18.2371
1074 1 34.0814 11.777 21.4054
1075 1 32.4995 10.1894 23.0151
1076 1 34.0849 11.7693 24.5768
1077 1 32.5083 10.1717 26.1633
1078 1 34.0926 11.7539 27.7532
1079 1 32.4899 10.1787 29.336
1080 1 34.0836 11.7605 30.933
1081 1 32.5066 10.1707 32.5174
1082 1 34.0836 11.7748 34.0944
1083 1 32.4978 10.1948 35.6822
1084 1 34.0712 11.7993 37.2598
1085 1 29.3318 16.5192 13.4624
1086 1 30.9249 14.9452 15.0341
1087 1 32.4861 16.5379 13.4684
1088 1 32.507 13.3549 16.6427
1089 1 35.6522 13.3684 16.6321
1090 1 32.5049 13.3401 19.8186
1091 1 34.0977 14.9415 21.4117
1092 1 32.5004 13.3427 23.0146
1093 1 34.0938 14.9274 24.5757
1094 1 32.5034 13.3278 26.1625
1095 1 34.1125 14.9244 27.7748
1096 1 32.5211 13.3335 29.3707
1097 1 34.1152 14.9165 30.9466
1098 1 32.5147 13.3297 32.5284
1099 1 34.0857 14.9229 34.1168
1100 1 32.5107 13.3408 35.6889
1101 1 34.0901 14.9405 37.2514
1102 1 30.9134 18.1464 11.8846
1103 1 32.4856 16.5715 10.3193
1104 1 35.6447 19.7304 13.4803
1105 1 29.3448 19.6948 16.5994
1106 1 30.9223 18.117 15.0275
1107 1 30.9564 18.0864 18.1725
1108 1 34.0942 18.1213 18.2166
1109 1 32.5296 16.494 19.8043
1110 1 34.0809 18.1046 21.3923
1111 1 32.518 16.5048 23.0036
1112 1 34.0988 18.0934 24.5928
1113 1 32.5513 16.4742 26.1966
1114 1 34.1553 18.0663 27.8013
1115 1 32.5631 16.4503 29.3935
1116 1 34.1364 18.0839 30.9559
1117 1 32.5318 16.492 32.5354
1118 1 34.1089 18.108 34.1141
1119 1 32.4993 16.5328 35.7016
1120 1 34.0797 18.1207 37.2678
1121 1 34.0697 18.1424 11.9065
1122 1 32.4876 19.7205 13.4839
1123 1 34.0706 21.3076 15.0587
1124 1 32.5142 19.6966 16.6165
1125 1 34.0671 21.2992 18.2229
1126 1 32.5224 19.6752 19.7762
1127 1 34.0668 21.2838 21.3883
1128 1 32.4926 19.6852 22.9852
1129 1 34.1027 21.2549 24.5893
1130 1 32.6408 19.5655 26.2801
1131 1 34.1022 21.2538 27.762
1132 1 32.5849 19.6471 29.4052
1133 1 34.1014 21.278 30.9394
1134 1 32.5185 19.6875 32.5406
1135 1 34.0939 21.2835 34.0872
1136 1 32.5 19.7079 35.69
1137 1 34.072 21.3009 37.2418
1138 1 32.475 22.8905 10.3101
1139 1 35.6448 22.8906 13.473
1140 1 32.4857 22.8879 16.6186
1141 1 32.4809 22.8876 19.805
1142 1 32.4874 22.8538 22.9879
1143 1 32.5439 22.8636 26.1974
1144 1 34.0742 24.4639 27.7368
1145 1 32.5051 22.8666 29.3483
1146 1 32.5077 22.8678 32.5084
1147 1 32.5027 22.8793 35.6625
1148 1 34.0611 24.4719 37.2339
1149 1 35.6535 13.3826 10.3142
1150 1 34.0736 11.8 11.8987
1151 1 30.9175 11.7916 11.8918
1152 1 35.656 10.2121 16.654
1153 1 37.2386 11.7807 18.2335
1154 1 35.6396 10.191 19.824
1155 1 37.2265 11.7832 21.4109
1156 1 35.6708 10.1809 22.9994
1157 1 37.2332 11.7771 24.576
1158 1 35.6527 10.1917 26.1753
1159 1 37.2533 11.7796 27.7551
1160 1 35.6769 10.1845 29.3258
1161 1 37.2539 11.7638 30.9132
1162 1 35.6669 10.1912 32.5132
1163 1 37.2366 11.7612 34.0945
1164 1 35.6723 10.2 35.6846
1165 1 37.2454 11.7766 37.2575
1166 1 34.0652 14.9653 11.8875
1167 1 32.5044 13.3634 13.4691
1168 1 34.0956 14.9643 15.0572
1169 1 37.2481 18.1263 18.2352
1170 1 37.2334 14.9641 15.0569
1171 1 37.2354 14.9474 21.3969
1172 1 35.687 13.3721 19.8339
1173 1 35.6459 16.5407 19.8192
1174 1 35.6692 13.3583 22.9842
1175 1 37.2313 14.9463 24.5873
1176 1 35.6752 13.3462 26.1723
1177 1 37.2618 14.9329 27.7568
1178 1 35.678 13.3309 29.3411
1179 1 37.2705 14.9424 30.9195
1180 1 35.694 13.3577 32.5208
1181 1 37.2541 14.9438 34.1078
1182 1 35.6693 13.3626 35.6774
1183 1 37.2297 14.9546 37.2558
1184 1 37.2377 18.1481 11.8982
1185 1 35.6522 16.5604 10.3162
1186 1 37.2243 21.3124 11.9005
1187 1 35.6609 16.5481 13.4768
1188 1 37.2288 18.13 15.0643
1189 1 32.5217 16.5169 16.6347
1190 1 37.2272 21.3101 18.2407
1191 1 34.0789 14.9435 18.2271
1192 1 37.244 18.1268 21.3921
1193 1 35.6812 16.5267 23.0034
1194 1 37.2451 18.1154 24.5777
1195 1 35.6811 16.5228 26.1648
1196 1 37.2596 18.1112 27.7428
1197 1 35.7023 16.4863 29.3792
1198 1 37.2501 18.1173 30.9352
1199 1 35.6883 16.5089 32.5337
1200 1 37.2432 18.115 34.0984
1201 1 35.6579 16.515 35.6721
1202 1 37.2376 18.1312 37.2625
1203 1 35.6445 19.7408 10.3069
1204 1 35.6424 22.8883 10.3114
1205 1 35.6396 19.7022 16.6399
1206 1 34.0714 18.1294 15.0515
1207 1 35.6598 22.9067 16.6414
1208 1 35.6551 19.7199 19.8025
1209 1 37.2229 21.3048 21.3944
1210 1 35.659 19.707 22.9949
1211 1 37.2249 21.2879 24.5635
1212 1 35.6867 19.6877 26.1514
1213 1 37.2401 21.2966 27.7475
1214 1 35.693 19.7005 29.3535
1215 1 37.2479 21.2908 30.9101
1216 1 35.6733 19.714 32.5064
1217 1 37.2508 21.288 34.0754
1218 1 35.6669 19.6966 35.6823
1219 1 37.2221 21.3046 37.2455
1220 1 32.4712 19.7434 10.3118
1221 1 37.2377 21.3328 15.0543
1222 1 34.0597 21.3154 11.8811
1223 1 35.6397 22.8724 19.8149
1224 1 37.2205 24.4683 21.4048
1225 1 35.6393 22.8794 22.9742
1226 1 35.6625 22.8714 26.1578
1227 1 35.6651 22.8752 29.3268
1228 1 35.6668 22.8783 32.4926
1229 1 35.646 22.875 35.6518
1230 1 37.2245 24.4669 37.2425
1231 1 37.2426 11.8117 11.8992
1232 1 37.2229 11.7841 15.0741
1233 1 37.2358 14.9729 11.907
1234 1 35.6719 16.5395 16.6352
1235 1 37.227 14.955 18.2449
1236 1 35.6326 10.211 13.4904
1237 1 32.4767 10.2005 16.6691
1238 1 29.3185 10.215 10.3025
1239 1 35.659 13.3896 13.4936
1240 1 29.3101 19.7312 10.3166
1241 1 29.3204 16.561 10.3164
1242 1 29.3047 22.8952 13.4776
1243 1 32.4841 10.189 19.8332
1244 1 37.2237 24.4744 18.2294
1245 1 30.8956 24.5006 15.0428
1246 1 34.0453 24.4531 24.5696
1247 1 37.2274 24.472 30.9039
1248 1 37.2285 24.461 34.0805
1249 1 37.2238 24.481 24.5702
1250 1 37.2189 24.4802 27.738
1251 1 34.0698 24.4723 34.0719
1252 1 37.2224 24.4796 15.0623
1253 1 30.9233 24.4564 24.613
1254 1 34.0831 24.4694 30.91
1255 1 34.0752 24.4794 18.2212
1256 1 30.8973 24.4905 11.8919
1257 1 34.0269 24.4686 21.4035
1258 1 34.0795 24.4882 15.0356
1259 1 30.953 24.4863 18.1852
1260 1 37.2247 24.4876 11.904
1261 1 34.0725 24.4945 11.9022
1262 1 27.7816 14.8726 18.19
1263 1 27.7554 14.8948 34.1308
1264 1 27.762 11.7526 30.9378
1265 1 27.7518 11.7507 24.5818
1266 1 27.7719 21.2585 34.1234
1267 1 27.7491 24.4543 30.9079
1268 1 27.8639 21.1636 31.0486
1269 1 27.7326 21.2887 37.2511
1270 1 27.7351 24.4566 37.2258
1271 1 27.7492 24.4584 34.0869
1272 1 27.8353 17.989 31.0234
1273 1 27.7499 11.7561 34.116
1274 1 27.7846 14.8431 24.6229
1275 1 27.7597 14.9524 37.2813
1276 1 27.8843 17.8964 24.6692
1277 1 27.7904 14.8613 27.8072
1278 1 27.7567 11.7305 27.7688
1279 1 27.7284 18.1577 11.9022
1280 1 27.7509 11.7429 21.3991
1281 1 27.8335 18.017 34.1971
1282 1 27.7319 11.7814 37.2536
1283 1 27.8816 21.0991 27.8845
1284 1 27.6828 24.4391 27.7014
1285 1 27.7513 18.1075 37.2949
1286 1 27.7162 24.4942 11.8848
1287 1 27.7736 14.8893 21.3855
1288 1 27.8501 17.9387 27.8531
1289 1 27.7347 21.3078 11.8971
1290 1 27.7531 11.7594 18.2013
1291 1 27.7318 11.7721 15.048
1292 1 27.7859 14.8762 30.9778
1293 1 27.7376 14.9653 11.8874
1294 1 35.6464 10.2302 10.3233
1295 1 27.7254 11.8016 11.8814
1296 1 32.4907 10.2157 13.4846
1297 1 27.7217 21.3183 15.0667
1298 1 28.0428 21.0003 24.7728
1299 1 27.8462 24.6688 18.0984
1300 1 32.4896 10.2257 10.3161
1301 1 27.7807 17.989 21.3301
1302 1 27.7416 18.1192 15.0252
1303 1 27.7466 24.5069 15.0303
1304 1 27.7083 20.748 21.3236
1305 1 28.0133 23.7695 24.5573
1306 2 27.8773 23.2724 21.7304
1307 1 0.7913 0.7913 0.7913
1308 1 2.3739 2.3739 2.3739
1309 1 0.7913 0.7913 3.9565
1310 1 2.3739 2.3739 5.5391
1311 1 0.7913 0.7913 7.1217
1312 1 2.3739 2.3739 8.7043
1313 1 0.7913 0.7913 10.2869
1314 1 2.3739 2.3739 11.8695
1315 1 0.7913 0.7913 13.4521
1316 1 2.3739 2.3739 15.0347
1317 1 0.7913 0.7913 16.6173
1318 1 2.3739 2.3739 18.1999
1319 1 0.7913 0.7913 19.7825
1320 1 2.3739 2.3739 21.3651
1321 1 0.7913 0.7913 22.9477
1322 1 2.3739 2.3739 24.5303
1323 1 0.7913 0.7913 26.1129
1324 1 2.3739 2.3739 27.6955
1325 1 0.7913 0.7913 29.2781
1326 1 2.3739 2.3739 30.8607
1327 1 0.7913 0.7913 32.4433
1328 1 2.3739 2.3739 34.0259
1329 1 0.7913 0.7913 35.6085
1330 1 2.3739 2.3739 37.1911
1331 1 0.7913 0.7913 38.7737
1332 1 2.3739 2.3739 40.3563
1333 1 0.7913 0.7913 41.9389
1334 1 2.3739 2.3739 43.5215
1335 1 0.7913 0.7913 45.1041
1336 1 2.3739 2.3739 46.6867
1337 1 0.7913 0.7913 48.2693
1338 1 2.3739 2.3739 49.8519
1339 1 0.7913 3.9565 0.7913
1340 1 2.3739 5.5391 2.3739
1341 1 0.7913 3.9565 3.9565
1342 1 2.3739 5.5391 5.5391
1343 1 0.7913 3.9565 7.1217
1344 1 2.3739 5.5391 8.7043
1345 1 0.7913 3.9565 10.2869
1346 1 2.3739 5.5391 11.8695
1347 1 0.7913 3.9565 13.4521
1348 1 2.3739 5.5391 15.0347
1349 1 0.7913 3.9565 16.6173
1350 1 2.3739 5.5391 18.1999
1351 1 0.7913 3.9565 19.7825
1352 1 2.3739 5.5391 21.3651
1353 1 0.7913 3.9565 22.9477
1354 1 2.3739 5.5391 24.5303
1355 1 0.7913 3.9565 26.1129
1356 1 2.3739 5.5391 27.6955
1357 1 0.7913 3.9565 29.2781
1358 1 2.3739 5.5391 30.8607
1359 1 0.7913 3.9565 32.4433
1360 1 2.3739 5.5391 34.0259
1361 1 0.7913 3.9565 35.6085
1362 1 2.3739 5.5391 37.1911
1363 1 0.7913 3.9565 38.7737
1364 1 2.3739 5.5391 40.3563
1365 1 0.7913 3.9565 41.9389
1366 1 2.3739 5.5391 43.5215
1367 1 0.7913 3.9565 45.1041
1368 1 2.3739 5.5391 46.6867
1369 1 0.7913 3.9565 48.2693
1370 1 2.3739 5.5391 49.8519
1371 1 0.7913 7.1217 0.7913
1372 1 2.3739 8.7043 2.3739
1373 1 0.7913 7.1217 3.9565
1374 1 2.3739 8.7043 5.5391
1375 1 0.7913 7.1217 7.1217
1376 1 2.3739 8.7043 8.7043
1377 1 0.7913 7.1217 10.2869
1378 1 2.3739 8.7043 11.8695
1379 1 0.7913 7.1217 13.4521
1380 1 2.3739 8.7043 15.0347
1381 1 0.7913 7.1217 16.6173
1382 1 2.3739 8.7043 18.1999
1383 1 0.7913 7.1217 19.7825
1384 1 2.3739 8.7043 21.3651
1385 1 0.7913 7.1217 22.9477
1386 1 2.3739 8.7043 24.5303
1387 1 0.7913 7.1217 26.1129
1388 1 2.3739 8.7043 27.6955
1389 1 0.7913 7.1217 29.2781
1390 1 2.3739 8.7043 30.8607
1391 1 0.7913 7.1217 32.4433
1392 1 2.3739 8.7043 34.0259
1393 1 0.7913 7.1217 35.6085
1394 1 2.3739 8.7043 37.1911
1395 1 0.7913 7.1217 38.7737
1396 1 2.3739 8.7043 40.3563
1397 1 0.7913 7.1217 41.9389
1398 1 2.3739 8.7043 43.5215
1399 1 0.7913 7.1217 45.1041
1400 1 2.3739 8.7043 46.6867
1401 1 0.7913 7.1217 48.2693
1402 1 2.3739 8.7043 49.8519
1403 1 0.7913 10.2869 0.7913
1404 1 2.3739 11.8695 2.3739
1405 1 0.7913 10.2869 3.9565
1406 1 2.3739 11.8695 5.5391
1407 1 0.7913 10.2869 7.1217
1408 1 2.3739 11.8695 8.7043
1409 1 0.7913 10.2869 10.2869
1410 1 2.3739 11.8695 11.8695
1411 1 0.7913 10.2869 13.4521
1412 1 2.3739 11.8695 15.0347
1413 1 0.7913 10.2869 16.6173
1414 1 2.3739 11.8695 18.1999
1415 1 0.7913 10.2869 19.7825
1416 1 2.3739 11.8695 21.3651
1417 1 0.7913 10.2869 22.9477
1418 1 2.3739 11.8695 24.5303
1419 1 0.7913 10.2869 26.1129
1420 1 2.3739 11.8695 27.6955
1421 1 0.7913 10.2869 29.2781
1422 1 2.3739 11.8695 30.8607
1423 1 0.7913 10.2869 32.4433
1424 1 2.3739 11.8695 34.0259
1425 1 0.7913 10.2869 35.6085
1426 1 2.3739 11.8695 37.1911
1427 1 0.7913 10.2869 38.7737
1428 1 2.3739 11.8695 40.3563
1429 1 0.7913 10.2869 41.9389
1430 1 2.3739 11.8695 43.5215
1431 1 0.7913 10.2869 45.1041
1432 1 2.3739 11.8695 46.6867
1433 1 0.7913 10.2869 48.2693
1434 1 2.3739 11.8695 49.8519
1435 1 0.7913 13.4521 0.7913
1436 1 2.3739 15.0347 2.3739
1437 1 0.7913 13.4521 3.9565
1438 1 2.3739 15.0347 5.5391
1439 1 0.7913 13.4521 7.1217
1440 1 2.3739 15.0347 8.7043
1441 1 0.7913 13.4521 10.2869
1442 1 2.3739 15.0347 11.8695
1443 1 0.7913 13.4521 13.4521
1444 1 2.3739 15.0347 15.0347
1445 1 0.7913 13.4521 16.6173
1446 1 2.3739 15.0347 18.1999
1447 1 0.7913 13.4521 19.7825
1448 1 2.3739 15.0347 21.3651
1449 1 0.7913 13.4521 22.9477
1450 1 2.3739 15.0347 24.5303
1451 1 0.7913 13.4521 26.1129
1452 1 2.3739 15.0347 27.6955
1453 1 0.7913 13.4521 29.2781
1454 1 2.3739 15.0347 30.8607
1455 1 0.7913 13.4521 32.4433
1456 1 2.3739 15.0347 34.0259
1457 1 0.7913 13.4521 35.6085
1458 1 2.3739 15.0347 37.1911
1459 1 0.7913 13.4521 38.7737
1460 1 2.3739 15.0347 40.3563
1461 1 0.7913 13.4521 41.9389
1462 1 2.3739 15.0347 43.5215
1463 1 0.7913 13.4521 45.1041
1464 1 2.3739 15.0347 46.6867
1465 1 0.7913 13.4521 48.2693
1466 1 2.3739 15.0347 49.8519
1467 1 0.7913 16.6173 0.7913
1468 1 2.3739 18.1999 2.3739
1469 1 0.7913 16.6173 3.9565
1470 1 2.3739 18.1999 5.5391
1471 1 0.7913 16.6173 7.1217
1472 1 2.3739 18.1999 8.7043
1473 1 0.7913 16.6173 10.2869
1474 1 2.3739 18.1999 11.8695
1475 1 0.7913 16.6173 13.4521
1476 1 2.3739 18.1999 15.0347
1477 1 0.7913 16.6173 16.6173
1478 1 2.3739 18.1999 18.1999
1479 1 0.7913 16.6173 19.7825
1480 1 2.3739 18.1999 21.3651
1481 1 0.7913 16.6173 22.9477
1482 1 2.3739 18.1999 24.5303
1483 1 0.7913 16.6173 26.1129
1484 1 2.3739 18.1999 27.6955
1485 1 0.7913 16.6173 29.2781
1486 1 2.3739 18.1999 30.8607
1487 1 0.7913 16.6173 32.4433
1488 1 2.3739 18.1999 34.0259
1489 1 0.7913 16.6173 35.6085
1490 1 2.3739 18.1999 37.1911
1491 1 0.7913 16.6173 38.7737
1492 1 2.3739 18.1999 40.3563
1493 1 0.7913 16.6173 41.9389
1494 1 2.3739 18.1999 43.5215
1495 1 0.7913 16.6173 45.1041
1496 1 2.3739 18.1999 46.6867
1497 1 0.7913 16.6173 48.2693
1498 1 2.3739 18.1999 49.8519
1499 1 0.7913 19.7825 0.7913
1500 1 2.3739 21.3651 2.3739
1501 1 0.7913 19.7825 3.9565
1502 1 2.3739 21.3651 5.5391
1503 1 0.7913 19.7825 7.1217
1504 1 2.3739 21.3651 8.7043
1505 1 0.7913 19.7825 10.2869
1506 1 2.3739 21.3651 11.8695
1507 1 0.7913 19.7825 13.4521
1508 1 2.3739 21.3651 15.0347
1509 1 0.7913 19.7825 16.6173
1510 1 2.3739 21.3651 18.1999
1511 1 0.7913 19.7825 19.7825
1512 1 2.3739 21.3651 21.3651
1513 1 0.7913 19.7825 22.9477
1514 1 2.3739 21.3651 24.5303
1515 1 0.7913 19.7825 26.1129
1516 1 2.3739 21.3651 27.6955
1517 1 0.7913 19.7825 29.2781
1518 1 2.3739 21.3651 30.8607
1519 1 0.7913 19.7825 32.4433
1520 1 2.3739 21.3651 34.0259
1521 1 0.7913 19.7825 35.6085
1522 1 2.3739 21.3651 37.1911
1523 1 0.7913 19.7825 38.7737
1524 1 2.3739 21.3651 40.3563
1525 1 0.7913 19.7825 41.9389
1526 1 2.3739 21.3651 43.5215
1527 1 0.7913 19.7825 45.1041
1528 1 2.3739 21.3651 46.6867
1529 1 0.7913 19.7825 48.2693
1530 1 2.3739 21.3651 49.8519
1531 1 0.7913 22.9477 0.7913
1532 1 2.3739 24.5303 2.3739
1533 1 0.7913 22.9477 3.9565
1534 1 2.3739 24.5303 5.5391
1535 1 0.7913 22.9477 7.1217
1536 1 2.3739 24.5303 8.7043
1537 1 0.7913 22.9477 10.2869
1538 1 2.3739 24.5303 11.8695
1539 1 0.7913 22.9477 13.4521
1540 1 2.3739 24.5303 15.0347
1541 1 0.7913 22.9477 16.6173
1542 1 2.3739 24.5303 18.1999
1543 1 0.7913 22.9477 19.7825
1544 1 2.3739 24.5303 21.3651
1545 1 0.7913 22.9477 22.9477
1546 1 2.3739 24.5303 24.5303
1547 1 0.7913 22.9477 26.1129
1548 1 2.3739 24.5303 27.6955
1549 1 0.7913 22.9477 29.2781
1550 1 2.3739 24.5303 30.8607
1551 1 0.7913 22.9477 32.4433
1552 1 2.3739 24.5303 34.0259
1553 1 0.7913 22.9477 35.6085
1554 1 2.3739 24.5303 37.1911
1555 1 0.7913 22.9477 38.7737
1556 1 2.3739 24.5303 40.3563
1557 1 0.7913 22.9477 41.9389
1558 1 2.3739 24.5303 43.5215
1559 1 0.7913 22.9477 45.1041
1560 1 2.3739 24.5303 46.6867
1561 1 0.7913 22.9477 48.2693
1562 1 2.3739 24.5303 49.8519
1563 1 0.7913 26.1129 0.7913
1564 1 2.3739 27.6955 2.3739
1565 1 0.7913 26.1129 3.9565
1566 1 2.3739 27.6955 5.5391
1567 1 0.7913 26.1129 7.1217
1568 1 2.3739 27.6955 8.7043
1569 1 0.7913 26.1129 10.2869
1570 1 2.3739 27.6955 11.8695
1571 1 0.7913 26.1129 13.4521
1572 1 2.3739 27.6955 15.0347
1573 1 0.7913 26.1129 16.6173
1574 1 2.3739 27.6955 18.1999
1575 1 0.7913 26.1129 19.7825
1576 1 2.3739 27.6955 21.3651
1577 1 0.7913 26.1129 22.9477
1578 1 2.3739 27.6955 24.5303
1579 1 0.7913 26.1129 26.1129
1580 1 2.3739 27.6955 27.6955
1581 1 0.7913 26.1129 29.2781
1582 1 2.3739 27.6955 30.8607
1583 1 0.7913 26.1129 32.4433
1584 1 2.3739 27.6955 34.0259
1585 1 0.7913 26.1129 35.6085
1586 1 2.3739 27.6955 37.1911
1587 1 0.7913 26.1129 38.7737
1588 1 2.3739 27.6955 40.3563
1589 1 0.7913 26.1129 41.9389
1590 1 2.3739 27.6955 43.5215
1591 1 0.7913 26.1129 45.1041
1592 1 2.3739 27.6955 46.6867
1593 1 0.7913 26.1129 48.2693
1594 1 2.3739 27.6955 49.8519
1595 1 0.7913 29.2781 0.7913
1596 1 2.3739 30.8607 2.3739
1597 1 0.7913 29.2781 3.9565
1598 1 2.3739 30.8607 5.5391
1599 1 0.7913 29.2781 7.1217
1600 1 2.3739 30.8607 8.7043
1601 1 0.7913 29.2781 10.2869
1602 1 2.3739 30.8607 11.8695
1603 1 0.7913 29.2781 13.4521
1604 1 2.3739 30.8607 15.0347
1605 1 0.7913 29.2781 16.6173
1606 1 2.3739 30.8607 18.1999
1607 1 0.7913 29.2781 19.7825
1608 1 2.3739 30.8607 21.3651
1609 1 0.7913 29.2781 22.9477
1610 1 2.3739 30.8607 24.5303
1611 1 0.7913 29.2781 26.1129
1612 1 2.3739 30.8607 27.6955
1613 1 0.7913 29.2781 29.2781
1614 1 2.3739 30.8607 30.8607
1615 1 0.7913 29.2781 32.4433
1616 1 2.3739 30.8607 34.0259
1617 1 0.7913 29.2781 35.6085
1618 1 2.3739 30.8607 37.1911
1619 1 0.7913 29.2781 38.7737
1620 1 2.3739 30.8607 40.3563
1621 1 0.7913 29.2781 41.9389
1622 1 2.3739 30.8607 43.5215
1623 1 0.7913 29.2781 45.1041
1624 1 2.3739 30.8607 46.6867
1625 1 0.7913 29.2781 48.2693
1626 1 2.3739 30.8607 49.8519
1627 1 0.7913 32.4433 0.7913
1628 1 2.3739 34.0259 2.3739
1629 1 0.7913 32.4433 3.9565
1630 1 2.3739 34.0259 5.5391
1631 1 0.7913 32.4433 7.1217
1632 1 2.3739 34.0259 8.7043
1633 1 0.7913 32.4433 10.2869
1634 1 2.3739 34.0259 11.8695
1635 1 0.7913 32.4433 13.4521
1636 1 2.3739 34.0259 15.0347
1637 1 0.7913 32.4433 16.6173
1638 1 2.3739 34.0259 18.1999
1639 1 0.7913 32.4433 19.7825
1640 1 2.3739 34.0259 21.3651
1641 1 0.7913 32.4433 22.9477
1642 1 2.3739 34.0259 24.5303
1643 1 0.7913 32.4433 26.1129
1644 1 2.3739 34.0259 27.6955
1645 1 0.7913 32.4433 29.2781
1646 1 2.3739 34.0259 30.8607
1647 1 0.7913 32.4433 32.4433
1648 1 2.3739 34.0259 34.0259
1649 1 0.7913 32.4433 35.6085
1650 1 2.3739 34.0259 37.1911
1651 1 0.7913 32.4433 38.7737
1652 1 2.3739 34.0259 40.3563
1653 1 0.7913 32.4433 41.9389
1654 1 2.3739 34.0259 43.5215
1655 1 0.7913 32.4433 45.1041
1656 1 2.3739 34.0259 46.6867
1657 1 0.7913 32.4433 48.2693
1658 1 2.3739 34.0259 49.8519
1659 1 0.7913 35.6085 0.7913
1660 1 2.3739 37.1911 2.3739
1661 1 0.7913 35.6085 3.9565
1662 1 2.3739 37.1911 5.5391
1663 1 0.7913 35.6085 7.1217
1664 1 2.3739 37.1911 8.7043
1665 1 0.7913 35.6085 10.2869
1666 1 2.3739 37.1911 11.8695
1667 1 0.7913 35.6085 13.4521
1668 1 2.3739 37.1911 15.0347
1669 1 0.7913 35.6085 16.6173
1670 1 2.3739 37.1911 18.1999
1671 1 0.7913 35.6085 19.7825
1672 1 2.3739 37.1911 21.3651
1673 1 0.7913 35.6085 22.9477
1674 1 2.3739 37.1911 24.5303
1675 1 0.7913 35.6085 26.1129
1676 1 2.3739 37.1911 27.6955
1677 1 0.7913 35.6085 29.2781
1678 1 2.3739 37.1911 30.8607
1679 1 0.7913 35.6085 32.4433
1680 1 2.3739 37.1911 34.0259
1681 1 0.7913 35.6085 35.6085
1682 1 2.3739 37.1911 37.1911
1683 1 0.7913 35.6085 38.7737
1684 1 2.3739 37.1911 40.3563
1685 1 0.7913 35.6085 41.9389
1686 1 2.3739 37.1911 43.5215
1687 1 0.7913 35.6085 45.1041
1688 1 2.3739 37.1911 46.6867
1689 1 0.7913 35.6085 48.2693
1690 1 2.3739 37.1911 49.8519
1691 1 0.7913 38.7737 0.7913
1692 1 2.3739 40.3563 2.3739
1693 1 0.7913 38.7737 3.9565
1694 1 2.3739 40.3563 5.5391
1695 1 0.7913 38.7737 7.1217
1696 1 2.3739 40.3563 8.7043
1697 1 0.7913 38.7737 10.2869
1698 1 2.3739 40.3563 11.8695
1699 1 0.7913 38.7737 13.4521
1700 1 2.3739 40.3563 15.0347
1701 1 0.7913 38.7737 16.6173
1702 1 2.3739 40.3563 18.1999
1703 1 0.7913 38.7737 19.7825
1704 1 2.3739 40.3563 21.3651
1705 1 0.7913 38.7737 22.9477
1706 1 2.3739 40.3563 24.5303
1707 1 0.7913 38.7737 26.1129
1708 1 2.3739 40.3563 27.6955
1709 1 0.7913 38.7737 29.2781
1710 1 2.3739 40.3563 30.8607
1711 1 0.7913 38.7737 32.4433
1712 1 2.3739 40.3563 34.0259
1713 1 0.7913 38.7737 35.6085
1714 1 2.3739 40.3563 37.1911
1715 1 0.7913 38.7737 38.7737
1716 1 2.3739 40.3563 40.3563
1717 1 0.7913 38.7737 41.9389
1718 1 2.3739 40.3563 43.5215
1719 1 0.7913 38.7737 45.1041
1720 1 2.3739 40.3563 46.6867
1721 1 0.7913 38.7737 48.2693
1722 1 2.3739 40.3563 49.8519
1723 1 0.7913 41.9389 0.7913
1724 1 2.3739 43.5215 2.3739
1725 1 0.7913 41.9389 3.9565
1726 1 2.3739 43.5215 5.5391
1727 1 0.7913 41.9389 7.1217
1728 1 2.3739 43.5215 8.7043
1729 1 0.7913 41.9389 10.2869
1730 1 2.3739 43.5215 11.8695
1731 1 0.7913 41.9389 13.4521
1732 1 2.3739 43.5215 15.0347
1733 1 0.7913 41.9389 16.6173
1734 1 2.3739 43.5215 18.1999
1735 1 0.7913 41.9389 19.7825
1736 1 2.3739 43.5215 21.3651
1737 1 0.7913 41.9389 22.9477
1738 1 2.3739 43.5215 24.5303
1739 1 0.7913 41.9389 26.1129
1740 1 2.3739 43.5215 27.6955
1741 1 0.7913 41.9389 29.2781
1742 1 2.3739 43.5215 30.8607
1743 1 0.7913 41.9389 32.4433
1744 1 2.3739 43.5215 34.0259
1745 1 0.7913 41.9389 35.6085
1746 1 2.3739 43.5215 37.1911
1747 1 0.7913 41.9389 38.7737
1748 1 2.3739 43.5215 40.3563
1749 1 0.7913 41.9389 41.9389
1750 1 2.3739 43.5215 43.5215
1751 1 0.7913 41.9389 45.1041
1752 1 2.3739 43.5215 46.6867
1753 1 0.7913 41.9389 48.2693
1754 1 2.3739 43.5215 49.8519
1755 1 0.7913 45.1041 0.7913
1756 1 2.3739 46.6867 2.3739
1757 1 0.7913 45.1041 3.9565
1758 1 2.3739 46.6867 5.5391
1759 1 0.7913 45.1041 7.1217
1760 1 2.3739 46.6867 8.7043
1761 1 0.7913 45.1041 10.2869
1762 1 2.3739 46.6867 11.8695
1763 1 0.7913 45.1041 13.4521
1764 1 2.3739 46.6867 15.0347
1765 1 0.7913 45.1041 16.6173
1766 1 2.3739 46.6867 18.1999
1767 1 0.7913 45.1041 19.7825
1768 1 2.3739 46.6867 21.3651
1769 1 0.7913 45.1041 22.9477
1770 1 2.3739 46.6867 24.5303
1771 1 0.7913 45.1041 26.1129
1772 1 2.3739 46.6867 27.6955
1773 1 0.7913 45.1041 29.2781
1774 1 2.3739 46.6867 30.8607
1775 1 0.7913 45.1041 32.4433
1776 1 2.3739 46.6867 34.0259
1777 1 0.7913 45.1041 35.6085
1778 1 2.3739 46.6867 37.1911
1779 1 0.7913 45.1041 38.7737
1780 1 2.3739 46.6867 40.3563
1781 1 0.7913 45.1041 41.9389
1782 1 2.3739 46.6867 43.5215
1783 1 0.7913 45.1041 45.1041
1784 1 2.3739 46.6867 46.6867
1785 1 0.7913 45.1041 48.2693
1786 1 2.3739 46.6867 49.8519
1787 1 0.7913 48.2693 0.7913
1788 1 2.3739 49.8519 2.3739
1789 1 0.7913 48.2693 3.9565
1790 1 2.3739 49.8519 5.5391
1791 1 0.7913 48.2693 7.1217
1792 1 2.3739 49.8519 8.7043
1793 1 0.7913 48.2693 10.2869
1794 1 2.3739 49.8519 11.8695
1795 1 0.7913 48.2693 13.4521
1796 1 2.3739 49.8519 15.0347
1797 1 0.7913 48.2693 16.6173
1798 1 2.3739 49.8519 18.1999
1799 1 0.7913 48.2693 19.7825
1800 1 2.3739 49.8519 21.3651
1801 1 0.7913 48.2693 22.9477
1802 1 2.3739 49.8519 24.5303
1803 1 0.7913 48.2693 26.1129
1804 1 2.3739 49.8519 27.6955
1805 1 0.7913 48.2693 29.2781
1806 1 2.3739 49.8519 30.8607
1807 1 0.7913 48.2693 32.4433
1808 1 2.3739 49.8519 34.0259
1809 1 0.7913 48.2693 35.6085
1810 1 2.3739 49.8519 37.1911
1811 1 0.7913 48.2693 38.7737
1812 1 2.3739 49.8519 40.3563
1813 1 0.7913 48.2693 41.9389
1814 1 2.3739 49.8519 43.5215
1815 1 0.7913 48.2693 45.1041
1816 1 2.3739 49.8519 46.6867
1817 1 0.7913 48.2693 48.2693
1818 1 2.3739 49.8519 49.8519
1819 1 3.9565 0.7913 0.7913
1820 1 5.5391 2.3739 2.3739
1821 1 3.9565 0.7913 3.9565
1822 1 5.5391 2.3739 5.5391
1823 1 3.9565 0.7913 7.1217
1824 1 5.5391 2.3739 8.7043
1825 1 3.9565 0.7913 10.2869
1826 1 5.5391 2.3739 11.8695
1827 1 3.9565 0.7913 13.4521
1828 1 5.5391 2.3739 15.0347
1829 1 3.9565 0.7913 16.6173
1830 1 5.5391 2.3739 18.1999
1831 1 3.9565 0.7913 19.7825
1832 1 5.5391 2.3739 21.3651
1833 1 3.9565 0.7913 22.9477
1834 1 5.5391 2.3739 24.5303
1835 1 3.9565 0.7913 26.1129
1836 1 5.5391 2.3739 27.6955
1837 1 3.9565 0.7913 29.2781
1838 1 5.5391 2.3739 30.8607
1839 1 3.9565 0.7913 32.4433
1840 1 5.5391 2.3739 34.0259
1841 1 3.9565 0.7913 35.6085
1842 1 5.5391 2.3739 37.1911
1843 1 3.9565 0.7913 38.7737
1844 1 5.5391 2.3739 40.3563
1845 1 3.9565 0.7913 41.9389
1846 1 5.5391 2.3739 43.5215
1847 1 3.9565 0.7913 45.1041
1848 1 5.5391 2.3739 46.6867
1849 1 3.9565 0.7913 48.2693
1850 1 5.5391 2.3739 49.8519
1851 1 3.9565 3.9565 0.7913
1852 1 5.5391 5.5391 2.3739
1853 1 3.9565 3.9565 3.9565
1854 1 5.5391 5.5391 5.5391
1855 1 3.9565 3.9565 7.1217
1856 1 5.5391 5.5391 8.7043
1857 1 3.9565 3.9565 10.2869
1858 1 5.5391 5.5391 11.8695
1859 1 3.9565 3.9565 13.4521
1860 1 5.5391 5.5391 15.0347
1861 1 3.9565 3.9565 16.6173
1862 1 5.5391 5.5391 18.1999
1863 1 3.9565 3.9565 19.7825
1864 1 5.5391 5.5391 21.3651
1865 1 3.9565 3.9565 22.9477
1866 1 5.5391 5.5391 24.5303
1867 1 3.9565 3.9565 26.1129
1868 1 5.5391 5.5391 27.6955
1869 1 3.9565 3.9565 29.2781
1870 1 5.5391 5.5391 30.8607
1871 1 3.9565 3.9565 32.4433
1872 1 5.5391 5.5391 34.0259
1873 1 3.9565 3.9565 35.6085
1874 1 5.5391 5.5391 37.1911
1875 1 3.9565 3.9565 38.7737
1876 1 5.5391 5.5391 40.3563
1877 1 3.9565 3.9565 41.9389
1878 1 5.5391 5.5391 43.5215
1879 1 3.9565 3.9565 45.1041
1880 1 5.5391 5.5391 46.6867
1881 1 3.9565 3.9565 48.2693
1882 1 5.5391 5.5391 49.8519
1883 1 3.9565 7.1217 0.7913
1884 1 5.5391 8.7043 2.3739
1885 1 3.9565 7.1217 3.9565
1886 1 5.5391 8.7043 5.5391
1887 1 3.9565 7.1217 7.1217
1888 1 5.5391 8.7043 8.7043
1889 1 3.9565 7.1217 10.2869
1890 1 5.5391 8.7043 11.8695
1891 1 3.9565 7.1217 13.4521
1892 1 5.5391 8.7043 15.0347
1893 1 3.9565 7.1217 16.6173
1894 1 5.5391 8.7043 18.1999
1895 1 3.9565 7.1217 19.7825
1896 1 5.5391 8.7043 21.3651
1897 1 3.9565 7.1217 22.9477
1898 1 5.5391 8.7043 24.5303
1899 1 3.9565 7.1217 26.1129
1900 1 5.5391 8.7043 27.6955
1901 1 3.9565 7.1217 29.2781
1902 1 5.5391 8.7043 30.8607
1903 1 3.9565 7.1217 32.4433
1904 1 5.5391 8.7043 34.0259
1905 1 3.9565 7.1217 35.6085
1906 1 5.5391 8.7043 37.1911
1907 1 3.9565 7.1217 38.7737
1908 1 5.5391 8.7043 40.3563
1909 1 3.9565 7.1217 41.9389
1910 1 5.5391 8.7043 43.5215
1911 1 3.9565 7.1217 45.1041
1912 1 5.5391 8.7043 46.6867
1913 1 3.9565 7.1217 48.2693
1914 1 5.5391 8.7043 49.8519
1915 1 3.9565 10.2869 0.7913
1916 1 5.5391 11.8695 2.3739
1917 1 3.9565 10.2869 3.9565
1918 1 5.5391 11.8695 5.5391
1919 1 3.9565 10.2869 7.1217
1920 1 5.5391 11.8695 8.7043
1921 1 3.9565 10.2869 10.2869
1922 1 5.5391 11.8695 11.8695
1923 1 3.9565 10.2869 13.4521
1924 1 5.5391 11.8695 15.0347
1925 1 3.9565 10.2869 16.6173
1926 1 5.5391 11.8695 18.1999
1927 1 3.9565 10.2869 19.7825
1928 1 5.5391 11.8695 21.3651
1929 1 3.9565 10.2869 22.9477
1930 1 5.5391 11.8695 24.5303
1931 1 3.9565 10.2869 26.1129
1932 1 5.5391 11.8695 27.6955
1933 1 3.9565 10.2869 29.2781
1934 1 5.5391 11.8695 30.8607
1935 1 3.9565 10.2869 32.4433
1936 1 5.5391 11.8695 34.0259
1937 1 3.9565 10.2869 35.6085
1938 1 5.5391 11.8695 37.1911
1939 1 3.9565 10.2869 38.7737
1940 1 5.5391 11.8695 40.3563
1941 1 3.9565 10.2869 41.9389
1942 1 5.5391 11.8695 43.5215
1943 1 3.9565 10.2869 45.1041
1944 1 5.5391 11.8695 46.6867
1945 1 3.9565 10.2869 48.2693
1946 1 5.5391 11.8695 49.8519
1947 1 3.9565 13.4521 0.7913
1948 1 5.5391 15.0347 2.3739
1949 1 3.9565 13.4521 3.9565
1950 1 5.5391 15.0347 5.5391
1951 1 3.9565 13.4521 7.1217
1952 1 5.5391 15.0347 8.7043
1953 1 3.9565 13.4521 10.2869
1954 1 5.5391 15.0347 11.8695
1955 1 3.9565 13.4521 13.4521
1956 1 5.5391 15.0347 15.0347
1957 1 3.9565 13.4521 16.6173
1958 1 5.5391 15.0347 18.1999
1959 1 3.9565 13.4521 19.7825
1960 1 5.5391 15.0347 21.3651
1961 1 3.9565 13.4521 22.9477
1962 1 5.5391 15.0347 24.5303
1963 1 3.9565 13.4521 26.1129
1964 1 5.5391 15.0347 27.6955
1965 1 3.9565 13.4521 29.2781
1966 1 5.5391 15.0347 30.8607
1967 1 3.9565 13.4521 32.4433
1968 1 5.5391 15.0347 34.0259
1969 1 3.9565 13.4521 35.6085
1970 1 5.5391 15.0347 37.1911
1971 1 3.9565 13.4521 38.7737
1972 1 5.5391 15.0347 40.3563
1973 1 3.9565 13.4521 41.9389
1974 1 5.5391 15.0347 43.5215
1975 1 3.9565 13.4521 45.1041
1976 1 5.5391 15.0347 46.6867
1977 1 3.9565 13.4521 48.2693
1978 1 5.5391 15.0347 49.8519
1979 1 3.9565 16.6173 0.7913
1980 1 5.5391 18.1999 2.3739
1981 1 3.9565 16.6173 3.9565
1982 1 5.5391 18.1999 5.5391
1983 1 3.9565 16.6173 7.1217
1984 1 5.5391 18.1999 8.7043
1985 1 3.9565 16.6173 10.2869
1986 1 5.5391 18.1999 11.8695
1987 1 3.9565 16.6173 13.4521
1988 1 5.5391 18.1999 15.0347
1989 1 3.9565 16.6173 16.6173
1990 1 5.5391 18.1999 18.1999
1991 1 3.9565 16.6173 19.7825
1992 1 5.5391 18.1999 21.3651
1993 1 3.9565 16.6173 22.9477
1994 1 5.5391 18.1999 24.5303
1995 1 3.9565 16.6173 26.1129
1996 1 5.5391 18.1999 27.6955
1997 1 3.9565 16.6173 29.2781
1998 1 5.5391 18.1999 30.8607
1999 1 3.9565 16.6173 32.4433
2000 1 5.5391 18.1999 34.0259
2001 1 3.9565 16.6173 35.6085
2002 1 5.5391 18.1999 37.1911
2003 1 3.9565 16.6173 38.7737
2004 1 5.5391 18.1999 40.3563
2005 1 3.9565 16.6173 41.9389
2006 1 5.5391 18.1999 43.5215
2007 1 3.9565 16.6173 45.1041
2008 1 5.5391 18.1999 46.6867
2009 1 3.9565 16.6173 48.2693
2010 1 5.5391 18.1999 49.8519
2011 1 3.9565 19.7825 0.7913
2012 1 5.5391 21.3651 2.3739
2013 1 3.9565 19.7825 3.9565
2014 1 5.5391 21.3651 5.5391
2015 1 3.9565 19.7825 7.1217
2016 1 5.5391 21.3651 8.7043
2017 1 3.9565 19.7825 10.2869
2018 1 5.5391 21.3651 11.8695
2019 1 3.9565 19.7825 13.4521
2020 1 5.5391 21.3651 15.0347
2021 1 3.9565 19.7825 16.6173
2022 1 5.5391 21.3651 18.1999
2023 1 3.9565 19.7825 19.7825
2024 1 5.5391 21.3651 21.3651
2025 1 3.9565 19.7825 22.9477
2026 1 5.5391 21.3651 24.5303
2027 1 3.9565 19.7825 26.1129
2028 1 5.5391 21.3651 27.6955
2029 1 3.9565 19.7825 29.2781
2030 1 5.5391 21.3651 30.8607
2031 1 3.9565 19.7825 32.4433
2032 1 5.5391 21.3651 34.0259
2033 1 3.9565 19.7825 35.6085
2034 1 5.5391 21.3651 37.1911
2035 1 3.9565 19.7825 38.7737
2036 1 5.5391 21.3651 40.3563
2037 1 3.9565 19.7825 41.9389
2038 1 5.5391 21.3651 43.5215
2039 1 3.9565 19.7825 45.1041
2040 1 5.5391 21.3651 46.6867
2041 1 3.9565 19.7825 48.2693
2042 1 5.5391 21.3651 49.8519
2043 1 3.9565 22.9477 0.7913
2044 1 5.5391 24.5303 2.3739
2045 1 3.9565 22.9477 3.9565
2046 1 5.5391 24.5303 5.5391
2047 1 3.9565 22.9477 7.1217
2048 1 5.5391 24.5303 8.7043
2049 1 3.9565 22.9477 10.2869
2050 1 5.5391 24.5303 11.8695
2051 1 3.9565 22.9477 13.4521
2052 1 5.5391 24.5303 15.0347
2053 1 3.9565 22.9477 16.6173
2054 1 5.5391 24.5303 18.1999
2055 1 3.9565 22.9477 19.7825
2056 1 5.5391 24.5303 21.3651
2057 1 3.9565 22.9477 22.9477
2058 1 5.5391 24.5303 24.5303
2059 1 3.9565 22.9477 26.1129
2060 1 5.5391 24.5303 27.6955
2061 1 3.9565 22.9477 29.2781
2062 1 5.5391 24.5303 30.8607
2063 1 3.9565 22.9477 32.4433
2064 1 5.5391 24.5303 34.0259
2065 1 3.9565 22.9477 35.6085
2066 1 5.5391 24.5303 37.1911
2067 1 3.9565 22.9477 38.7737
2068 1 5.5391 24.5303 40.3563
2069 1 3.9565 22.9477 41.9389
2070 1 5.5391 24.5303 43.5215
2071 1 3.9565 22.9477 45.1041
2072 1 5.5391 24.5303 46.6867
2073 1 3.9565 22.9477 48.2693
2074 1 5.5391 24.5303 49.8519
2075 1 3.9565 26.1129 0.7913
2076 1 5.5391 27.6955 2.3739
2077 1 3.9565 26.1129 3.9565
2078 1 5.5391 27.6955 5.5391
2079 1 3.9565 26.1129 7.1217
2080 1 5.5391 27.6955 8.7043
2081 1 3.9565 26.1129 10.2869
2082 1 5.5391 27.6955 11.8695
2083 1 3.9565 26.1129 13.4521
2084 1 5.5391 27.6955 15.0347
2085 1 3.9565 26.1129 16.6173
2086 1 5.5391 27.6955 18.1999
2087 1 3.9565 26.1129 19.7825
2088 1 5.5391 27.6955 21.3651
2089 1 3.9565 26.1129 22.9477
2090 1 5.5391 27.6955 24.5303
2091 1 3.9565 26.1129 26.1129
2092 1 5.5391 27.6955 27.6955
2093 1 3.9565 26.1129 29.2781
2094 1 5.5391 27.6955 30.8607
2095 1 3.9565 26.1129 32.4433
2096 1 5.5391 27.6955 34.0259
2097 1 3.9565 26.1129 35.6085
2098 1 5.5391 27.6955 37.1911
2099 1 3.9565 26.1129 38.7737
2100 1 5.5391 27.6955 40.3563
2101 1 3.9565 26.1129 41.9389
2102 1 5.5391 27.6955 43.5215
2103 1 3.9565 26.1129 45.1041
2104 1 5.5391 27.6955 46.6867
2105 1 3.9565 26.1129 48.2693
2106 1 5.5391 27.6955 49.8519
2107 1 3.9565 29.2781 0.7913
2108 1 5.5391 30.8607 2.3739
2109 1 3.9565 29.2781 3.9565
2110 1 5.5391 30.8607 5.5391
2111 1 3.9565 29.2781 7.1217
2112 1 5.5391 30.8607 8.7043
2113 1 3.9565 29.2781 10.2869
2114 1 5.5391 30.8607 11.8695
2115 1 3.9565 29.2781 13.4521
2116 1 5.5391 30.8607 15.0347
2117 1 3.9565 29.2781 16.6173
2118 1 5.5391 30.8607 18.1999
2119 1 3.9565 29.2781 19.7825
2120 1 5.5391 30.8607 21.3651
2121 1 3.9565 29.2781 22.9477
2122 1 5.5391 30.8607 24.5303
2123 1 3.9565 29.2781 26.1129
2124 1 5.5391 30.8607 27.6955
2125 1 3.9565 29.2781 29.2781
2126 1 5.5391 30.8607 30.8607
2127 1 3.9565 29.2781 32.4433
2128 1 5.5391 30.8607 34.0259
2129 1 3.9565 29.2781 35.6085
2130 1 5.5391 30.8607 37.1911
2131 1 3.9565 29.2781 38.7737
2132 1 5.5391 30.8607 40.3563
2133 1 3.9565 29.2781 41.9389
2134 1 5.5391 30.8607 43.5215
2135 1 3.9565 29.2781 45.1041
2136 1 5.5391 30.8607 46.6867
2137 1 3.9565 29.2781 48.2693
2138 1 5.5391 30.8607 49.8519
2139 1 3.9565 32.4433 0.7913
2140 1 5.5391 34.0259 2.3739
2141 1 3.9565 32.4433 3.9565
2142 1 5.5391 34.0259 5.5391
2143 1 3.9565 32.4433 7.1217
2144 1 5.5391 34.0259 8.7043
2145 1 3.9565 32.4433 10.2869
2146 1 5.5391 34.0259 11.8695
2147 1 3.9565 32.4433 13.4521
2148 1 5.5391 34.0259 15.0347
2149 1 3.9565 32.4433 16.6173
2150 1 5.5391 34.0259 18.1999
2151 1 3.9565 32.4433 19.7825
2152 1 5.5391 34.0259 21.3651
2153 1 3.9565 32.4433 22.9477
2154 1 5.5391 34.0259 24.5303
2155 1 3.9565 32.4433 26.1129
2156 1 5.5391 34.0259 27.6955
2157 1 3.9565 32.4433 29.2781
2158 1 5.5391 34.0259 30.8607
2159 1 3.9565 32.4433 32.4433
2160 1 5.5391 34.0259 34.0259
2161 1 3.9565 32.4433 35.6085
2162 1 5.5391 34.0259 37.1911
2163 1 3.9565 32.4433 38.7737
2164 1 5.5391 34.0259 40.3563
2165 1 3.9565 32.4433 41.9389
2166 1 5.5391 34.0259 43.5215
2167 1 3.9565 32.4433 45.1041
2168 1 5.5391 34.0259 46.6867
2169 1 3.9565 32.4433 48.2693
2170 1 5.5391 34.0259 49.8519
2171 1 3.9565 35.6085 0.7913
2172 1 5.5391 37.1911 2.3739
2173 1 3.9565 35.6085 3.9565
2174 1 5.5391 37.1911 5.5391
2175 1 3.9565 35.6085 7.1217
2176 1 5.5391 37.1911 8.7043
2177 1 3.9565 35.6085 10.2869
2178 1 5.5391 37.1911 11.8695
2179 1 3.9565 35.6085 13.4521
2180 1 5.5391 37.1911 15.0347
2181 1 3.9565 35.6085 16.6173
2182 1 5.5391 37.1911 18.1999
2183 1 3.9565 35.6085 19.7825
2184 1 5.5391 37.1911 21.3651
2185 1 3.9565 35.6085 22.9477
2186 1 5.5391 37.1911 24.5303
2187 1 3.9565 35.6085 26.1129
2188 1 5.5391 37.1911 27.6955
2189 1 3.9565 35.6085 29.2781
2190 1 5.5391 37.1911 30.8607
2191 1 3.9565 35.6085 32.4433
2192 1 5.5391 37.1911 34.0259
2193 1 3.9565 35.6085 35.6085
2194 1 5.5391 37.1911 37.1911
2195 1 3.9565 35.6085 38.7737
2196 1 5.5391 37.1911 40.3563
2197 1 3.9565 35.6085 41.9389
2198 1 5.5391 37.1911 43.5215
2199 1 3.9565 35.6085 45.1041
2200 1 5.5391 37.1911 46.6867
2201 1 3.9565 35.6085 48.2693
2202 1 5.5391 37.1911 49.8519
2203 1 3.9565 38.7737 0.7913
2204 1 5.5391 40.3563 2.3739
2205 1 3.9565 38.7737 3.9565
2206 1 5.5391 40.3563 5.5391
2207 1 3.9565 38.7737 7.1217
2208 1 5.5391 40.3563 8.7043
2209 1 3.9565 38.7737 10.2869
2210 1 5.5391 40.3563 11.8695
2211 1 3.9565 38.7737 13.4521
2212 1 5.5391 40.3563 15.0347
2213 1 3.9565 38.7737 16.6173
2214 1 5.5391 40.3563 18.1999
2215 1 3.9565 38.7737 19.7825
2216 1 5.5391 40.3563 21.3651
2217 1 3.9565 38.7737 22.9477
2218 1 5.5391 40.3563 24.5303
2219 1 3.9565 38.7737 26.1129
2220 1 5.5391 40.3563 27.6955
2221 1 3.9565 38.7737 29.2781
2222 1 5.5391 40.3563 30.8607
2223 1 3.9565 38.7737 32.4433
2224 1 5.5391 40.3563 34.0259
2225 1 3.9565 38.7737 35.6085
2226 1 5.5391 40.3563 37.1911
2227 1 3.9565 38.7737 38.7737
2228 1 5.5391 40.3563 40.3563
2229 1 3.9565 38.7737 41.9389
2230 1 5.5391 40.3563 43.5215
2231 1 3.9565 38.7737 45.1041
2232 1 5.5391 40.3563 46.6867
2233 1 3.9565 38.7737 48.2693
2234 1 5.5391 40.3563 49.8519
2235 1 3.9565 41.9389 0.7913
2236 1 5.5391 43.5215 2.3739
2237 1 3.9565 41.9389 3.9565
2238 1 5.5391 43.5215 5.5391
2239 1 3.9565 41.9389 7.1217
2240 1 5.5391 43.5215 8.7043
2241 1 3.9565 41.9389 10.2869
2242 1 5.5391 43.5215 11.8695
2243 1 3.9565 41.9389 13.4521
2244 1 5.5391 43.5215 15.0347
2245 1 3.9565 41.9389 16.6173
2246 1 5.5391 43.5215 18.1999
2247 1 3.9565 41.9389 19.7825
2248 1 5.5391 43.5215 21.3651
2249 1 3.9565 41.9389 22.9477
2250 1 5.5391 43.5215 24.5303
2251 1 3.9565 41.9389 26.1129
2252 1 5.5391 43.5215 27.6955
2253 1 3.9565 41.9389 29.2781
2254 1 5.5391 43.5215 30.8607
2255 1 3.9565 41.9389 32.4433
2256 1 5.5391 43.5215 34.0259
2257 1 3.9565 41.9389 35.6085
2258 1 5.5391 43.5215 37.1911
2259 1 3.9565 41.9389 38.7737
2260 1 5.5391 43.5215 40.3563
2261 1 3.9565 41.9389 41.9389
2262 1 5.5391 43.5215 43.5215
2263 1 3.9565 41.9389 45.1041
2264 1 5.5391 43.5215 46.6867
2265 1 3.9565 41.9389 48.2693
2266 1 5.5391 43.5215 49.8519
2267 1 3.9565 45.1041 0.7913
2268 1 5.5391 46.6867 2.3739
2269 1 3.9565 45.1041 3.9565
2270 1 5.5391 46.6867 5.5391
2271 1 3.9565 45.1041 7.1217
2272 1 5.5391 46.6867 8.7043
2273 1 3.9565 45.1041 10.2869
2274 1 5.5391 46.6867 11.8695
2275 1 3.9565 45.1041 13.4521
2276 1 5.5391 46.6867 15.0347
2277 1 3.9565 45.1041 16.6173
2278 1 5.5391 46.6867 18.1999
2279 1 3.9565 45.1041 19.7825
2280 1 5.5391 46.6867 21.3651
2281 1 3.9565 45.1041 22.9477
2282 1 5.5391 46.6867 24.5303
2283 1 3.9565 45.1041 26.1129
2284 1 5.5391 46.6867 27.6955
2285 1 3.9565 45.1041 29.2781
2286 1 5.5391 46.6867 30.8607
2287 1 3.9565 45.1041 32.4433
2288 1 5.5391 46.6867 34.0259
2289 1 3.9565 45.1041 35.6085
2290 1 5.5391 46.6867 37.1911
2291 1 3.9565 45.1041 38.7737
2292 1 5.5391 46.6867 40.3563
2293 1 3.9565 45.1041 41.9389
2294 1 5.5391 46.6867 43.5215
2295 1 3.9565 45.1041 45.1041
2296 1 5.5391 46.6867 46.6867
2297 1 3.9565 45.1041 48.2693
2298 1 5.5391 46.6867 49.8519
2299 1 3.9565 48.2693 0.7913
2300 1 5.5391 49.8519 2.3739
2301 1 3.9565 48.2693 3.9565
2302 1 5.5391 49.8519 5.5391
2303 1 3.9565 48.2693 7.1217
2304 1 5.5391 49.8519 8.7043
2305 1 3.9565 48.2693 10.2869
2306 1 5.5391 49.8519 11.8695
2307 1 3.9565 48.2693 13.4521
2308 1 5.5391 49.8519 15.0347
2309 1 3.9565 48.2693 16.6173
2310 1 5.5391 49.8519 18.1999
2311 1 3.9565 48.2693 19.7825
2312 1 5.5391 49.8519 21.3651
2313 1 3.9565 48.2693 22.9477
2314 1 5.5391 49.8519 24.5303
2315 1 3.9565 48.2693 26.1129
2316 1 5.5391 49.8519 27.6955
2317 1 3.9565 48.2693 29.2781
2318 1 5.5391 49.8519 30.8607
2319 1 3.9565 48.2693 32.4433
2320 1 5.5391 49.8519 34.0259
2321 1 3.9565 48.2693 35.6085
2322 1 5.5391 49.8519 37.1911
2323 1 3.9565 48.2693 38.7737
2324 1 5.5391 49.8519 40.3563
2325 1 3.9565 48.2693 41.9389
2326 1 5.5391 49.8519 43.5215
2327 1 3.9565 48.2693 45.1041
2328 1 5.5391 49.8519 46.6867
2329 1 3.9565 48.2693 48.2693
2330 1 5.5391 49.8519 49.8519
2331 1 7.1217 0.7913 0.7913
2332 1 8.7043 2.3739 2.3739
2333 1 7.1217 0.7913 3.9565
2334 1 8.7043 2.3739 5.5391
2335 1 7.1217 0.7913 7.1217
2336 1 8.7043 2.3739 8.7043
2337 1 7.1217 0.7913 10.2869
2338 1 8.7043 2.3739 11.8695
2339 1 7.1217 0.7913 13.4521
2340 1 8.7043 2.3739 15.0347
2341 1 7.1217 0.7913 16.6173
2342 1 8.7043 2.3739 18.1999
2343 1 7.1217 0.7913 19.7825
2344 1 8.7043 2.3739 21.3651
2345 1 7.1217 0.7913 22.9477
2346 1 8.7043 2.3739 24.5303
2347 1 7.1217 0.7913 26.1129
2348 1 8.7043 2.3739 27.6955
2349 1 7.1217 0.7913 29.2781
2350 1 8.7043 2.3739 30.8607
2351 1 7.1217 0.7913 32.4433
2352 1 8.7043 2.3739 34.0259
2353 1 7.1217 0.7913 35.6085
2354 1 8.7043 2.3739 37.1911
2355 1 7.1217 0.7913 38.7737
2356 1 8.7043 2.3739 40.3563
2357 1 7.1217 0.7913 41.9389
2358 1 8.7043 2.3739 43.5215
2359 1 7.1217 0.7913 45.1041
2360 1 8.7043 2.3739 46.6867
2361 1 7.1217 0.7913 48.2693
2362 1 8.7043 2.3739 49.8519
2363 1 7.1217 3.9565 0.7913
2364 1 8.7043 5.5391 2.3739
2365 1 7.1217 3.9565 3.9565
2366 1 8.7043 5.5391 5.5391
2367 1 7.1217 3.9565 7.1217
2368 1 8.7043 5.5391 8.7043
2369 1 7.1217 3.9565 10.2869
2370 1 8.7043 5.5391 11.8695
2371 1 7.1217 3.9565 13.4521
2372 1 8.7043 5.5391 15.0347
2373 1 7.1217 3.9565 16.6173
2374 1 8.7043 5.5391 18.1999
2375 1 7.1217 3.9565 19.7825
2376 1 8.7043 5.5391 21.3651
2377 1 7.1217 3.9565 22.9477
2378 1 8.7043 5.5391 24.5303
2379 1 7.1217 3.9565 26.1129
2380 1 8.7043 5.5391 27.6955
2381 1 7.1217 3.9565 29.2781
2382 1 8.7043 5.5391 30.8607
2383 1 7.1217 3.9565 32.4433
2384 1 8.7043 5.5391 34.0259
2385 1 7.1217 3.9565 35.6085
2386 1 8.7043 5.5391 37.1911
2387 1 7.1217 3.9565 38.7737
2388 1 8.7043 5.5391 40.3563
2389 1 7.1217 3.9565 41.9389
2390 1 8.7043 5.5391 43.5215
2391 1 7.1217 3.9565 45.1041
2392 1 8.7043 5.5391 46.6867
2393 1 7.1217 3.9565 48.2693
2394 1 8.7043 5.5391 49.8519
2395 1 7.1217 7.1217 0.7913
2396 1 8.7043 8.7043 2.3739
2397 1 7.1217 7.1217 3.9565
2398 1 8.7043 8.7043 5.5391
2399 1 7.1217 7.1217 7.1217
2400 1 8.7043 8.7043 8.7043
2401 1 7.1217 7.1217 10.2869
2402 1 8.7043 8.7043 11.8695
2403 1 7.1217 7.1217 13.4521
2404 1 8.7043 8.7043 15.0347
2405 1 7.1217 7.1217 16.6173
2406 1 8.7043 8.7043 18.1999
2407 1 7.1217 7.1217 19.7825
2408 1 8.7043 8.7043 21.3651
2409 1 7.1217 7.1217 22.9477
2410 1 8.7043 8.7043 24.5303
2411 1 7.1217 7.1217 26.1129
2412 1 8.7043 8.7043 27.6955
2413 1 7.1217 7.1217 29.2781
2414 1 8.7043 8.7043 30.8607
2415 1 7.1217 7.1217 32.4433
2416 1 8.7043 8.7043 34.0259
2417 1 7.1217 7.1217 35.6085
2418 1 8.7043 8.7043 37.1911
2419 1 7.1217 7.1217 38.7737
2420 1 8.7043 8.7043 40.3563
2421 1 7.1217 7.1217 41.9389
2422 1 8.7043 8.7043 43.5215
2423 1 7.1217 7.1217 45.1041
2424 1 8.7043 8.7043 46.6867
2425 1 7.1217 7.1217 48.2693
2426 1 8.7043 8.7043 49.8519
2427 1 7.1217 10.2869 0.7913
2428 1 8.7043 11.8695 2.3739
2429 1 7.1217 10.2869 3.9565
2430 1 8.7043 11.8695 5.5391
2431 1 7.1217 10.2869 7.1217
2432 1 8.7043 11.8695 8.7043
2433 1 7.1217 10.2869 10.2869
2434 1 8.7043 11.8695 11.8695
2435 1 7.1217 10.2869 13.4521
2436 1 8.7043 11.8695 15.0347
2437 1 7.1217 10.2869 16.6173
2438 1 8.7043 11.8695 18.1999
2439 1 7.1217 10.2869 19.7825
2440 1 8.7043 11.8695 21.3651
2441 1 7.1217 10.2869 22.9477
2442 1 8.7043 11.8695 24.5303
2443 1 7.1217 10.2869 26.1129
2444 1 8.7043 11.8695 27.6955
2445 1 7.1217 10.2869 29.2781
2446 1 8.7043 11.8695 30.8607
2447 1 7.1217 10.2869 32.4433
2448 1 8.7043 11.8695 34.0259
2449 1 7.1217 10.2869 35.6085
2450 1 8.7043 11.8695 37.1911
2451 1 7.1217 10.2869 38.7737
2452 1 8.7043 11.8695 40.3563
2453 1 7.1217 10.2869 41.9389
2454 1 8.7043 11.8695 43.5215
2455 1 7.1217 10.2869 45.1041
2456 1 8.7043 11.8695 46.6867
2457 1 7.1217 10.2869 48.2693
2458 1 8.7043 11.8695 49.8519
2459 1 7.1217 13.4521 0.7913
2460 1 8.7043 15.0347 2.3739
2461 1 7.1217 13.4521 3.9565
2462 1 8.7043 15.0347 5.5391
2463 1 7.1217 13.4521 7.1217
2464 1 8.7043 15.0347 8.7043
2465 1 7.1217 13.4521 10.2869
2466 1 8.7043 15.0347 11.8695
2467 1 7.1217 13.4521 13.4521
2468 1 8.7043 15.0347 15.0347
2469 1 7.1217 13.4521 16.6173
2470 1 8.7043 15.0347 18.1999
2471 1 7.1217 13.4521 19.7825
2472 1 8.7043 15.0347 21.3651
2473 1 7.1217 13.4521 22.9477
2474 1 8.7043 15.0347 24.5303
2475 1 7.1217 13.4521 26.1129
2476 1 8.7043 15.0347 27.6955
2477 1 7.1217 13.4521 29.2781
2478 1 8.7043 15.0347 30.8607
2479 1 7.1217 13.4521 32.4433
2480 1 8.7043 15.0347 34.0259
2481 1 7.1217 13.4521 35.6085
2482 1 8.7043 15.0347 37.1911
2483 1 7.1217 13.4521 38.7737
2484 1 8.7043 15.0347 40.3563
2485 1 7.1217 13.4521 41.9389
2486 1 8.7043 15.0347 43.5215
2487 1 7.1217 13.4521 45.1041
2488 1 8.7043 15.0347 46.6867
2489 1 7.1217 13.4521 48.2693
2490 1 8.7043 15.0347 49.8519
2491 1 7.1217 16.6173 0.7913
2492 1 8.7043 18.1999 2.3739
2493 1 7.1217 16.6173 3.9565
2494 1 8.7043 18.1999 5.5391
2495 1 7.1217 16.6173 7.1217
2496 1 8.7043 18.1999 8.7043
2497 1 7.1217 16.6173 10.2869
2498 1 8.7043 18.1999 11.8695
2499 1 7.1217 16.6173 13.4521
2500 1 8.7043 18.1999 15.0347
2501 1 7.1217 16.6173 16.6173
2502 1 8.7043 18.1999 18.1999
2503 1 7.1217 16.6173 19.7825
2504 1 8.7043 18.1999 21.3651
2505 1 7.1217 16.6173 22.9477
2506 1 8.7043 18.1999 24.5303
2507 1 7.1217 16.6173 26.1129
2508 1 8.7043 18.1999 27.6955
2509 1 7.1217 16.6173 29.2781
2510 1 8.7043 18.1999 30.8607
2511 1 7.1217 16.6173 32.4433
2512 1 8.7043 18.1999 34.0259
2513 1 7.1217 16.6173 35.6085
2514 1 8.7043 18.1999 37.1911
2515 1 7.1217 16.6173 38.7737
2516 1 8.7043 18.1999 40.3563
2517 1 7.1217 16.6173 41.9389
2518 1 8.7043 18.1999 43.5215
2519 1 7.1217 16.6173 45.1041
2520 1 8.7043 18.1999 46.6867
2521 1 7.1217 16.6173 48.2693
2522 1 8.7043 18.1999 49.8519
2523 1 7.1217 19.7825 0.7913
2524 1 8.7043 21.3651 2.3739
2525 1 7.1217 19.7825 3.9565
2526 1 8.7043 21.3651 5.5391
2527 1 7.1217 19.7825 7.1217
2528 1 8.7043 21.3651 8.7043
2529 1 7.1217 19.7825 10.2869
2530 1 8.7043 21.3651 11.8695
2531 1 7.1217 19.7825 13.4521
2532 1 8.7043 21.3651 15.0347
2533 1 7.1217 19.7825 16.6173
2534 1 8.7043 21.3651 18.1999
2535 1 7.1217 19.7825 19.7825
2536 1 8.7043 21.3651 21.3651
2537 1 7.1217 19.7825 22.9477
2538 1 8.7043 21.3651 24.5303
2539 1 7.1217 19.7825 26.1129
2540 1 8.7043 21.3651 27.6955
2541 1 7.1217 19.7825 29.2781
2542 1 8.7043 21.3651 30.8607
2543 1 7.1217 19.7825 32.4433
2544 1 8.7043 21.3651 34.0259
2545 1 7.1217 19.7825 35.6085
2546 1 8.7043 21.3651 37.1911
2547 1 7.1217 19.7825 38.7737
2548 1 8.7043 21.3651 40.3563
2549 1 7.1217 19.7825 41.9389
2550 1 8.7043 21.3651 43.5215
2551 1 7.1217 19.7825 45.1041
2552 1 8.7043 21.3651 46.6867
2553 1 7.1217 19.7825 48.2693
2554 1 8.7043 21.3651 49.8519
2555 1 7.1217 22.9477 0.7913
2556 1 8.7043 24.5303 2.3739
2557 1 7.1217 22.9477 3.9565
2558 1 8.7043 24.5303 5.5391
2559 1 7.1217 22.9477 7.1217
2560 1 8.7043 24.5303 8.7043
2561 1 7.1217 22.9477 10.2869
2562 1 8.7043 24.5303 11.8695
2563 1 7.1217 22.9477 13.4521
2564 1 8.7043 24.5303 15.0347
2565 1 7.1217 22.9477 16.6173
2566 1 8.7043 24.5303 18.1999
2567 1 7.1217 22.9477 19.7825
2568 1 8.7043 24.5303 21.3651
2569 1 7.1217 22.9477 22.9477
2570 1 8.7043 24.5303 24.5303
2571 1 7.1217 22.9477 26.1129
2572 1 8.7043 24.5303 27.6955
2573 1 7.1217 22.9477 29.2781
2574 1 8.7043 24.5303 30.8607
2575 1 7.1217 22.9477 32.4433
2576 1 8.7043 24.5303 34.0259
2577 1 7.1217 22.9477 35.6085
2578 1 8.7043 24.5303 37.1911
2579 1 7.1217 22.9477 38.7737
2580 1 8.7043 24.5303 40.3563
2581 1 7.1217 22.9477 41.9389
2582 1 8.7043 24.5303 43.5215
2583 1 7.1217 22.9477 45.1041
2584 1 8.7043 24.5303 46.6867
2585 1 7.1217 22.9477 48.2693
2586 1 8.7043 24.5303 49.8519
2587 1 7.1217 26.1129 0.7913
2588 1 8.7043 27.6955 2.3739
2589 1 7.1217 26.1129 3.9565
2590 1 8.7043 27.6955 5.5391
2591 1 7.1217 26.1129 7.1217
2592 1 8.7043 27.6955 8.7043
2593 1 7.1217 26.1129 10.2869
2594 1 8.7043 27.6955 11.8695
2595 1 7.1217 26.1129 13.4521
2596 1 8.7043 27.6955 15.0347
2597 1 7.1217 26.1129 16.6173
2598 1 8.7043 27.6955 18.1999
2599 1 7.1217 26.1129 19.7825
2600 1 8.7043 27.6955 21.3651
2601 1 7.1217 26.1129 22.9477
2602 1 8.7043 27.6955 24.5303
2603 1 7.1217 26.1129 26.1129
2604 1 8.7043 27.6955 27.6955
2605 1 7.1217 26.1129 29.2781
2606 1 8.7043 27.6955 30.8607
2607 1 7.1217 26.1129 32.4433
2608 1 8.7043 27.6955 34.0259
2609 1 7.1217 26.1129 35.6085
2610 1 8.7043 27.6955 37.1911
2611 1 7.1217 26.1129 38.7737
2612 1 8.7043 27.6955 40.3563
2613 1 7.1217 26.1129 41.9389
2614 1 8.7043 27.6955 43.5215
2615 1 7.1217 26.1129 45.1041
2616 1 8.7043 27.6955 46.6867
2617 1 7.1217 26.1129 48.2693
2618 1 8.7043 27.6955 49.8519
2619 1 7.1217 29.2781 0.7913
2620 1 8.7043 30.8607 2.3739
2621 1 7.1217 29.2781 3.9565
2622 1 8.7043 30.8607 5.5391
2623 1 7.1217 29.2781 7.1217
2624 1 8.7043 30.8607 8.7043
2625 1 7.1217 29.2781 10.2869
2626 1 8.7043 30.8607 11.8695
2627 1 7.1217 29.2781 13.4521
2628 1 8.7043 30.8607 15.0347
2629 1 7.1217 29.2781 16.6173
2630 1 8.7043 30.8607 18.1999
2631 1 7.1217 29.2781 19.7825
2632 1 8.7043 30.8607 21.3651
2633 1 7.1217 29.2781 22.9477
2634 1 8.7043 30.8607 24.5303
2635 1 7.1217 29.2781 26.1129
2636 1 8.7043 30.8607 27.6955
2637 1 7.1217 29.2781 29.2781
2638 1 8.7043 30.8607 30.8607
2639 1 7.1217 29.2781 32.4433
2640 1 8.7043 30.8607 34.0259
2641 1 7.1217 29.2781 35.6085
2642 1 8.7043 30.8607 37.1911
2643 1 7.1217 29.2781 38.7737
2644 1 8.7043 30.8607 40.3563
2645 1 7.1217 29.2781 41.9389
2646 1 8.7043 30.8607 43.5215
2647 1 7.1217 29.2781 45.1041
2648 1 8.7043 30.8607 46.6867
2649 1 7.1217 29.2781 48.2693
2650 1 8.7043 30.8607 49.8519
2651 1 7.1217 32.4433 0.7913
2652 1 8.7043 34.0259 2.3739
2653 1 7.1217 32.4433 3.9565
2654 1 8.7043 34.0259 5.5391
2655 1 7.1217 32.4433 7.1217
2656 1 8.7043 34.0259 8.7043
2657 1 7.1217 32.4433 10.2869
2658 1 8.7043 34.0259 11.8695
2659 1 7.1217 32.4433 13.4521
2660 1 8.7043 34.0259 15.0347
2661 1 7.1217 32.4433 16.6173
2662 1 8.7043 34.0259 18.1999
2663 1 7.1217 32.4433 19.7825
2664 1 8.7043 34.0259 21.3651
2665 1 7.1217 32.4433 22.9477
2666 1 8.7043 34.0259 24.5303
2667 1 7.1217 32.4433 26.1129
2668 1 8.7043 34.0259 27.6955
2669 1 7.1217 32.4433 29.2781
2670 1 8.7043 34.0259 30.8607
2671 1 7.1217 32.4433 32.4433
2672 1 8.7043 34.0259 34.0259
2673 1 7.1217 32.4433 35.6085
2674 1 8.7043 34.0259 37.1911
2675 1 7.1217 32.4433 38.7737
2676 1 8.7043 34.0259 40.3563
2677 1 7.1217 32.4433 41.9389
2678 1 8.7043 34.0259 43.5215
2679 1 7.1217 32.4433 45.1041
2680 1 8.7043 34.0259 46.6867
2681 1 7.1217 32.4433 48.2693
2682 1 8.7043 34.0259 49.8519
2683 1 7.1217 35.6085 0.7913
2684 1 8.7043 37.1911 2.3739
2685 1 7.1217 35.6085 3.9565
2686 1 8.7043 37.1911 5.5391
2687 1 7.1217 35.6085 7.1217
2688 1 8.7043 37.1911 8.7043
2689 1 7.1217 35.6085 10.2869
2690 1 8.7043 37.1911 11.8695
2691 1 7.1217 35.6085 13.4521
2692 1 8.7043 37.1911 15.0347
2693 1 7.1217 35.6085 16.6173
2694 1 8.7043 37.1911 18.1999
2695 1 7.1217 35.6085 19.7825
2696 1 8.7043 37.1911 21.3651
2697 1 7.1217 35.6085 22.9477
2698 1 8.7043 37.1911 24.5303
2699 1 7.1217 35.6085 26.1129
2700 1 8.7043 37.1911 27.6955
2701 1 7.1217 35.6085 29.2781
2702 1 8.7043 37.1911 30.8607
2703 1 7.1217 35.6085 32.4433
2704 1 8.7043 37.1911 34.0259
2705 1 7.1217 35.6085 35.6085
2706 1 8.7043 37.1911 37.1911
2707 1 7.1217 35.6085 38.7737
2708 1 8.7043 37.1911 40.3563
2709 1 7.1217 35.6085 41.9389
2710 1 8.7043 37.1911 43.5215
2711 1 7.1217 35.6085 45.1041
2712 1 8.7043 37.1911 46.6867
2713 1 7.1217 35.6085 48.2693
2714 1 8.7043 37.1911 49.8519
2715 1 7.1217 38.7737 0.7913
2716 1 8.7043 40.3563 2.3739
2717 1 7.1217 38.7737 3.9565
2718 1 8.7043 40.3563 5.5391
2719 1 7.1217 38.7737 7.1217
2720 1 8.7043 40.3563 8.7043
2721 1 7.1217 38.7737 10.2869
2722 1 8.7043 40.3563 11.8695
2723 1 7.1217 38.7737 13.4521
2724 1 8.7043 40.3563 15.0347
2725 1 7.1217 38.7737 16.6173
2726 1 8.7043 40.3563 18.1999
2727 1 7.1217 38.7737 19.7825
2728 1 8.7043 40.3563 21.3651
2729 1 7.1217 38.7737 22.9477
2730 1 8.7043 40.3563 24.5303
2731 1 7.1217 38.7737 26.1129
2732 1 8.7043 40.3563 27.6955
2733 1 7.1217 38.7737 29.2781
2734 1 8.7043 40.3563 30.8607
2735 1 7.1217 38.7737 32.4433
2736 1 8.7043 40.3563 34.0259
2737 1 7.1217 38.7737 35.6085
2738 1 8.7043 40.3563 37.1911
2739 1 7.1217 38.7737 38.7737
2740 1 8.7043 40.3563 40.3563
2741 1 7.1217 38.7737 41.9389
2742 1 8.7043 40.3563 43.5215
2743 1 7.1217 38.7737 45.1041
2744 1 8.7043 40.3563 46.6867
2745 1 7.1217 38.7737 48.2693
2746 1 8.7043 40.3563 49.8519
2747 1 7.1217 41.9389 0.7913
2748 1 8.7043 43.5215 2.3739
2749 1 7.1217 41.9389 3.9565
2750 1 8.7043 43.5215 5.5391
2751 1 7.1217 41.9389 7.1217
2752 1 8.7043 43.5215 8.7043
2753 1 7.1217 41.9389 10.2869
2754 1 8.7043 43.5215 11.8695
2755 1 7.1217 41.9389 13.4521
2756 1 8.7043 43.5215 15.0347
2757 1 7.1217 41.9389 16.6173
2758 1 8.7043 43.5215 18.1999
2759 1 7.1217 41.9389 19.7825
2760 1 8.7043 43.5215 21.3651
2761 1 7.1217 41.9389 22.9477
2762 1 8.7043 43.5215 24.5303
2763 1 7.1217 41.9389 26.1129
2764 1 8.7043 43.5215 27.6955
2765 1 7.1217 41.9389 29.2781
2766 1 8.7043 43.5215 30.8607
2767 1 7.1217 41.9389 32.4433
2768 1 8.7043 43.5215 34.0259
2769 1 7.1217 41.9389 35.6085
2770 1 8.7043 43.5215 37.1911
2771 1 7.1217 41.9389 38.7737
2772 1 8.7043 43.5215 40.3563
2773 1 7.1217 41.9389 41.9389
2774 1 8.7043 43.5215 43.5215
2775 1 7.1217 41.9389 45.1041
2776 1 8.7043 43.5215 46.6867
2777 1 7.1217 41.9389 48.2693
2778 1 8.7043 43.5215 49.8519
2779 1 7.1217 45.1041 0.7913
2780 1 8.7043 46.6867 2.3739
2781 1 7.1217 45.1041 3.9565
2782 1 8.7043 46.6867 5.5391
2783 1 7.1217 45.1041 7.1217
2784 1 8.7043 46.6867 8.7043
2785 1 7.1217 45.1041 10.2869
2786 1 8.7043 46.6867 11.8695
2787 1 7.1217 45.1041 13.4521
2788 1 8.7043 46.6867 15.0347
2789 1 7.1217 45.1041 16.6173
2790 1 8.7043 46.6867 18.1999
2791 1 7.1217 45.1041 19.7825
2792 1 8.7043 46.6867 21.3651
2793 1 7.1217 45.1041 22.9477
2794 1 8.7043 46.6867 24.5303
2795 1 7.1217 45.1041 26.1129
2796 1 8.7043 46.6867 27.6955
2797 1 7.1217 45.1041 29.2781
2798 1 8.7043 46.6867 30.8607
2799 1 7.1217 45.1041 32.4433
2800 1 8.7043 46.6867 34.0259
2801 1 7.1217 45.1041 35.6085
2802 1 8.7043 46.6867 37.1911
2803 1 7.1217 45.1041 38.7737
2804 1 8.7043 46.6867 40.3563
2805 1 7.1217 45.1041 41.9389
2806 1 8.7043 46.6867 43.5215
2807 1 7.1217 45.1041 45.1041
2808 1 8.7043 46.6867 46.6867
2809 1 7.1217 45.1041 48.2693
2810 1 8.7043 46.6867 49.8519
2811 1 7.1217 48.2693 0.7913
2812 1 8.7043 49.8519 2.3739
2813 1 7.1217 48.2693 3.9565
2814 1 8.7043 49.8519 5.5391
2815 1 7.1217 48.2693 7.1217
2816 1 8.7043 49.8519 8.7043
2817 1 7.1217 48.2693 10.2869
2818 1 8.7043 49.8519 11.8695
2819 1 7.1217 48.2693 13.4521
2820 1 8.7043 49.8519 15.0347
2821 1 7.1217 48.2693 16.6173
2822 1 8.7043 49.8519 18.1999
2823 1 7.1217 48.2693 19.7825
2824 1 8.7043 49.8519 21.3651
2825 1 7.1217 48.2693 22.9477
2826 1 8.7043 49.8519 24.5303
2827 1 7.1217 48.2693 26.1129
2828 1 8.7043 49.8519 27.6955
2829 1 7.1217 48.2693 29.2781
2830 1 8.7043 49.8519 30.8607
2831 1 7.1217 48.2693 32.4433
2832 1 8.7043 49.8519 34.0259
2833 1 7.1217 48.2693 35.6085
2834 1 8.7043 49.8519 37.1911
2835 1 7.1217 48.2693 38.7737
2836 1 8.7043 49.8519 40.3563
2837 1 7.1217 48.2693 41.9389
2838 1 8.7043 49.8519 43.5215
2839 1 7.1217 48.2693 45.1041
2840 1 8.7043 49.8519 46.6867
2841 1 7.1217 48.2693 48.2693
2842 1 8.7043 49.8519 49.8519
2843 1 10.2869 0.7913 0.7913
2844 1 11.8695 2.3739 2.3739
2845 1 10.2869 0.7913 3.9565
2846 1 11.8695 2.3739 5.5391
2847 1 10.2869 0.7913 7.1217
2848 1 11.8695 2.3739 8.7043
2849 1 10.2869 0.7913 10.2869
2850 1 11.8695 2.3739 11.8695
2851 1 10.2869 0.7913 13.4521
2852 1 11.8695 2.3739 15.0347
2853 1 10.2869 0.7913 16.6173
2854 1 11.8695 2.3739 18.1999
2855 1 10.2869 0.7913 19.7825
2856 1 11.8695 2.3739 21.3651
2857 1 10.2869 0.7913 22.9477
2858 1 11.8695 2.3739 24.5303
2859 1 10.2869 0.7913 26.1129
2860 1 11.8695 2.3739 27.6955
2861 1 10.2869 0.7913 29.2781
2862 1 11.8695 2.3739 30.8607
2863 1 10.2869 0.7913 32.4433
2864 1 11.8695 2.3739 34.0259
2865 1 10.2869 0.7913 35.6085
2866 1 11.8695 2.3739 37.1911
2867 1 10.2869 0.7913 38.7737
2868 1 11.8695 2.3739 40.3563
2869 1 10.2869 0.7913 41.9389
2870 1 11.8695 2.3739 43.5215
2871 1 10.2869 0.7913 45.1041
2872 1 11.8695 2.3739 46.6867
2873 1 10.2869 0.7913 48.2693
2874 1 11.8695 2.3739 49.8519
2875 1 10.2869 3.9565 0.7913
2876 1 11.8695 5.5391 2.3739
2877 1 10.2869 3.9565 3.9565
2878 1 11.8695 5.5391 5.5391
2879 1 10.2869 3.9565 7.1217
2880 1 11.8695 5.5391 8.7043
2881 1 10.2869 3.9565 10.2869
2882 1 11.8695 5.5391 11.8695
2883 1 10.2869 3.9565 13.4521
2884 1 11.8695 5.5391 15.0347
2885 1 10.2869 3.9565 16.6173
2886 1 11.8695 5.5391 18.1999
2887 1 10.2869 3.9565 19.7825
2888 1 11.8695 5.5391 21.3651
2889 1 10.2869 3.9565 22.9477
2890 1 11.8695 5.5391 24.5303
2891 1 10.2869 3.9565 26.1129
2892 1 11.8695 5.5391 27.6955
2893 1 10.2869 3.9565 29.2781
2894 1 11.8695 5.5391 30.8607
2895 1 10.2869 3.9565 32.4433
2896 1 11.8695 5.5391 34.0259
2897 1 10.2869 3.9565 35.6085
2898 1 11.8695 5.5391 37.1911
2899 1 10.2869 3.9565 38.7737
2900 1 11.8695 5.5391 40.3563
2901 1 10.2869 3.9565 41.9389
2902 1 11.8695 5.5391 43.5215
2903 1 10.2869 3.9565 45.1041
2904 1 11.8695 5.5391 46.6867
2905 1 10.2869 3.9565 48.2693
2906 1 11.8695 5.5391 49.8519
2907 1 10.2869 7.1217 0.7913
2908 1 11.8695 8.7043 2.3739
2909 1 10.2869 7.1217 3.9565
2910 1 11.8695 8.7043 5.5391
2911 1 10.2869 7.1217 7.1217
2912 1 11.8695 8.7043 8.7043
2913 1 10.2869 7.1217 10.2869
2914 1 11.8695 8.7043 11.8695
2915 1 10.2869 7.1217 13.4521
2916 1 11.8695 8.7043 15.0347
2917 1 10.2869 7.1217 16.6173
2918 1 11.8695 8.7043 18.1999
2919 1 10.2869 7.1217 19.7825
2920 1 11.8695 8.7043 21.3651
2921 1 10.2869 7.1217 22.9477
2922 1 11.8695 8.7043 24.5303
2923 1 10.2869 7.1217 26.1129
2924 1 11.8695 8.7043 27.6955
2925 1 10.2869 7.1217 29.2781
2926 1 11.8695 8.7043 30.8607
2927 1 10.2869 7.1217 32.4433
2928 1 11.8695 8.7043 34.0259
2929 1 10.2869 7.1217 35.6085
2930 1 11.8695 8.7043 37.1911
2931 1 10.2869 7.1217 38.7737
2932 1 11.8695 8.7043 40.3563
2933 1 10.2869 7.1217 41.9389
2934 1 11.8695 8.7043 43.5215
2935 1 10.2869 7.1217 45.1041
2936 1 11.8695 8.7043 46.6867
2937 1 10.2869 7.1217 48.2693
2938 1 11.8695 8.7043 49.8519
2939 1 10.2869 10.2869 0.7913
2940 1 11.8695 11.8695 2.3739
2941 1 10.2869 10.2869 3.9565
2942 1 11.8695 11.8695 5.5391
2943 1 10.2869 10.2869 7.1217
2944 1 11.8695 11.8695 8.7043
2945 1 10.2869 10.2869 10.2869
2946 1 11.8695 11.8695 11.8695
2947 1 10.2869 10.2869 13.4521
2948 1 11.8695 11.8695 15.0347
2949 1 10.2869 10.2869 16.6173
2950 1 11.8695 11.8695 18.1999
2951 1 10.2869 10.2869 19.7825
2952 1 11.8695 11.8695 21.3651
2953 1 10.2869 10.2869 22.9477
2954 1 11.8695 11.8695 24.5303
2955 1 10.2869 10.2869 26.1129
2956 1 11.8695 11.8695 27.6955
2957 1 10.2869 10.2869 29.2781
2958 1 11.8695 11.8695 30.8607
2959 1 10.2869 10.2869 32.4433
2960 1 11.8695 11.8695 34.0259
2961 1 10.2869 10.2869 35.6085
2962 1 11.8695 11.8695 37.1911
2963 1 10.2869 10.2869 38.7737
2964 1 11.8695 11.8695 40.3563
2965 1 10.2869 10.2869 41.9389
2966 1 11.8695 11.8695 43.5215
2967 1 10.2869 10.2869 45.1041
2968 1 11.8695 11.8695 46.6867
2969 1 10.2869 10.2869 48.2693
2970 1 11.8695 11.8695 49.8519
2971 1 10.2869 13.4521 0.7913
2972 1 11.8695 15.0347 2.3739
2973 1 10.2869 13.4521 3.9565
2974 1 11.8695 15.0347 5.5391
2975 1 10.2869 13.4521 7.1217
2976 1 11.8695 15.0347 8.7043
2977 1 10.2869 13.4521 10.2869
2978 1 11.8695 15.0347 11.8695
2979 1 10.2869 13.4521 13.4521
2980 1 11.8695 15.0347 15.0347
2981 1 10.2869 13.4521 16.6173
2982 1 11.8695 15.0347 18.1999
2983 1 10.2869 13.4521 19.7825
2984 1 11.8695 15.0347 21.3651
2985 1 10.2869 13.4521 22.9477
2986 1 11.8695 15.0347 24.5303
2987 1 10.2869 13.4521 26.1129
2988 1 11.8695 15.0347 27.6955
2989 1 10.2869 13.4521 29.2781
2990 1 11.8695 15.0347 30.8607
2991 1 10.2869 13.4521 32.4433
2992 1 11.8695 15.0347 34.0259
2993 1 10.2869 13.4521 35.6085
2994 1 11.8695 15.0347 37.1911
2995 1 10.2869 13.4521 38.7737
2996 1 11.8695 15.0347 40.3563
2997 1 10.2869 13.4521 41.9389
2998 1 11.8695 15.0347 43.5215
2999 1 10.2869 13.4521 45.1041
3000 1 11.8695 15.0347 46.6867
3001 1 10.2869 13.4521 48.2693
3002 1 11.8695 15.0347 49.8519
3003 1 10.2869 16.6173 0.7913
3004 1 11.8695 18.1999 2.3739
3005 1 10.2869 16.6173 3.9565
3006 1 11.8695 18.1999 5.5391
3007 1 10.2869 16.6173 7.1217
3008 1 11.8695 18.1999 8.7043
3009 1 10.2869 16.6173 10.2869
3010 1 11.8695 18.1999 11.8695
3011 1 10.2869 16.6173 13.4521
3012 1 11.8695 18.1999 15.0347
3013 1 10.2869 16.6173 16.6173
3014 1 11.8695 18.1999 18.1999
3015 1 10.2869 16.6173 19.7825
3016 1 11.8695 18.1999 21.3651
3017 1 10.2869 16.6173 22.9477
3018 1 11.8695 18.1999 24.5303
3019 1 10.2869 16.6173 26.1129
3020 1 11.8695 18.1999 27.6955
3021 1 10.2869 16.6173 29.2781
3022 1 11.8695 18.1999 30.8607
3023 1 10.2869 16.6173 32.4433
3024 1 11.8695 18.1999 34.0259
3025 1 10.2869 16.6173 35.6085
3026 1 11.8695 18.1999 37.1911
3027 1 10.2869 16.6173 38.7737
3028 1 11.8695 18.1999 40.3563
3029 1 10.2869 16.6173 41.9389
3030 1 11.8695 18.1999 43.5215
3031 1 10.2869 16.6173 45.1041
3032 1 11.8695 18.1999 46.6867
3033 1 10.2869 16.6173 48.2693
3034 1 11.8695 18.1999 49.8519
3035 1 10.2869 19.7825 0.7913
3036 1 11.8695 21.3651 2.3739
3037 1 10.2869 19.7825 3.9565
3038 1 11.8695 21.3651 5.5391
3039 1 10.2869 19.7825 7.1217
3040 1 11.8695 21.3651 8.7043
3041 1 10.2869 19.7825 10.2869
3042 1 11.8695 21.3651 11.8695
3043 1 10.2869 19.7825 13.4521
3044 1 11.8695 21.3651 15.0347
3045 1 10.2869 19.7825 16.6173
3046 1 11.8695 21.3651 18.1999
3047 1 10.2869 19.7825 19.7825
3048 1 11.8695 21.3651 21.3651
3049 1 10.2869 19.7825 22.9477
3050 1 11.8695 21.3651 24.5303
3051 1 10.2869 19.7825 26.1129
3052 1 11.8695 21.3651 27.6955
3053 1 10.2869 19.7825 29.2781
3054 1 11.8695 21.3651 30.8607
3055 1 10.2869 19.7825 32.4433
3056 1 11.8695 21.3651 34.0259
3057 1 10.2869 19.7825 35.6085
3058 1 11.8695 21.3651 37.1911
3059 1 10.2869 19.7825 38.7737
3060 1 11.8695 21.3651 40.3563
3061 1 10.2869 19.7825 41.9389
3062 1 11.8695 21.3651 43.5215
3063 1 10.2869 19.7825 45.1041
3064 1 11.8695 21.3651 46.6867
3065 1 10.2869 19.7825 48.2693
3066 1 11.8695 21.3651 49.8519
3067 1 10.2869 22.9477 0.7913
3068 1 11.8695 24.5303 2.3739
3069 1 10.2869 22.9477 3.9565
3070 1 11.8695 24.5303 5.5391
3071 1 10.2869 22.9477 7.1217
3072 1 11.8695 24.5303 8.7043
3073 1 10.2869 22.9477 10.2869
3074 1 11.8695 24.5303 11.8695
3075 1 10.2869 22.9477 13.4521
3076 1 11.8695 24.5303 15.0347
3077 1 10.2869 22.9477 16.6173
3078 1 11.8695 24.5303 18.1999
3079 1 10.2869 22.9477 19.7825
3080 1 11.8695 24.5303 21.3651
3081 1 10.2869 22.9477 22.9477
3082 1 11.8695 24.5303 24.5303
3083 1 10.2869 22.9477 26.1129
3084 1 11.8695 24.5303 27.6955
3085 1 10.2869 22.9477 29.2781
3086 1 11.8695 24.5303 30.8607
3087 1 10.2869 22.9477 32.4433
3088 1 11.8695 24.5303 34.0259
3089 1 10.2869 22.9477 35.6085
3090 1 11.8695 24.5303 37.1911
3091 1 10.2869 22.9477 38.7737
3092 1 11.8695 24.5303 40.3563
3093 1 10.2869 22.9477 41.9389
3094 1 11.8695 24.5303 43.5215
3095 1 10.2869 22.9477 45.1041
3096 1 11.8695 24.5303 46.6867
3097 1 10.2869 22.9477 48.2693
3098 1 11.8695 24.5303 49.8519
3099 1 10.2869 26.1129 0.7913
3100 1 11.8695 27.6955 2.3739
3101 1 10.2869 26.1129 3.9565
3102 1 11.8695 27.6955 5.5391
3103 1 10.2869 26.1129 7.1217
3104 1 11.8695 27.6955 8.7043
3105 1 10.2869 26.1129 10.2869
3106 1 11.8695 27.6955 11.8695
3107 1 10.2869 26.1129 13.4521
3108 1 11.8695 27.6955 15.0347
3109 1 10.2869 26.1129 16.6173
3110 1 11.8695 27.6955 18.1999
3111 1 10.2869 26.1129 19.7825
3112 1 11.8695 27.6955 21.3651
3113 1 10.2869 26.1129 22.9477
3114 1 11.8695 27.6955 24.5303
3115 1 10.2869 26.1129 26.1129
3116 1 11.8695 27.6955 27.6955
3117 1 10.2869 26.1129 29.2781
3118 1 11.8695 27.6955 30.8607
3119 1 10.2869 26.1129 32.4433
3120 1 11.8695 27.6955 34.0259
3121 1 10.2869 26.1129 35.6085
3122 1 11.8695 27.6955 37.1911
3123 1 10.2869 26.1129 38.7737
3124 1 11.8695 27.6955 40.3563
3125 1 10.2869 26.1129 41.9389
3126 1 11.8695 27.6955 43.5215
3127 1 10.2869 26.1129 45.1041
3128 1 11.8695 27.6955 46.6867
3129 1 10.2869 26.1129 48.2693
3130 1 11.8695 27.6955 49.8519
3131 1 10.2869 29.2781 0.7913
3132 1 11.8695 30.8607 2.3739
3133 1 10.2869 29.2781 3.9565
3134 1 11.8695 30.8607 5.5391
3135 1 10.2869 29.2781 7.1217
3136 1 11.8695 30.8607 8.7043
3137 1 10.2869 29.2781 10.2869
3138 1 11.8695 30.8607 11.8695
3139 1 10.2869 29.2781 13.4521
3140 1 11.8695 30.8607 15.0347
3141 1 10.2869 29.2781 16.6173
3142 1 11.8695 30.8607 18.1999
3143 1 10.2869 29.2781 19.7825
3144 1 11.8695 30.8607 21.3651
3145 1 10.2869 29.2781 22.9477
3146 1 11.8695 30.8607 24.5303
3147 1 10.2869 29.2781 26.1129
3148 1 11.8695 30.8607 27.6955
3149 1 10.2869 29.2781 29.2781
3150 1 11.8695 30.8607 30.8607
3151 1 10.2869 29.2781 32.4433
3152 1 11.8695 30.8607 34.0259
3153 1 10.2869 29.2781 35.6085
3154 1 11.8695 30.8607 37.1911
3155 1 10.2869 29.2781 38.7737
3156 1 11.8695 30.8607 40.3563
3157 1 10.2869 29.2781 41.9389
3158 1 11.8695 30.8607 43.5215
3159 1 10.2869 29.2781 45.1041
3160 1 11.8695 30.8607 46.6867
3161 1 10.2869 29.2781 48.2693
3162 1 11.8695 30.8607 49.8519
3163 1 10.2869 32.4433 0.7913
3164 1 11.8695 34.0259 2.3739
3165 1 10.2869 32.4433 3.9565
3166 1 11.8695 34.0259 5.5391
3167 1 10.2869 32.4433 7.1217
3168 1 11.8695 34.0259 8.7043
3169 1 10.2869 32.4433 10.2869
3170 1 11.8695 34.0259 11.8695
3171 1 10.2869 32.4433 13.4521
3172 1 11.8695 34.0259 15.0347
3173 1 10.2869 32.4433 16.6173
3174 1 11.8695 34.0259 18.1999
3175 1 10.2869 32.4433 19.7825
3176 1 11.8695 34.0259 21.3651
3177 1 10.2869 32.4433 22.9477
3178 1 11.8695 34.0259 24.5303
3179 1 10.2869 32.4433 26.1129
3180 1 11.8695 34.0259 27.6955
3181 1 10.2869 32.4433 29.2781
3182 1 11.8695 34.0259 30.8607
3183 1 10.2869 32.4433 32.4433
3184 1 11.8695 34.0259 34.0259
3185 1 10.2869 32.4433 35.6085
3186 1 11.8695 34.0259 37.1911
3187 1 10.2869 32.4433 38.7737
3188 1 11.8695 34.0259 40.3563
3189 1 10.2869 32.4433 41.9389
3190 1 11.8695 34.0259 43.5215
3191 1 10.2869 32.4433 45.1041
3192 1 11.8695 34.0259 46.6867
3193 1 10.2869 32.4433 48.2693
3194 1 11.8695 34.0259 49.8519
3195 1 10.2869 35.6085 0.7913
3196 1 11.8695 37.1911 2.3739
3197 1 10.2869 35.6085 3.9565
3198 1 11.8695 37.1911 5.5391
3199 1 10.2869 35.6085 7.1217
3200 1 11.8695 37.1911 8.7043
3201 1 10.2869 35.6085 10.2869
3202 1 11.8695 37.1911 11.8695
3203 1 10.2869 35.6085 13.4521
3204 1 11.8695 37.1911 15.0347
3205 1 10.2869 35.6085 16.6173
3206 1 11.8695 37.1911 18.1999
3207 1 10.2869 35.6085 19.7825
3208 1 11.8695 37.1911 21.3651
3209 1 10.2869 35.6085 22.9477
3210 1 11.8695 37.1911 24.5303
3211 1 10.2869 35.6085 26.1129
3212 1 11.8695 37.1911 27.6955
3213 1 10.2869 35.6085 29.2781
3214 1 11.8695 37.1911 30.8607
3215 1 10.2869 35.6085 32.4433
3216 1 11.8695 37.1911 34.0259
3217 1 10.2869 35.6085 35.6085
3218 1 11.8695 37.1911 37.1911
3219 1 10.2869 35.6085 38.7737
3220 1 11.8695 37.1911 40.3563
3221 1 10.2869 35.6085 41.9389
3222 1 11.8695 37.1911 43.5215
3223 1 10.2869 35.6085 45.1041
3224 1 11.8695 37.1911 46.6867
3225 1 10.2869 35.6085 48.2693
3226 1 11.8695 37.1911 49.8519
3227 1 10.2869 38.7737 0.7913
3228 1 11.8695 40.3563 2.3739
3229 1 10.2869 38.7737 3.9565
3230 1 11.8695 40.3563 5.5391
3231 1 10.2869 38.7737 7.1217
3232 1 11.8695 40.3563 8.7043
3233 1 10.2869 38.7737 10.2869
3234 1 11.8695 40.3563 11.8695
3235 1 10.2869 38.7737 13.4521
3236 1 11.8695 40.3563 15.0347
3237 1 10.2869 38.7737 16.6173
3238 1 11.8695 40.3563 18.1999
3239 1 10.2869 38.7737 19.7825
3240 1 11.8695 40.3563 21.3651
3241 1 10.2869 38.7737 22.9477
3242 1 11.8695 40.3563 24.5303
3243 1 10.2869 38.7737 26.1129
3244 1 11.8695 40.3563 27.6955
3245 1 10.2869 38.7737 29.2781
3246 1 11.8695 40.3563 30.8607
3247 1 10.2869 38.7737 32.4433
3248 1 11.8695 40.3563 34.0259
3249 1 10.2869 38.7737 35.6085
3250 1 11.8695 40.3563 37.1911
3251 1 10.2869 38.7737 38.7737
3252 1 11.8695 40.3563 40.3563
3253 1 10.2869 38.7737 41.9389
3254 1 11.8695 40.3563 43.5215
3255 1 10.2869 38.7737 45.1041
3256 1 11.8695 40.3563 46.6867
3257 1 10.2869 38.7737 48.2693
3258 1 11.8695 40.3563 49.8519
3259 1 10.2869 41.9389 0.7913
3260 1 11.8695 43.5215 2.3739
3261 1 10.2869 41.9389 3.9565
3262 1 11.8695 43.5215 5.5391
3263 1 10.2869 41.9389 7.1217
3264 1 11.8695 43.5215 8.7043
3265 1 10.2869 41.9389 10.2869
3266 1 11.8695 43.5215 11.8695
3267 1 10.2869 41.9389 13.4521
3268 1 11.8695 43.5215 15.0347
3269 1 10.2869 41.9389 16.6173
3270 1 11.8695 43.5215 18.1999
3271 1 10.2869 41.9389 19.7825
3272 1 11.8695 43.5215 21.3651
3273 1 10.2869 41.9389 22.9477
3274 1 11.8695 43.5215 24.5303
3275 1 10.2869 41.9389 26.1129
3276 1 11.8695 43.5215 27.6955
3277 1 10.2869 41.9389 29.2781
3278 1 11.8695 43.5215 30.8607
3279 1 10.2869 41.9389 32.4433
3280 1 11.8695 43.5215 34.0259
3281 1 10.2869 41.9389 35.6085
3282 1 11.8695 43.5215 37.1911
3283 1 10.2869 41.9389 38.7737
3284 1 11.8695 43.5215 40.3563
3285 1 10.2869 41.9389 41.9389
3286 1 11.8695 43.5215 43.5215
3287 1 10.2869 41.9389 45.1041
3288 1 11.8695 43.5215 46.6867
3289 1 10.2869 41.9389 48.2693
3290 1 11.8695 43.5215 49.8519
3291 1 10.2869 45.1041 0.7913
3292 1 11.8695 46.6867 2.3739
3293 1 10.2869 45.1041 3.9565
3294 1 11.8695 46.6867 5.5391
3295 1 10.2869 45.1041 7.1217
3296 1 11.8695 46.6867 8.7043
3297 1 10.2869 45.1041 10.2869
3298 1 11.8695 46.6867 11.8695
3299 1 10.2869 45.1041 13.4521
3300 1 11.8695 46.6867 15.0347
3301 1 10.2869 45.1041 16.6173
3302 1 11.8695 46.6867 18.1999
3303 1 10.2869 45.1041 19.7825
3304 1 11.8695 46.6867 21.3651
3305 1 10.2869 45.1041 22.9477
3306 1 11.8695 46.6867 24.5303
3307 1 10.2869 45.1041 26.1129
3308 1 11.8695 46.6867 27.6955
3309 1 10.2869 45.1041 29.2781
3310 1 11.8695 46.6867 30.8607
3311 1 10.2869 45.1041 32.4433
3312 1 11.8695 46.6867 34.0259
3313 1 10.2869 45.1041 35.6085
3314 1 11.8695 46.6867 37.1911
3315 1 10.2869 45.1041 38.7737
3316 1 11.8695 46.6867 40.3563
3317 1 10.2869 45.1041 41.9389
3318 1 11.8695 46.6867 43.5215
3319 1 10.2869 45.1041 45.1041
3320 1 11.8695 46.6867 46.6867
3321 1 10.2869 45.1041 48.2693
3322 1 11.8695 46.6867 49.8519
3323 1 10.2869 48.2693 0.7913
3324 1 11.8695 49.8519 2.3739
3325 1 10.2869 48.2693 3.9565
3326 1 11.8695 49.8519 5.5391
3327 1 10.2869 48.2693 7.1217
3328 1 11.8695 49.8519 8.7043
3329 1 10.2869 48.2693 10.2869
3330 1 11.8695 49.8519 11.8695
3331 1 10.2869 48.2693 13.4521
3332 1 11.8695 49.8519 15.0347
3333 1 10.2869 48.2693 16.6173
3334 1 11.8695 49.8519 18.1999
3335 1 10.2869 48.2693 19.7825
3336 1 11.8695 49.8519 21.3651
3337 1 10.2869 48.2693 22.9477
3338 1 11.8695 49.8519 24.5303
3339 1 10.2869 48.2693 26.1129
3340 1 11.8695 49.8519 27.6955
3341 1 10.2869 48.2693 29.2781
3342 1 11.8695 49.8519 30.8607
3343 1 10.2869 48.2693 32.4433
3344 1 11.8695 49.8519 34.0259
3345 1 10.2869 48.2693 35.6085
3346 1 11.8695 49.8519 37.1911
3347 1 10.2869 48.2693 38.7737
3348 1 11.8695 49.8519 40.3563
3349 1 10.2869 48.2693 41.9389
3350 1 11.8695 49.8519 43.5215
3351 1 10.2869 48.2693 45.1041
3352 1 11.8695 49.8519 46.6867
3353 1 10.2869 48.2693 48.2693
3354 1 11.8695 49.8519 49.8519
3355 1 38.7737 0.7913 0.7913
3356 1 40.3563 2.3739 2.3739
3357 1 38.7737 0.7913 3.9565
3358 1 40.3563 2.3739 5.5391
3359 1 38.7737 0.7913 7.1217
3360 1 40.3563 2.3739 8.7043
3361 1 38.7737 0.7913 10.2869
3362 1 40.3563 2.3739 11.8695
3363 1 38.7737 0.7913 13.4521
3364 1 40.3563 2.3739 15.0347
3365 1 38.7737 0.7913 16.6173
3366 1 40.3563 2.3739 18.1999
3367 1 38.7737 0.7913 19.7825
3368 1 40.3563 2.3739 21.3651
3369 1 38.7737 0.7913 22.9477
3370 1 40.3563 2.3739 24.5303
3371 1 38.7737 0.7913 26.1129
3372 1 40.3563 2.3739 27.6955
3373 1 38.7737 0.7913 29.2781
3374 1 40.3563 2.3739 30.8607
3375 1 38.7737 0.7913 32.4433
3376 1 40.3563 2.3739 34.0259
3377 1 38.7737 0.7913 35.6085
3378 1 40.3563 2.3739 37.1911
3379 1 38.7737 0.7913 38.7737
3380 1 40.3563 2.3739 40.3563
3381 1 38.7737 0.7913 41.9389
3382 1 40.3563 2.3739 43.5215
3383 1 38.7737 0.7913 45.1041
3384 1 40.3563 2.3739 46.6867
3385 1 38.7737 0.7913 48.2693
3386 1 40.3563 2.3739 49.8519
3387 1 38.7737 3.9565 0.7913
3388 1 40.3563 5.5391 2.3739
3389 1 38.7737 3.9565 3.9565
3390 1 40.3563 5.5391 5.5391
3391 1 38.7737 3.9565 7.1217
3392 1 40.3563 5.5391 8.7043
3393 1 38.7737 3.9565 10.2869
3394 1 40.3563 5.5391 11.8695
3395 1 38.7737 3.9565 13.4521
3396 1 40.3563 5.5391 15.0347
3397 1 38.7737 3.9565 16.6173
3398 1 40.3563 5.5391 18.1999
3399 1 38.7737 3.9565 19.7825
3400 1 40.3563 5.5391 21.3651
3401 1 38.7737 3.9565 22.9477
3402 1 40.3563 5.5391 24.5303
3403 1 38.7737 3.9565 26.1129
3404 1 40.3563 5.5391 27.6955
3405 1 38.7737 3.9565 29.2781
3406 1 40.3563 5.5391 30.8607
3407 1 38.7737 3.9565 32.4433
3408 1 40.3563 5.5391 34.0259
3409 1 38.7737 3.9565 35.6085
3410 1 40.3563 5.5391 37.1911
3411 1 38.7737 3.9565 38.7737
3412 1 40.3563 5.5391 40.3563
3413 1 38.7737 3.9565 41.9389
3414 1 40.3563 5.5391 43.5215
3415 1 38.7737 3.9565 45.1041
3416 1 40.3563 5.5391 46.6867
3417 1 38.7737 3.9565 48.2693
3418 1 40.3563 5.5391 49.8519
3419 1 38.7737 7.1217 0.7913
3420 1 40.3563 8.7043 2.3739
3421 1 38.7737 7.1217 3.9565
3422 1 40.3563 8.7043 5.5391
3423 1 38.7737 7.1217 7.1217
3424 1 40.3563 8.7043 8.7043
3425 1 38.7737 7.1217 10.2869
3426 1 40.3563 8.7043 11.8695
3427 1 38.7737 7.1217 13.4521
3428 1 40.3563 8.7043 15.0347
3429 1 38.7737 7.1217 16.6173
3430 1 40.3563 8.7043 18.1999
3431 1 38.7737 7.1217 19.7825
3432 1 40.3563 8.7043 21.3651
3433 1 38.7737 7.1217 22.9477
3434 1 40.3563 8.7043 24.5303
3435 1 38.7737 7.1217 26.1129
3436 1 40.3563 8.7043 27.6955
3437 1 38.7737 7.1217 29.2781
3438 1 40.3563 8.7043 30.8607
3439 1 38.7737 7.1217 32.4433
3440 1 40.3563 8.7043 34.0259
3441 1 38.7737 7.1217 35.6085
3442 1 40.3563 8.7043 37.1911
3443 1 38.7737 7.1217 38.7737
3444 1 40.3563 8.7043 40.3563
3445 1 38.7737 7.1217 41.9389
3446 1 40.3563 8.7043 43.5215
3447 1 38.7737 7.1217 45.1041
3448 1 40.3563 8.7043 46.6867
3449 1 38.7737 7.1217 48.2693
3450 1 40.3563 8.7043 49.8519
3451 1 38.7737 10.2869 0.7913
3452 1 40.3563 11.8695 2.3739
3453 1 38.7737 10.2869 3.9565
3454 1 40.3563 11.8695 5.5391
3455 1 38.7737 10.2869 7.1217
3456 1 40.3563 11.8695 8.7043
3457 1 38.7737 10.2869 10.2869
3458 1 40.3563 11.8695 11.8695
3459 1 38.7737 10.2869 13.4521
3460 1 40.3563 11.8695 15.0347
3461 1 38.7737 10.2869 16.6173
3462 1 40.3563 11.8695 18.1999
3463 1 38.7737 10.2869 19.7825
3464 1 40.3563 11.8695 21.3651
3465 1 38.7737 10.2869 22.9477
3466 1 40.3563 11.8695 24.5303
3467 1 38.7737 10.2869 26.1129
3468 1 40.3563 11.8695 27.6955
3469 1 38.7737 10.2869 29.2781
3470 1 40.3563 11.8695 30.8607
3471 1 38.7737 10.2869 32.4433
3472 1 40.3563 11.8695 34.0259
3473 1 38.7737 10.2869 35.6085
3474 1 40.3563 11.8695 37.1911
3475 1 38.7737 10.2869 38.7737
3476 1 40.3563 11.8695 40.3563
3477 1 38.7737 10.2869 41.9389
3478 1 40.3563 11.8695 43.5215
3479 1 38.7737 10.2869 45.1041
3480 1 40.3563 11.8695 46.6867
3481 1 38.7737 10.2869 48.2693
3482 1 40.3563 11.8695 49.8519
3483 1 38.7737 13.4521 0.7913
3484 1 40.3563 15.0347 2.3739
3485 1 38.7737 13.4521 3.9565
3486 1 40.3563 15.0347 5.5391
3487 1 38.7737 13.4521 7.1217
3488 1 40.3563 15.0347 8.7043
3489 1 38.7737 13.4521 10.2869
3490 1 40.3563 15.0347 11.8695
3491 1 38.7737 13.4521 13.4521
3492 1 40.3563 15.0347 15.0347
3493 1 38.7737 13.4521 16.6173
3494 1 40.3563 15.0347 18.1999
3495 1 38.7737 13.4521 19.7825
3496 1 40.3563 15.0347 21.3651
3497 1 38.7737 13.4521 22.9477
3498 1 40.3563 15.0347 24.5303
3499 1 38.7737 13.4521 26.1129
3500 1 40.3563 15.0347 27.6955
3501 1 38.7737 13.4521 29.2781
3502 1 40.3563 15.0347 30.8607
3503 1 38.7737 13.4521 32.4433
3504 1 40.3563 15.0347 34.0259
3505 1 38.7737 13.4521 35.6085
3506 1 40.3563 15.0347 37.1911
3507 1 38.7737 13.4521 38.7737
3508 1 40.3563 15.0347 40.3563
3509 1 38.7737 13.4521 41.9389
3510 1 40.3563 15.0347 43.5215
3511 1 38.7737 13.4521 45.1041
3512 1 40.3563 15.0347 46.6867
3513 1 38.7737 13.4521 48.2693
3514 1 40.3563 15.0347 49.8519
3515 1 38.7737 16.6173 0.7913
3516 1 40.3563 18.1999 2.3739
3517 1 38.7737 16.6173 3.9565
3518 1 40.3563 18.1999 5.5391
3519 1 38.7737 16.6173 7.1217
3520 1 40.3563 18.1999 8.7043
3521 1 38.7737 16.6173 10.2869
3522 1 40.3563 18.1999 11.8695
3523 1 38.7737 16.6173 13.4521
3524 1 40.3563 18.1999 15.0347
3525 1 38.7737 16.6173 16.6173
3526 1 40.3563 18.1999 18.1999
3527 1 38.7737 16.6173 19.7825
3528 1 40.3563 18.1999 21.3651
3529 1 38.7737 16.6173 22.9477
3530 1 40.3563 18.1999 24.5303
3531 1 38.7737 16.6173 26.1129
3532 1 40.3563 18.1999 27.6955
3533 1 38.7737 16.6173 29.2781
3534 1 40.3563 18.1999 30.8607
3535 1 38.7737 16.6173 32.4433
3536 1 40.3563 18.1999 34.0259
3537 1 38.7737 16.6173 35.6085
3538 1 40.3563 18.1999 37.1911
3539 1 38.7737 16.6173 38.7737
3540 1 40.3563 18.1999 40.3563
3541 1 38.7737 16.6173 41.9389
3542 1 40.3563 18.1999 43.5215
3543 1 38.7737 16.6173 45.1041
3544 1 40.3563 18.1999 46.6867
3545 1 38.7737 16.6173 48.2693
3546 1 40.3563 18.1999 49.8519
3547 1 38.7737 19.7825 0.7913
3548 1 40.3563 21.3651 2.3739
3549 1 38.7737 19.7825 3.9565
3550 1 40.3563 21.3651 5.5391
3551 1 38.7737 19.7825 7.1217
3552 1 40.3563 21.3651 8.7043
3553 1 38.7737 19.7825 10.2869
3554 1 40.3563 21.3651 11.8695
3555 1 38.7737 19.7825 13.4521
3556 1 40.3563 21.3651 15.0347
3557 1 38.7737 19.7825 16.6173
3558 1 40.3563 21.3651 18.1999
3559 1 38.7737 19.7825 19.7825
3560 1 40.3563 21.3651 21.3651
3561 1 38.7737 19.7825 22.9477
3562 1 40.3563 21.3651 24.5303
3563 1 38.7737 19.7825 26.1129
3564 1 40.3563 21.3651 27.6955
3565 1 38.7737 19.7825 29.2781
3566 1 40.3563 21.3651 30.8607
3567 1 38.7737 19.7825 32.4433
3568 1 40.3563 21.3651 34.0259
3569 1 38.7737 19.7825 35.6085
3570 1 40.3563 21.3651 37.1911
3571 1 38.7737 19.7825 38.7737
3572 1 40.3563 21.3651 40.3563
3573 1 38.7737 19.7825 41.9389
3574 1 40.3563 21.3651 43.5215
3575 1 38.7737 19.7825 45.1041
3576 1 40.3563 21.3651 46.6867
3577 1 38.7737 19.7825 48.2693
3578 1 40.3563 21.3651 49.8519
3579 1 38.7737 22.9477 0.7913
3580 1 40.3563 24.5303 2.3739
3581 1 38.7737 22.9477 3.9565
3582 1 40.3563 24.5303 5.5391
3583 1 38.7737 22.9477 7.1217
3584 1 40.3563 24.5303 8.7043
3585 1 38.7737 22.9477 10.2869
3586 1 40.3563 24.5303 11.8695
3587 1 38.7737 22.9477 13.4521
3588 1 40.3563 24.5303 15.0347
3589 1 38.7737 22.9477 16.6173
3590 1 40.3563 24.5303 18.1999
3591 1 38.7737 22.9477 19.7825
3592 1 40.3563 24.5303 21.3651
3593 1 38.7737 22.9477 22.9477
3594 1 40.3563 24.5303 24.5303
3595 1 38.7737 22.9477 26.1129
3596 1 40.3563 24.5303 27.6955
3597 1 38.7737 22.9477 29.2781
3598 1 40.3563 24.5303 30.8607
3599 1 38.7737 22.9477 32.4433
3600 1 40.3563 24.5303 34.0259
3601 1 38.7737 22.9477 35.6085
3602 1 40.3563 24.5303 37.1911
3603 1 38.7737 22.9477 38.7737
3604 1 40.3563 24.5303 40.3563
3605 1 38.7737 22.9477 41.9389
3606 1 40.3563 24.5303 43.5215
3607 1 38.7737 22.9477 45.1041
3608 1 40.3563 24.5303 46.6867
3609 1 38.7737 22.9477 48.2693
3610 1 40.3563 24.5303 49.8519
3611 1 38.7737 26.1129 0.7913
3612 1 40.3563 27.6955 2.3739
3613 1 38.7737 26.1129 3.9565
3614 1 40.3563 27.6955 5.5391
3615 1 38.7737 26.1129 7.1217
3616 1 40.3563 27.6955 8.7043
3617 1 38.7737 26.1129 10.2869
3618 1 40.3563 27.6955 11.8695
3619 1 38.7737 26.1129 13.4521
3620 1 40.3563 27.6955 15.0347
3621 1 38.7737 26.1129 16.6173
3622 1 40.3563 27.6955 18.1999
3623 1 38.7737 26.1129 19.7825
3624 1 40.3563 27.6955 21.3651
3625 1 38.7737 26.1129 22.9477
3626 1 40.3563 27.6955 24.5303
3627 1 38.7737 26.1129 26.1129
3628 1 40.3563 27.6955 27.6955
3629 1 38.7737 26.1129 29.2781
3630 1 40.3563 27.6955 30.8607
3631 1 38.7737 26.1129 32.4433
3632 1 40.3563 27.6955 34.0259
3633 1 38.7737 26.1129 35.6085
3634 1 40.3563 27.6955 37.1911
3635 1 38.7737 26.1129 38.7737
3636 1 40.3563 27.6955 40.3563
3637 1 38.7737 26.1129 41.9389
3638 1 40.3563 27.6955 43.5215
3639 1 38.7737 26.1129 45.1041
3640 1 40.3563 27.6955 46.6867
3641 1 38.7737 26.1129 48.2693
3642 1 40.3563 27.6955 49.8519
3643 1 38.7737 29.2781 0.7913
3644 1 40.3563 30.8607 2.3739
3645 1 38.7737 29.2781 3.9565
3646 1 40.3563 30.8607 5.5391
3647 1 38.7737 29.2781 7.1217
3648 1 40.3563 30.8607 8.7043
3649 1 38.7737 29.2781 10.2869
3650 1 40.3563 30.8607 11.8695
3651 1 38.7737 29.2781 13.4521
3652 1 40.3563 30.8607 15.0347
3653 1 38.7737 29.2781 16.6173
3654 1 40.3563 30.8607 18.1999
3655 1 38.7737 29.2781 19.7825
3656 1 40.3563 30.8607 21.3651
3657 1 38.7737 29.2781 22.9477
3658 1 40.3563 30.8607 24.5303
3659 1 38.7737 29.2781 26.1129
3660 1 40.3563 30.8607 27.6955
3661 1 38.7737 29.2781 29.2781
3662 1 40.3563 30.8607 30.8607
3663 1 38.7737 29.2781 32.4433
3664 1 40.3563 30.8607 34.0259
3665 1 38.7737 29.2781 35.6085
3666 1 40.3563 30.8607 37.1911
3667 1 38.7737 29.2781 38.7737
3668 1 40.3563 30.8607 40.3563
3669 1 38.7737 29.2781 41.9389
3670 1 40.3563 30.8607 43.5215
3671 1 38.7737 29.2781 45.1041
3672 1 40.3563 30.8607 46.6867
3673 1 38.7737 29.2781 48.2693
3674 1 40.3563 30.8607 49.8519
3675 1 38.7737 32.4433 0.7913
3676 1 40.3563 34.0259 2.3739
3677 1 38.7737 32.4433 3.9565
3678 1 40.3563 34.0259 5.5391
3679 1 38.7737 32.4433 7.1217
3680 1 40.3563 34.0259 8.7043
3681 1 38.7737 32.4433 10.2869
3682 1 40.3563 34.0259 11.8695
3683 1 38.7737 32.4433 13.4521
3684 1 40.3563 34.0259 15.0347
3685 1 38.7737 32.4433 16.6173
3686 1 40.3563 34.0259 18.1999
3687 1 38.7737 32.4433 19.7825
3688 1 40.3563 34.0259 21.3651
3689 1 38.7737 32.4433 22.9477
3690 1 40.3563 34.0259 24.5303
3691 1 38.7737 32.4433 26.1129
3692 1 40.3563 34.0259 27.6955
3693 1 38.7737 32.4433 29.2781
3694 1 40.3563 34.0259 30.8607
3695 1 38.7737 32.4433 32.4433
3696 1 40.3563 34.0259 34.0259
3697 1 38.7737 32.4433 35.6085
3698 1 40.3563 34.0259 37.1911
3699 1 38.7737 32.4433 38.7737
3700 1 40.3563 34.0259 40.3563
3701 1 38.7737 32.4433 41.9389
3702 1 40.3563 34.0259 43.5215
3703 1 38.7737 32.4433 45.1041
3704 1 40.3563 34.0259 46.6867
3705 1 38.7737 32.4433 48.2693
3706 1 40.3563 34.0259 49.8519
3707 1 38.7737 35.6085 0.7913
3708 1 40.3563 37.1911 2.3739
3709 1 38.7737 35.6085 3.9565
3710 1 40.3563 37.1911 5.5391
3711 1 38.7737 35.6085 7.1217
3712 1 40.3563 37.1911 8.7043
3713 1 38.7737 35.6085 10.2869
3714 1 40.3563 37.1911 11.8695
3715 1 38.7737 35.6085 13.4521
3716 1 40.3563 37.1911 15.0347
3717 1 38.7737 35.6085 16.6173
3718 1 40.3563 37.1911 18.1999
3719 1 38.7737 35.6085 19.7825
3720 1 40.3563 37.1911 21.3651
3721 1 38.7737 35.6085 22.9477
3722 1 40.3563 37.1911 24.5303
3723 1 38.7737 35.6085 26.1129
3724 1 40.3563 37.1911 27.6955
3725 1 38.7737 35.6085 29.2781
3726 1 40.3563 37.1911 30.8607
3727 1 38.7737 35.6085 32.4433
3728 1 40.3563 37.1911 34.0259
3729 1 38.7737 35.6085 35.6085
3730 1 40.3563 37.1911 37.1911
3731 1 38.7737 35.6085 38.7737
3732 1 40.3563 37.1911 40.3563
3733 1 38.7737 35.6085 41.9389
3734 1 40.3563 37.1911 43.5215
3735 1 38.7737 35.6085 45.1041
3736 1 40.3563 37.1911 46.6867
3737 1 38.7737 35.6085 48.2693
3738 1 40.3563 37.1911 49.8519
3739 1 38.7737 38.7737 0.7913
3740 1 40.3563 40.3563 2.3739
3741 1 38.7737 38.7737 3.9565
3742 1 40.3563 40.3563 5.5391
3743 1 38.7737 38.7737 7.1217
3744 1 40.3563 40.3563 8.7043
3745 1 38.7737 38.7737 10.2869
3746 1 40.3563 40.3563 11.8695
3747 1 38.7737 38.7737 13.4521
3748 1 40.3563 40.3563 15.0347
3749 1 38.7737 38.7737 16.6173
3750 1 40.3563 40.3563 18.1999
3751 1 38.7737 38.7737 19.7825
3752 1 40.3563 40.3563 21.3651
3753 1 38.7737 38.7737 22.9477
3754 1 40.3563 40.3563 24.5303
3755 1 38.7737 38.7737 26.1129
3756 1 40.3563 40.3563 27.6955
3757 1 38.7737 38.7737 29.2781
3758 1 40.3563 40.3563 30.8607
3759 1 38.7737 38.7737 32.4433
3760 1 40.3563 40.3563 34.0259
3761 1 38.7737 38.7737 35.6085
3762 1 40.3563 40.3563 37.1911
3763 1 38.7737 38.7737 38.7737
3764 1 40.3563 40.3563 40.3563
3765 1 38.7737 38.7737 41.9389
3766 1 40.3563 40.3563 43.5215
3767 1 38.7737 38.7737 45.1041
3768 1 40.3563 40.3563 46.6867
3769 1 38.7737 38.7737 48.2693
3770 1 40.3563 40.3563 49.8519
3771 1 38.7737 41.9389 0.7913
3772 1 40.3563 43.5215 2.3739
3773 1 38.7737 41.9389 3.9565
3774 1 40.3563 43.5215 5.5391
3775 1 38.7737 41.9389 7.1217
3776 1 40.3563 43.5215 8.7043
3777 1 38.7737 41.9389 10.2869
3778 1 40.3563 43.5215 11.8695
3779 1 38.7737 41.9389 13.4521
3780 1 40.3563 43.5215 15.0347
3781 1 38.7737 41.9389 16.6173
3782 1 40.3563 43.5215 18.1999
3783 1 38.7737 41.9389 19.7825
3784 1 40.3563 43.5215 21.3651
3785 1 38.7737 41.9389 22.9477
3786 1 40.3563 43.5215 24.5303
3787 1 38.7737 41.9389 26.1129
3788 1 40.3563 43.5215 27.6955
3789 1 38.7737 41.9389 29.2781
3790 1 40.3563 43.5215 30.8607
3791 1 38.7737 41.9389 32.4433
3792 1 40.3563 43.5215 34.0259
3793 1 38.7737 41.9389 35.6085
3794 1 40.3563 43.5215 37.1911
3795 1 38.7737 41.9389 38.7737
3796 1 40.3563 43.5215 40.3563
3797 1 38.7737 41.9389 41.9389
3798 1 40.3563 43.5215 43.5215
3799 1 38.7737 41.9389 45.1041
3800 1 40.3563 43.5215 46.6867
3801 1 38.7737 41.9389 48.2693
3802 1 40.3563 43.5215 49.8519
3803 1 38.7737 45.1041 0.7913
3804 1 40.3563 46.6867 2.3739
3805 1 38.7737 45.1041 3.9565
3806 1 40.3563 46.6867 5.5391
3807 1 38.7737 45.1041 7.1217
3808 1 40.3563 46.6867 8.7043
3809 1 38.7737 45.1041 10.2869
3810 1 40.3563 46.6867 11.8695
3811 1 38.7737 45.1041 13.4521
3812 1 40.3563 46.6867 15.0347
3813 1 38.7737 45.1041 16.6173
3814 1 40.3563 46.6867 18.1999
3815 1 38.7737 45.1041 19.7825
3816 1 40.3563 46.6867 21.3651
3817 1 38.7737 45.1041 22.9477
3818 1 40.3563 46.6867 24.5303
3819 1 38.7737 45.1041 26.1129
3820 1 40.3563 46.6867 27.6955
3821 1 38.7737 45.1041 29.2781
3822 1 40.3563 46.6867 30.8607
3823 1 38.7737 45.1041 32.4433
3824 1 40.3563 46.6867 34.0259
3825 1 38.7737 45.1041 35.6085
3826 1 40.3563 46.6867 37.1911
3827 1 38.7737 45.1041 38.7737
3828 1 40.3563 46.6867 40.3563
3829 1 38.7737 45.1041 41.9389
3830 1 40.3563 46.6867 43.5215
3831 1 38.7737 45.1041 45.1041
3832 1 40.3563 46.6867 46.6867
3833 1 38.7737 45.1041 48.2693
3834 1 40.3563 46.6867 49.8519
3835 1 38.7737 48.2693 0.7913
3836 1 40.3563 49.8519 2.3739
3837 1 38.7737 48.2693 3.9565
3838 1 40.3563 49.8519 5.5391
3839 1 38.7737 48.2693 7.1217
3840 1 40.3563 49.8519 8.7043
3841 1 38.7737 48.2693 10.2869
3842 1 40.3563 49.8519 11.8695
3843 1 38.7737 48.2693 13.4521
3844 1 40.3563 49.8519 15.0347
3845 1 38.7737 48.2693 16.6173
3846 1 40.3563 49.8519 18.1999
3847 1 38.7737 48.2693 19.7825
3848 1 40.3563 49.8519 21.3651
3849 1 38.7737 48.2693 22.9477
3850 1 40.3563 49.8519 24.5303
3851 1 38.7737 48.2693 26.1129
3852 1 40.3563 49.8519 27.6955
3853 1 38.7737 48.2693 29.2781
3854 1 40.3563 49.8519 30.8607
3855 1 38.7737 48.2693 32.4433
3856 1 40.3563 49.8519 34.0259
3857 1 38.7737 48.2693 35.6085
3858 1 40.3563 49.8519 37.1911
3859 1 38.7737 48.2693 38.7737
3860 1 40.3563 49.8519 40.3563
3861 1 38.7737 48.2693 41.9389
3862 1 40.3563 49.8519 43.5215
3863 1 38.7737 48.2693 45.1041
3864 1 40.3563 49.8519 46.6867
3865 1 38.7737 48.2693 48.2693
3866 1 40.3563 49.8519 49.8519
3867 1 41.9389 0.7913 0.7913
3868 1 43.5215 2.3739 2.3739
3869 1 41.9389 0.7913 3.9565
3870 1 43.5215 2.3739 5.5391
3871 1 41.9389 0.7913 7.1217
3872 1 43.5215 2.3739 8.7043
3873 1 41.9389 0.7913 10.2869
3874 1 43.5215 2.3739 11.8695
3875 1 41.9389 0.7913 13.4521
3876 1 43.5215 2.3739 15.0347
3877 1 41.9389 0.7913 16.6173
3878 1 43.5215 2.3739 18.1999
3879 1 41.9389 0.7913 19.7825
3880 1 43.5215 2.3739 21.3651
3881 1 41.9389 0.7913 22.9477
3882 1 43.5215 2.3739 24.5303
3883 1 41.9389 0.7913 26.1129
3884 1 43.5215 2.3739 27.6955
3885 1 41.9389 0.7913 29.2781
3886 1 43.5215 2.3739 30.8607
3887 1 41.9389 0.7913 32.4433
3888 1 43.5215 2.3739 34.0259
3889 1 41.9389 0.7913 35.6085
3890 1 43.5215 2.3739 37.1911
3891 1 41.9389 0.7913 38.7737
3892 1 43.5215 2.3739 40.3563
3893 1 41.9389 0.7913 41.9389
3894 1 43.5215 2.3739 43.5215
3895 1 41.9389 0.7913 45.1041
3896 1 43.5215 2.3739 46.6867
3897 1 41.9389 0.7913 48.2693
3898 1 43.5215 2.3739 49.8519
3899 1 41.9389 3.9565 0.7913
3900 1 43.5215 5.5391 2.3739
3901 1 41.9389 3.9565 3.9565
3902 1 43.5215 5.5391 5.5391
3903 1 41.9389 3.9565 7.1217
3904 1 43.5215 5.5391 8.7043
3905 1 41.9389 3.9565 10.2869
3906 1 43.5215 5.5391 11.8695
3907 1 41.9389 3.9565 13.4521
3908 1 43.5215 5.5391 15.0347
3909 1 41.9389 3.9565 16.6173
3910 1 43.5215 5.5391 18.1999
3911 1 41.9389 3.9565 19.7825
3912 1 43.5215 5.5391 21.3651
3913 1 41.9389 3.9565 22.9477
3914 1 43.5215 5.5391 24.5303
3915 1 41.9389 3.9565 26.1129
3916 1 43.5215 5.5391 27.6955
3917 1 41.9389 3.9565 29.2781
3918 1 43.5215 5.5391 30.8607
3919 1 41.9389 3.9565 32.4433
3920 1 43.5215 5.5391 34.0259
3921 1 41.9389 3.9565 35.6085
3922 1 43.5215 5.5391 37.1911
3923 1 41.9389 3.9565 38.7737
3924 1 43.5215 5.5391 40.3563
3925 1 41.9389 3.9565 41.9389
3926 1 43.5215 5.5391 43.5215
3927 1 41.9389 3.9565 45.1041
3928 1 43.5215 5.5391 46.6867
3929 1 41.9389 3.9565 48.2693
3930 1 43.5215 5.5391 49.8519
3931 1 41.9389 7.1217 0.7913
3932 1 43.5215 8.7043 2.3739
3933 1 41.9389 7.1217 3.9565
3934 1 43.5215 8.7043 5.5391
3935 1 41.9389 7.1217 7.1217
3936 1 43.5215 8.7043 8.7043
3937 1 41.9389 7.1217 10.2869
3938 1 43.5215 8.7043 11.8695
3939 1 41.9389 7.1217 13.4521
3940 1 43.5215 8.7043 15.0347
3941 1 41.9389 7.1217 16.6173
3942 1 43.5215 8.7043 18.1999
3943 1 41.9389 7.1217 19.7825
3944 1 43.5215 8.7043 21.3651
3945 1 41.9389 7.1217 22.9477
3946 1 43.5215 8.7043 24.5303
3947 1 41.9389 7.1217 26.1129
3948 1 43.5215 8.7043 27.6955
3949 1 41.9389 7.1217 29.2781
3950 1 43.5215 8.7043 30.8607
3951 1 41.9389 7.1217 32.4433
3952 1 43.5215 8.7043 34.0259
3953 1 41.9389 7.1217 35.6085
3954 1 43.5215 8.7043 37.1911
3955 1 41.9389 7.1217 38.7737
3956 1 43.5215 8.7043 40.3563
3957 1 41.9389 7.1217 41.9389
3958 1 43.5215 8.7043 43.5215
3959 1 41.9389 7.1217 45.1041
3960 1 43.5215 8.7043 46.6867
3961 1 41.9389 7.1217 48.2693
3962 1 43.5215 8.7043 49.8519
3963 1 41.9389 10.2869 0.7913
3964 1 43.5215 11.8695 2.3739
3965 1 41.9389 10.2869 3.9565
3966 1 43.5215 11.8695 5.5391
3967 1 41.9389 10.2869 7.1217
3968 1 43.5215 11.8695 8.7043
3969 1 41.9389 10.2869 10.2869
3970 1 43.5215 11.8695 11.8695
3971 1 41.9389 10.2869 13.4521
3972 1 43.5215 11.8695 15.0347
3973 1 41.9389 10.2869 16.6173
3974 1 43.5215 11.8695 18.1999
3975 1 41.9389 10.2869 19.7825
3976 1 43.5215 11.8695 21.3651
3977 1 41.9389 10.2869 22.9477
3978 1 43.5215 11.8695 24.5303
3979 1 41.9389 10.2869 26.1129
3980 1 43.5215 11.8695 27.6955
3981 1 41.9389 10.2869 29.2781
3982 1 43.5215 11.8695 30.8607
3983 1 41.9389 10.2869 32.4433
3984 1 43.5215 11.8695 34.0259
3985 1 41.9389 10.2869 35.6085
3986 1 43.5215 11.8695 37.1911
3987 1 41.9389 10.2869 38.7737
3988 1 43.5215 11.8695 40.3563
3989 1 41.9389 10.2869 41.9389
3990 1 43.5215 11.8695 43.5215
3991 1 41.9389 10.2869 45.1041
3992 1 43.5215 11.8695 46.6867
3993 1 41.9389 10.2869 48.2693
3994 1 43.5215 11.8695 49.8519
3995 1 41.9389 13.4521 0.7913
3996 1 43.5215 15.0347 2.3739
3997 1 41.9389 13.4521 3.9565
3998 1 43.5215 15.0347 5.5391
3999 1 41.9389 13.4521 7.1217
4000 1 43.5215 15.0347 8.7043
4001 1 41.9389 13.4521 10.2869
4002 1 43.5215 15.0347 11.8695
4003 1 41.9389 13.4521 13.4521
4004 1 43.5215 15.0347 15.0347
4005 1 41.9389 13.4521 16.6173
4006 1 43.5215 15.0347 18.1999
4007 1 41.9389 13.4521 19.7825
4008 1 43.5215 15.0347 21.3651
4009 1 41.9389 13.4521 22.9477
4010 1 43.5215 15.0347 24.5303
4011 1 41.9389 13.4521 26.1129
4012 1 43.5215 15.0347 27.6955
4013 1 41.9389 13.4521 29.2781
4014 1 43.5215 15.0347 30.8607
4015 1 41.9389 13.4521 32.4433
4016 1 43.5215 15.0347 34.0259
4017 1 41.9389 13.4521 35.6085
4018 1 43.5215 15.0347 37.1911
4019 1 41.9389 13.4521 38.7737
4020 1 43.5215 15.0347 40.3563
4021 1 41.9389 13.4521 41.9389
4022 1 43.5215 15.0347 43.5215
4023 1 41.9389 13.4521 45.1041
4024 1 43.5215 15.0347 46.6867
4025 1 41.9389 13.4521 48.2693
4026 1 43.5215 15.0347 49.8519
4027 1 41.9389 16.6173 0.7913
4028 1 43.5215 18.1999 2.3739
4029 1 41.9389 16.6173 3.9565
4030 1 43.5215 18.1999 5.5391
4031 1 41.9389 16.6173 7.1217
4032 1 43.5215 18.1999 8.7043
4033 1 41.9389 16.6173 10.2869
4034 1 43.5215 18.1999 11.8695
4035 1 41.9389 16.6173 13.4521
4036 1 43.5215 18.1999 15.0347
4037 1 41.9389 16.6173 16.6173
4038 1 43.5215 18.1999 18.1999
4039 1 41.9389 16.6173 19.7825
4040 1 43.5215 18.1999 21.3651
4041 1 41.9389 16.6173 22.9477
4042 1 43.5215 18.1999 24.5303
4043 1 41.9389 16.6173 26.1129
4044 1 43.5215 18.1999 27.6955
4045 1 41.9389 16.6173 29.2781
4046 1 43.5215 18.1999 30.8607
4047 1 41.9389 16.6173 32.4433
4048 1 43.5215 18.1999 34.0259
4049 1 41.9389 16.6173 35.6085
4050 1 43.5215 18.1999 37.1911
4051 1 41.9389 16.6173 38.7737
4052 1 43.5215 18.1999 40.3563
4053 1 41.9389 16.6173 41.9389
4054 1 43.5215 18.1999 43.5215
4055 1 41.9389 16.6173 45.1041
4056 1 43.5215 18.1999 46.6867
4057 1 41.9389 16.6173 48.2693
4058 1 43.5215 18.1999 49.8519
4059 1 41.9389 19.7825 0.7913
4060 1 43.5215 21.3651 2.3739
4061 1 41.9389 19.7825 3.9565
4062 1 43.5215 21.3651 5.5391
4063 1 41.9389 19.7825 7.1217
4064 1 43.5215 21.3651 8.7043
4065 1 41.9389 19.7825 10.2869
4066 1 43.5215 21.3651 11.8695
4067 1 41.9389 19.7825 13.4521
4068 1 43.5215 21.3651 15.0347
4069 1 41.9389 19.7825 16.6173
4070 1 43.5215 21.3651 18.1999
4071 1 41.9389 19.7825 19.7825
4072 1 43.5215 21.3651 21.3651
4073 1 41.9389 19.7825 22.9477
4074 1 43.5215 21.3651 24.5303
4075 1 41.9389 19.7825 26.1129
4076 1 43.5215 21.3651 27.6955
4077 1 41.9389 19.7825 29.2781
4078 1 43.5215 21.3651 30.8607
4079 1 41.9389 19.7825 32.4433
4080 1 43.5215 21.3651 34.0259
4081 1 41.9389 19.7825 35.6085
4082 1 43.5215 21.3651 37.1911
4083 1 41.9389 19.7825 38.7737
4084 1 43.5215 21.3651 40.3563
4085 1 41.9389 19.7825 41.9389
4086 1 43.5215 21.3651 43.5215
4087 1 41.9389 19.7825 45.1041
4088 1 43.5215 21.3651 46.6867
4089 1 41.9389 19.7825 48.2693
4090 1 43.5215 21.3651 49.8519
4091 1 41.9389 22.9477 0.7913
4092 1 43.5215 24.5303 2.3739
4093 1 41.9389 22.9477 3.9565
4094 1 43.5215 24.5303 5.5391
4095 1 41.9389 22.9477 7.1217
4096 1 43.5215 24.5303 8.7043
4097 1 41.9389 22.9477 10.2869
4098 1 43.5215 24.5303 11.8695
4099 1 41.9389 22.9477 13.4521
4100 1 43.5215 24.5303 15.0347
4101 1 41.9389 22.9477 16.6173
4102 1 43.5215 24.5303 18.1999
4103 1 41.9389 22.9477 19.7825
4104 1 43.5215 24.5303 21.3651
4105 1 41.9389 22.9477 22.9477
4106 1 43.5215 24.5303 24.5303
4107 1 41.9389 22.9477 26.1129
4108 1 43.5215 24.5303 27.6955
4109 1 41.9389 22.9477 29.2781
4110 1 43.5215 24.5303 30.8607
4111 1 41.9389 22.9477 32.4433
4112 1 43.5215 24.5303 34.0259
4113 1 41.9389 22.9477 35.6085
4114 1 43.5215 24.5303 37.1911
4115 1 41.9389 22.9477 38.7737
4116 1 43.5215 24.5303 40.3563
4117 1 41.9389 22.9477 41.9389
4118 1 43.5215 24.5303 43.5215
4119 1 41.9389 22.9477 45.1041
4120 1 43.5215 24.5303 46.6867
4121 1 41.9389 22.9477 48.2693
4122 1 43.5215 24.5303 49.8519
4123 1 41.9389 26.1129 0.7913
4124 1 43.5215 27.6955 2.3739
4125 1 41.9389 26.1129 3.9565
4126 1 43.5215 27.6955 5.5391
4127 1 41.9389 26.1129 7.1217
4128 1 43.5215 27.6955 8.7043
4129 1 41.9389 26.1129 10.2869
4130 1 43.5215 27.6955 11.8695
4131 1 41.9389 26.1129 13.4521
4132 1 43.5215 27.6955 15.0347
4133 1 41.9389 26.1129 16.6173
4134 1 43.5215 27.6955 18.1999
4135 1 41.9389 26.1129 19.7825
4136 1 43.5215 27.6955 21.3651
4137 1 41.9389 26.1129 22.9477
4138 1 43.5215 27.6955 24.5303
4139 1 41.9389 26.1129 26.1129
4140 1 43.5215 27.6955 27.6955
4141 1 41.9389 26.1129 29.2781
4142 1 43.5215 27.6955 30.8607
4143 1 41.9389 26.1129 32.4433
4144 1 43.5215 27.6955 34.0259
4145 1 41.9389 26.1129 35.6085
4146 1 43.5215 27.6955 37.1911
4147 1 41.9389 26.1129 38.7737
4148 1 43.5215 27.6955 40.3563
4149 1 41.9389 26.1129 41.9389
4150 1 43.5215 27.6955 43.5215
4151 1 41.9389 26.1129 45.1041
4152 1 43.5215 27.6955 46.6867
4153 1 41.9389 26.1129 48.2693
4154 1 43.5215 27.6955 49.8519
4155 1 41.9389 29.2781 0.7913
4156 1 43.5215 30.8607 2.3739
4157 1 41.9389 29.2781 3.9565
4158 1 43.5215 30.8607 5.5391
4159 1 41.9389 29.2781 7.1217
4160 1 43.5215 30.8607 8.7043
4161 1 41.9389 29.2781 10.2869
4162 1 43.5215 30.8607 11.8695
4163 1 41.9389 29.2781 13.4521
4164 1 43.5215 30.8607 15.0347
4165 1 41.9389 29.2781 16.6173
4166 1 43.5215 30.8607 18.1999
4167 1 41.9389 29.2781 19.7825
4168 1 43.5215 30.8607 21.3651
4169 1 41.9389 29.2781 22.9477
4170 1 43.5215 30.8607 24.5303
4171 1 41.9389 29.2781 26.1129
4172 1 43.5215 30.8607 27.6955
4173 1 41.9389 29.2781 29.2781
4174 1 43.5215 30.8607 30.8607
4175 1 41.9389 29.2781 32.4433
4176 1 43.5215 30.8607 34.0259
4177 1 41.9389 29.2781 35.6085
4178 1 43.5215 30.8607 37.1911
4179 1 41.9389 29.2781 38.7737
4180 1 43.5215 30.8607 40.3563
4181 1 41.9389 29.2781 41.9389
4182 1 43.5215 30.8607 43.5215
4183 1 41.9389 29.2781 45.1041
4184 1 43.5215 30.8607 46.6867
4185 1 41.9389 29.2781 48.2693
4186 1 43.5215 30.8607 49.8519
4187 1 41.9389 32.4433 0.7913
4188 1 43.5215 34.0259 2.3739
4189 1 41.9389 32.4433 3.9565
4190 1 43.5215 34.0259 5.5391
4191 1 41.9389 32.4433 7.1217
4192 1 43.5215 34.0259 8.7043
4193 1 41.9389 32.4433 10.2869
4194 1 43.5215 34.0259 11.8695
4195 1 41.9389 32.4433 13.4521
4196 1 43.5215 34.0259 15.0347
4197 1 41.9389 32.4433 16.6173
4198 1 43.5215 34.0259 18.1999
4199 1 41.9389 32.4433 19.7825
4200 1 43.5215 34.0259 21.3651
4201 1 41.9389 32.4433 22.9477
4202 1 43.5215 34.0259 24.5303
4203 1 41.9389 32.4433 26.1129
4204 1 43.5215 34.0259 27.6955
4205 1 41.9389 32.4433 29.2781
4206 1 43.5215 34.0259 30.8607
4207 1 41.9389 32.4433 32.4433
4208 1 43.5215 34.0259 34.0259
4209 1 41.9389 32.4433 35.6085
4210 1 43.5215 34.0259 37.1911
4211 1 41.9389 32.4433 38.7737
4212 1 43.5215 34.0259 40.3563
4213 1 41.9389 32.4433 41.9389
4214 1 43.5215 34.0259 43.5215
4215 1 41.9389 32.4433 45.1041
4216 1 43.5215 34.0259 46.6867
4217 1 41.9389 32.4433 48.2693
4218 1 43.5215 34.0259 49.8519
4219 1 41.9389 35.6085 0.7913
4220 1 43.5215 37.1911 2.3739
4221 1 41.9389 35.6085 3.9565
4222 1 43.5215 37.1911 5.5391
4223 1 41.9389 35.6085 7.1217
4224 1 43.5215 37.1911 8.7043
4225 1 41.9389 35.6085 10.2869
4226 1 43.5215 37.1911 11.8695
4227 1 41.9389 35.6085 13.4521
4228 1 43.5215 37.1911 15.0347
4229 1 41.9389 35.6085 16.6173
4230 1 43.5215 37.1911 18.1999
4231 1 41.9389 35.6085 19.7825
4232 1 43.5215 37.1911 21.3651
4233 1 41.9389 35.6085 22.9477
4234 1 43.5215 37.1911 24.5303
4235 1 41.9389 35.6085 26.1129
4236 1 43.5215 37.1911 27.6955
4237 1 41.9389 35.6085 29.2781
4238 1 43.5215 37.1911 30.8607
4239 1 41.9389 35.6085 32.4433
4240 1 43.5215 37.1911 34.0259
4241 1 41.9389 35.6085 35.6085
4242 1 43.5215 37.1911 37.1911
4243 1 41.9389 35.6085 38.7737
4244 1 43.5215 37.1911 40.3563
4245 1 41.9389 35.6085 41.9389
4246 1 43.5215 37.1911 43.5215
4247 1 41.9389 35.6085 45.1041
4248 1 43.5215 37.1911 46.6867
4249 1 41.9389 35.6085 48.2693
4250 1 43.5215 37.1911 49.8519
4251 1 41.9389 38.7737 0.7913
4252 1 43.5215 40.3563 2.3739
4253 1 41.9389 38.7737 3.9565
4254 1 43.5215 40.3563 5.5391
4255 1 41.9389 38.7737 7.1217
4256 1 43.5215 40.3563 8.7043
4257 1 41.9389 38.7737 10.2869
4258 1 43.5215 40.3563 11.8695
4259 1 41.9389 38.7737 13.4521
4260 1 43.5215 40.3563 15.0347
4261 1 41.9389 38.7737 16.6173
4262 1 43.5215 40.3563 18.1999
4263 1 41.9389 38.7737 19.7825
4264 1 43.5215 40.3563 21.3651
4265 1 41.9389 38.7737 22.9477
4266 1 43.5215 40.3563 24.5303
4267 1 41.9389 38.7737 26.1129
4268 1 43.5215 40.3563 27.6955
4269 1 41.9389 38.7737 29.2781
4270 1 43.5215 40.3563 30.8607
4271 1 41.9389 38.7737 32.4433
4272 1 43.5215 40.3563 34.0259
4273 1 41.9389 38.7737 35.6085
4274 1 43.5215 40.3563 37.1911
4275 1 41.9389 38.7737 38.7737
4276 1 43.5215 40.3563 40.3563
4277 1 41.9389 38.7737 41.9389
4278 1 43.5215 40.3563 43.5215
4279 1 41.9389 38.7737 45.1041
4280 1 43.5215 40.3563 46.6867
4281 1 41.9389 38.7737 48.2693
4282 1 43.5215 40.3563 49.8519
4283 1 41.9389 41.9389 0.7913
4284 1 43.5215 43.5215 2.3739
4285 1 41.9389 41.9389 3.9565
4286 1 43.5215 43.5215 5.5391
4287 1 41.9389 41.9389 7.1217
4288 1 43.5215 43.5215 8.7043
4289 1 41.9389 41.9389 10.2869
4290 1 43.5215 43.5215 11.8695
4291 1 41.9389 41.9389 13.4521
4292 1 43.5215 43.5215 15.0347
4293 1 41.9389 41.9389 16.6173
4294 1 43.5215 43.5215 18.1999
4295 1 41.9389 41.9389 19.7825
4296 1 43.5215 43.5215 21.3651
4297 1 41.9389 41.9389 22.9477
4298 1 43.5215 43.5215 24.5303
4299 1 41.9389 41.9389 26.1129
4300 1 43.5215 43.5215 27.6955
4301 1 41.9389 41.9389 29.2781
4302 1 43.5215 43.5215 30.8607
4303 1 41.9389 41.9389 32.4433
4304 1 43.5215 43.5215 34.0259
4305 1 41.9389 41.9389 35.6085
4306 1 43.5215 43.5215 37.1911
4307 1 41.9389 41.9389 38.7737
4308 1 43.5215 43.5215 40.3563
4309 1 41.9389 41.9389 41.9389
4310 1 43.5215 43.5215 43.5215
4311 1 41.9389 41.9389 45.1041
4312 1 43.5215 43.5215 46.6867
4313 1 41.9389 41.9389 48.2693
4314 1 43.5215 43.5215 49.8519
4315 1 41.9389 45.1041 0.7913
4316 1 43.5215 46.6867 2.3739
4317 1 41.9389 45.1041 3.9565
4318 1 43.5215 46.6867 5.5391
4319 1 41.9389 45.1041 7.1217
4320 1 43.5215 46.6867 8.7043
4321 1 41.9389 45.1041 10.2869
4322 1 43.5215 46.6867 11.8695
4323 1 41.9389 45.1041 13.4521
4324 1 43.5215 46.6867 15.0347
4325 1 41.9389 45.1041 16.6173
4326 1 43.5215 46.6867 18.1999
4327 1 41.9389 45.1041 19.7825
4328 1 43.5215 46.6867 21.3651
4329 1 41.9389 45.1041 22.9477
4330 1 43.5215 46.6867 24.5303
4331 1 41.9389 45.1041 26.1129
4332 1 43.5215 46.6867 27.6955
4333 1 41.9389 45.1041 29.2781
4334 1 43.5215 46.6867 30.8607
4335 1 41.9389 45.1041 32.4433
4336 1 43.5215 46.6867 34.0259
4337 1 41.9389 45.1041 35.6085
4338 1 43.5215 46.6867 37.1911
4339 1 41.9389 45.1041 38.7737
4340 1 43.5215 46.6867 40.3563
4341 1 41.9389 45.1041 41.9389
4342 1 43.5215 46.6867 43.5215
4343 1 41.9389 45.1041 45.1041
4344 1 43.5215 46.6867 46.6867
4345 1 41.9389 45.1041 48.2693
4346 1 43.5215 46.6867 49.8519
4347 1 41.9389 48.2693 0.7913
4348 1 43.5215 49.8519 2.3739
4349 1 41.9389 48.2693 3.9565
4350 1 43.5215 49.8519 5.5391
4351 1 41.9389 48.2693 7.1217
4352 1 43.5215 49.8519 8.7043
4353 1 41.9389 48.2693 10.2869
4354 1 43.5215 49.8519 11.8695
4355 1 41.9389 48.2693 13.4521
4356 1 43.5215 49.8519 15.0347
4357 1 41.9389 48.2693 16.6173
4358 1 43.5215 49.8519 18.1999
4359 1 41.9389 48.2693 19.7825
4360 1 43.5215 49.8519 21.3651
4361 1 41.9389 48.2693 22.9477
4362 1 43.5215 49.8519 24.5303
4363 1 41.9389 48.2693 26.1129
4364 1 43.5215 49.8519 27.6955
4365 1 41.9389 48.2693 29.2781
4366 1 43.5215 49.8519 30.8607
4367 1 41.9389 48.2693 32.4433
4368 1 43.5215 49.8519 34.0259
4369 1 41.9389 48.2693 35.6085
4370 1 43.5215 49.8519 37.1911
4371 1 41.9389 48.2693 38.7737
4372 1 43.5215 49.8519 40.3563
4373 1 41.9389 48.2693 41.9389
4374 1 43.5215 49.8519 43.5215
4375 1 41.9389 48.2693 45.1041
4376 1 43.5215 49.8519 46.6867
4377 1 41.9389 48.2693 48.2693
4378 1 43.5215 49.8519 49.8519
4379 1 45.1041 0.7913 0.7913
4380 1 46.6867 2.3739 2.3739
4381 1 45.1041 0.7913 3.9565
4382 1 46.6867 2.3739 5.5391
4383 1 45.1041 0.7913 7.1217
4384 1 46.6867 2.3739 8.7043
4385 1 45.1041 0.7913 10.2869
4386 1 46.6867 2.3739 11.8695
4387 1 45.1041 0.7913 13.4521
4388 1 46.6867 2.3739 15.0347
4389 1 45.1041 0.7913 16.6173
4390 1 46.6867 2.3739 18.1999
4391 1 45.1041 0.7913 19.7825
4392 1 46.6867 2.3739 21.3651
4393 1 45.1041 0.7913 22.9477
4394 1 46.6867 2.3739 24.5303
4395 1 45.1041 0.7913 26.1129
4396 1 46.6867 2.3739 27.6955
4397 1 45.1041 0.7913 29.2781
4398 1 46.6867 2.3739 30.8607
4399 1 45.1041 0.7913 32.4433
4400 1 46.6867 2.3739 34.0259
4401 1 45.1041 0.7913 35.6085
4402 1 46.6867 2.3739 37.1911
4403 1 45.1041 0.7913 38.7737
4404 1 46.6867 2.3739 40.3563
4405 1 45.1041 0.7913 41.9389
4406 1 46.6867 2.3739 43.5215
4407 1 45.1041 0.7913 45.1041
4408 1 46.6867 2.3739 46.6867
4409 1 45.1041 0.7913 48.2693
4410 1 46.6867 2.3739 49.8519
4411 1 45.1041 3.9565 0.7913
4412 1 46.6867 5.5391 2.3739
4413 1 45.1041 3.9565 3.9565
4414 1 46.6867 5.5391 5.5391
4415 1 45.1041 3.9565 7.1217
4416 1 46.6867 5.5391 8.7043
4417 1 45.1041 3.9565 10.2869
4418 1 46.6867 5.5391 11.8695
4419 1 45.1041 3.9565 13.4521
4420 1 46.6867 5.5391 15.0347
4421 1 45.1041 3.9565 16.6173
4422 1 46.6867 5.5391 18.1999
4423 1 45.1041 3.9565 19.7825
4424 1 46.6867 5.5391 21.3651
4425 1 45.1041 3.9565 22.9477
4426 1 46.6867 5.5391 24.5303
4427 1 45.1041 3.9565 26.1129
4428 1 46.6867 5.5391 27.6955
4429 1 45.1041 3.9565 29.2781
4430 1 46.6867 5.5391 30.8607
4431 1 45.1041 3.9565 32.4433
4432 1 46.6867 5.5391 34.0259
4433 1 45.1041 3.9565 35.6085
4434 1 46.6867 5.5391 37.1911
4435 1 45.1041 3.9565 38.7737
4436 1 46.6867 5.5391 40.3563
4437 1 45.1041 3.9565 41.9389
4438 1 46.6867 5.5391 43.5215
4439 1 45.1041 3.9565 45.1041
4440 1 46.6867 5.5391 46.6867
4441 1 45.1041 3.9565 48.2693
4442 1 46.6867 5.5391 49.8519
4443 1 45.1041 7.1217 0.7913
4444 1 46.6867 8.7043 2.3739
4445 1 45.1041 7.1217 3.9565
4446 1 46.6867 8.7043 5.5391
4447 1 45.1041 7.1217 7.1217
4448 1 46.6867 8.7043 8.7043
4449 1 45.1041 7.1217 10.2869
4450 1 46.6867 8.7043 11.8695
4451 1 45.1041 7.1217 13.4521
4452 1 46.6867 8.7043 15.0347
4453 1 45.1041 7.1217 16.6173
4454 1 46.6867 8.7043 18.1999
4455 1 45.1041 7.1217 19.7825
4456 1 46.6867 8.7043 21.3651
4457 1 45.1041 7.1217 22.9477
4458 1 46.6867 8.7043 24.5303
4459 1 45.1041 7.1217 26.1129
4460 1 46.6867 8.7043 27.6955
4461 1 45.1041 7.1217 29.2781
4462 1 46.6867 8.7043 30.8607
4463 1 45.1041 7.1217 32.4433
4464 1 46.6867 8.7043 34.0259
4465 1 45.1041 7.1217 35.6085
4466 1 46.6867 8.7043 37.1911
4467 1 45.1041 7.1217 38.7737
4468 1 46.6867 8.7043 40.3563
4469 1 45.1041 7.1217 41.9389
4470 1 46.6867 8.7043 43.5215
4471 1 45.1041 7.1217 45.1041
4472 1 46.6867 8.7043 46.6867
4473 1 45.1041 7.1217 48.2693
4474 1 46.6867 8.7043 49.8519
4475 1 45.1041 10.2869 0.7913
4476 1 46.6867 11.8695 2.3739
4477 1 45.1041 10.2869 3.9565
4478 1 46.6867 11.8695 5.5391
4479 1 45.1041 10.2869 7.1217
4480 1 46.6867 11.8695 8.7043
4481 1 45.1041 10.2869 10.2869
4482 1 46.6867 11.8695 11.8695
4483 1 45.1041 10.2869 13.4521
4484 1 46.6867 11.8695 15.0347
4485 1 45.1041 10.2869 16.6173
4486 1 46.6867 11.8695 18.1999
4487 1 45.1041 10.2869 19.7825
4488 1 46.6867 11.8695 21.3651
4489 1 45.1041 10.2869 22.9477
4490 1 46.6867 11.8695 24.5303
4491 1 45.1041 10.2869 26.1129
4492 1 46.6867 11.8695 27.6955
4493 1 45.1041 10.2869 29.2781
4494 1 46.6867 11.8695 30.8607
4495 1 45.1041 10.2869 32.4433
4496 1 46.6867 11.8695 34.0259
4497 1 45.1041 10.2869 35.6085
4498 1 46.6867 11.8695 37.1911
4499 1 45.1041 10.2869 38.7737
4500 1 46.6867 11.8695 40.3563
4501 1 45.1041 10.2869 41.9389
4502 1 46.6867 11.8695 43.5215
4503 1 45.1041 10.2869 45.1041
4504 1 46.6867 11.8695 46.6867
4505 1 45.1041 10.2869 48.2693
4506 1 46.6867 11.8695 49.8519
4507 1 45.1041 13.4521 0.7913
4508 1 46.6867 15.0347 2.3739
4509 1 45.1041 13.4521 3.9565
4510 1 46.6867 15.0347 5.5391
4511 1 45.1041 13.4521 7.1217
4512 1 46.6867 15.0347 8.7043
4513 1 45.1041 13.4521 10.2869
4514 1 46.6867 15.0347 11.8695
4515 1 45.1041 13.4521 13.4521
4516 1 46.6867 15.0347 15.0347
4517 1 45.1041 13.4521 16.6173
4518 1 46.6867 15.0347 18.1999
4519 1 45.1041 13.4521 19.7825
4520 1 46.6867 15.0347 21.3651
4521 1 45.1041 13.4521 22.9477
4522 1 46.6867 15.0347 24.5303
4523 1 45.1041 13.4521 26.1129
4524 1 46.6867 15.0347 27.6955
4525 1 45.1041 13.4521 29.2781
4526 1 46.6867 15.0347 30.8607
4527 1 45.1041 13.4521 32.4433
4528 1 46.6867 15.0347 34.0259
4529 1 45.1041 13.4521 35.6085
4530 1 46.6867 15.0347 37.1911
4531 1 45.1041 13.4521 38.7737
4532 1 46.6867 15.0347 40.3563
4533 1 45.1041 13.4521 41.9389
4534 1 46.6867 15.0347 43.5215
4535 1 45.1041 13.4521 45.1041
4536 1 46.6867 15.0347 46.6867
4537 1 45.1041 13.4521 48.2693
4538 1 46.6867 15.0347 49.8519
4539 1 45.1041 16.6173 0.7913
4540 1 46.6867 18.1999 2.3739
4541 1 45.1041 16.6173 3.9565
4542 1 46.6867 18.1999 5.5391
4543 1 45.1041 16.6173 7.1217
4544 1 46.6867 18.1999 8.7043
4545 1 45.1041 16.6173 10.2869
4546 1 46.6867 18.1999 11.8695
4547 1 45.1041 16.6173 13.4521
4548 1 46.6867 18.1999 15.0347
4549 1 45.1041 16.6173 16.6173
4550 1 46.6867 18.1999 18.1999
4551 1 45.1041 16.6173 19.7825
4552 1 46.6867 18.1999 21.3651
4553 1 45.1041 16.6173 22.9477
4554 1 46.6867 18.1999 24.5303
4555 1 45.1041 16.6173 26.1129
4556 1 46.6867 18.1999 27.6955
4557 1 45.1041 16.6173 29.2781
4558 1 46.6867 18.1999 30.8607
4559 1 45.1041 16.6173 32.4433
4560 1 46.6867 18.1999 34.0259
4561 1 45.1041 16.6173 35.6085
4562 1 46.6867 18.1999 37.1911
4563 1 45.1041 16.6173 38.7737
4564 1 46.6867 18.1999 40.3563
4565 1 45.1041 16.6173 41.9389
4566 1 46.6867 18.1999 43.5215
4567 1 45.1041 16.6173 45.1041
4568 1 46.6867 18.1999 46.6867
4569 1 45.1041 16.6173 48.2693
4570 1 46.6867 18.1999 49.8519
4571 1 45.1041 19.7825 0.7913
4572 1 46.6867 21.3651 2.3739
4573 1 45.1041 19.7825 3.9565
4574 1 46.6867 21.3651 5.5391
4575 1 45.1041 19.7825 7.1217
4576 1 46.6867 21.3651 8.7043
4577 1 45.1041 19.7825 10.2869
4578 1 46.6867 21.3651 11.8695
4579 1 45.1041 19.7825 13.4521
4580 1 46.6867 21.3651 15.0347
4581 1 45.1041 19.7825 16.6173
4582 1 46.6867 21.3651 18.1999
4583 1 45.1041 19.7825 19.7825
4584 1 46.6867 21.3651 21.3651
4585 1 45.1041 19.7825 22.9477
4586 1 46.6867 21.3651 24.5303
4587 1 45.1041 19.7825 26.1129
4588 1 46.6867 21.3651 27.6955
4589 1 45.1041 19.7825 29.2781
4590 1 46.6867 21.3651 30.8607
4591 1 45.1041 19.7825 32.4433
4592 1 46.6867 21.3651 34.0259
4593 1 45.1041 19.7825 35.6085
4594 1 46.6867 21.3651 37.1911
4595 1 45.1041 19.7825 38.7737
4596 1 46.6867 21.3651 40.3563
4597 1 45.1041 19.7825 41.9389
4598 1 46.6867 21.3651 43.5215
4599 1 45.1041 19.7825 45.1041
4600 1 46.6867 21.3651 46.6867
4601 1 45.1041 19.7825 48.2693
4602 1 46.6867 21.3651 49.8519
4603 1 45.1041 22.9477 0.7913
4604 1 46.6867 24.5303 2.3739
4605 1 45.1041 22.9477 3.9565
4606 1 46.6867 24.5303 5.5391
4607 1 45.1041 22.9477 7.1217
4608 1 46.6867 24.5303 8.7043
4609 1 45.1041 22.9477 10.2869
4610 1 46.6867 24.5303 11.8695
4611 1 45.1041 22.9477 13.4521
4612 1 46.6867 24.5303 15.0347
4613 1 45.1041 22.9477 16.6173
4614 1 46.6867 24.5303 18.1999
4615 1 45.1041 22.9477 19.7825
4616 1 46.6867 24.5303 21.3651
4617 1 45.1041 22.9477 22.9477
4618 1 46.6867 24.5303 24.5303
4619 1 45.1041 22.9477 26.1129
4620 1 46.6867 24.5303 27.6955
4621 1 45.1041 22.9477 29.2781
4622 1 46.6867 24.5303 30.8607
4623 1 45.1041 22.9477 32.4433
4624 1 46.6867 24.5303 34.0259
4625 1 45.1041 22.9477 35.6085
4626 1 46.6867 24.5303 37.1911
4627 1 45.1041 22.9477 38.7737
4628 1 46.6867 24.5303 40.3563
4629 1 45.1041 22.9477 41.9389
4630 1 46.6867 24.5303 43.5215
4631 1 45.1041 22.9477 45.1041
4632 1 46.6867 24.5303 46.6867
4633 1 45.1041 22.9477 48.2693
4634 1 46.6867 24.5303 49.8519
4635 1 45.1041 26.1129 0.7913
4636 1 46.6867 27.6955 2.3739
4637 1 45.1041 26.1129 3.9565
4638 1 46.6867 27.6955 5.5391
4639 1 45.1041 26.1129 7.1217
4640 1 46.6867 27.6955 8.7043
4641 1 45.1041 26.1129 10.2869
4642 1 46.6867 27.6955 11.8695
4643 1 45.1041 26.1129 13.4521
4644 1 46.6867 27.6955 15.0347
4645 1 45.1041 26.1129 16.6173
4646 1 46.6867 27.6955 18.1999
4647 1 45.1041 26.1129 19.7825
4648 1 46.6867 27.6955 21.3651
4649 1 45.1041 26.1129 22.9477
4650 1 46.6867 27.6955 24.5303
4651 1 45.1041 26.1129 26.1129
4652 1 46.6867 27.6955 27.6955
4653 1 45.1041 26.1129 29.2781
4654 1 46.6867 27.6955 30.8607
4655 1 45.1041 26.1129 32.4433
4656 1 46.6867 27.6955 34.0259
4657 1 45.1041 26.1129 35.6085
4658 1 46.6867 27.6955 37.1911
4659 1 45.1041 26.1129 38.7737
4660 1 46.6867 27.6955 40.3563
4661 1 45.1041 26.1129 41.9389
4662 1 46.6867 27.6955 43.5215
4663 1 45.1041 26.1129 45.1041
4664 1 46.6867 27.6955 46.6867
4665 1 45.1041 26.1129 48.2693
4666 1 46.6867 27.6955 49.8519
4667 1 45.1041 29.2781 0.7913
4668 1 46.6867 30.8607 2.3739
4669 1 45.1041 29.2781 3.9565
4670 1 46.6867 30.8607 5.5391
4671 1 45.1041 29.2781 7.1217
4672 1 46.6867 30.8607 8.7043
4673 1 45.1041 29.2781 10.2869
4674 1 46.6867 30.8607 11.8695
4675 1 45.1041 29.2781 13.4521
4676 1 46.6867 30.8607 15.0347
4677 1 45.1041 29.2781 16.6173
4678 1 46.6867 30.8607 18.1999
4679 1 45.1041 29.2781 19.7825
4680 1 46.6867 30.8607 21.3651
4681 1 45.1041 29.2781 22.9477
4682 1 46.6867 30.8607 24.5303
4683 1 45.1041 29.2781 26.1129
4684 1 46.6867 30.8607 27.6955
4685 1 45.1041 29.2781 29.2781
4686 1 46.6867 30.8607 30.8607
4687 1 45.1041 29.2781 32.4433
4688 1 46.6867 30.8607 34.0259
4689 1 45.1041 29.2781 35.6085
4690 1 46.6867 30.8607 37.1911
4691 1 45.1041 29.2781 38.7737
4692 1 46.6867 30.8607 40.3563
4693 1 45.1041 29.2781 41.9389
4694 1 46.6867 30.8607 43.5215
4695 1 45.1041 29.2781 45.1041
4696 1 46.6867 30.8607 46.6867
4697 1 45.1041 29.2781 48.2693
4698 1 46.6867 30.8607 49.8519
4699 1 45.1041 32.4433 0.7913
4700 1 46.6867 34.0259 2.3739
4701 1 45.1041 32.4433 3.9565
4702 1 46.6867 34.0259 5.5391
4703 1 45.1041 32.4433 7.1217
4704 1 46.6867 34.0259 8.7043
4705 1 45.1041 32.4433 10.2869
4706 1 46.6867 34.0259 11.8695
4707 1 45.1041 32.4433 13.4521
4708 1 46.6867 34.0259 15.0347
4709 1 45.1041 32.4433 16.6173
4710 1 46.6867 34.0259 18.1999
4711 1 45.1041 32.4433 19.7825
4712 1 46.6867 34.0259 21.3651
4713 1 45.1041 32.4433 22.9477
4714 1 46.6867 34.0259 24.5303
4715 1 45.1041 32.4433 26.1129
4716 1 46.6867 34.0259 27.6955
4717 1 45.1041 32.4433 29.2781
4718 1 46.6867 34.0259 30.8607
4719 1 45.1041 32.4433 32.4433
4720 1 46.6867 34.0259 34.0259
4721 1 45.1041 32.4433 35.6085
4722 1 46.6867 34.0259 37.1911
4723 1 45.1041 32.4433 38.7737
4724 1 46.6867 34.0259 40.3563
4725 1 45.1041 32.4433 41.9389
4726 1 46.6867 34.0259 43.5215
4727 1 45.1041 32.4433 45.1041
4728 1 46.6867 34.0259 46.6867
4729 1 45.1041 32.4433 48.2693
4730 1 46.6867 34.0259 49.8519
4731 1 45.1041 35.6085 0.7913
4732 1 46.6867 37.1911 2.3739
4733 1 45.1041 35.6085 3.9565
4734 1 46.6867 37.1911 5.5391
4735 1 45.1041 35.6085 7.1217
4736 1 46.6867 37.1911 8.7043
4737 1 45.1041 35.6085 10.2869
4738 1 46.6867 37.1911 11.8695
4739 1 45.1041 35.6085 13.4521
4740 1 46.6867 37.1911 15.0347
4741 1 45.1041 35.6085 16.6173
4742 1 46.6867 37.1911 18.1999
4743 1 45.1041 35.6085 19.7825
4744 1 46.6867 37.1911 21.3651
4745 1 45.1041 35.6085 22.9477
4746 1 46.6867 37.1911 24.5303
4747 1 45.1041 35.6085 26.1129
4748 1 46.6867 37.1911 27.6955
4749 1 45.1041 35.6085 29.2781
4750 1 46.6867 37.1911 30.8607
4751 1 45.1041 35.6085 32.4433
4752 1 46.6867 37.1911 34.0259
4753 1 45.1041 35.6085 35.6085
4754 1 46.6867 37.1911 37.1911
4755 1 45.1041 35.6085 38.7737
4756 1 46.6867 37.1911 40.3563
4757 1 45.1041 35.6085 41.9389
4758 1 46.6867 37.1911 43.5215
4759 1 45.1041 35.6085 45.1041
4760 1 46.6867 37.1911 46.6867
4761 1 45.1041 35.6085 48.2693
4762 1 46.6867 37.1911 49.8519
4763 1 45.1041 38.7737 0.7913
4764 1 46.6867 40.3563 2.3739
4765 1 45.1041 38.7737 3.9565
4766 1 46.6867 40.3563 5.5391
4767 1 45.1041 38.7737 7.1217
4768 1 46.6867 40.3563 8.7043
4769 1 45.1041 38.7737 10.2869
4770 1 46.6867 40.3563 11.8695
4771 1 45.1041 38.7737 13.4521
4772 1 46.6867 40.3563 15.0347
4773 1 45.1041 38.7737 16.6173
4774 1 46.6867 40.3563 18.1999
4775 1 45.1041 38.7737 19.7825
4776 1 46.6867 40.3563 21.3651
4777 1 45.1041 38.7737 22.9477
4778 1 46.6867 40.3563 24.5303
4779 1 45.1041 38.7737 26.1129
4780 1 46.6867 40.3563 27.6955
4781 1 45.1041 38.7737 29.2781
4782 1 46.6867 40.3563 30.8607
4783 1 45.1041 38.7737 32.4433
4784 1 46.6867 40.3563 34.0259
4785 1 45.1041 38.7737 35.6085
4786 1 46.6867 40.3563 37.1911
4787 1 45.1041 38.7737 38.7737
4788 1 46.6867 40.3563 40.3563
4789 1 45.1041 38.7737 41.9389
4790 1 46.6867 40.3563 43.5215
4791 1 45.1041 38.7737 45.1041
4792 1 46.6867 40.3563 46.6867
4793 1 45.1041 38.7737 48.2693
4794 1 46.6867 40.3563 49.8519
4795 1 45.1041 41.9389 0.7913
4796 1 46.6867 43.5215 2.3739
4797 1 45.1041 41.9389 3.9565
4798 1 46.6867 43.5215 5.5391
4799 1 45.1041 41.9389 7.1217
4800 1 46.6867 43.5215 8.7043
4801 1 45.1041 41.9389 10.2869
4802 1 46.6867 43.5215 11.8695
4803 1 45.1041 41.9389 13.4521
4804 1 46.6867 43.5215 15.0347
4805 1 45.1041 41.9389 16.6173
4806 1 46.6867 43.5215 18.1999
4807 1 45.1041 41.9389 19.7825
4808 1 46.6867 43.5215 21.3651
4809 1 45.1041 41.9389 22.9477
4810 1 46.6867 43.5215 24.5303
4811 1 45.1041 41.9389 26.1129
4812 1 46.6867 43.5215 27.6955
4813 1 45.1041 41.9389 29.2781
4814 1 46.6867 43.5215 30.8607
4815 1 45.1041 41.9389 32.4433
4816 1 46.6867 43.5215 34.0259
4817 1 45.1041 41.9389 35.6085
4818 1 46.6867 43.5215 37.1911
4819 1 45.1041 41.9389 38.7737
4820 1 46.6867 43.5215 40.3563
4821 1 45.1041 41.9389 41.9389
4822 1 46.6867 43.5215 43.5215
4823 1 45.1041 41.9389 45.1041
4824 1 46.6867 43.5215 46.6867
4825 1 45.1041 41.9389 48.2693
4826 1 46.6867 43.5215 49.8519
4827 1 45.1041 45.1041 0.7913
4828 1 46.6867 46.6867 2.3739
4829 1 45.1041 45.1041 3.9565
4830 1 46.6867 46.6867 5.5391
4831 1 45.1041 45.1041 7.1217
4832 1 46.6867 46.6867 8.7043
4833 1 45.1041 45.1041 10.2869
4834 1 46.6867 46.6867 11.8695
4835 1 45.1041 45.1041 13.4521
4836 1 46.6867 46.6867 15.0347
4837 1 45.1041 45.1041 16.6173
4838 1 46.6867 46.6867 18.1999
4839 1 45.1041 45.1041 19.7825
4840 1 46.6867 46.6867 21.3651
4841 1 45.1041 45.1041 22.9477
4842 1 46.6867 46.6867 24.5303
4843 1 45.1041 45.1041 26.1129
4844 1 46.6867 46.6867 27.6955
4845 1 45.1041 45.1041 29.2781
4846 1 46.6867 46.6867 30.8607
4847 1 45.1041 45.1041 32.4433
4848 1 46.6867 46.6867 34.0259
4849 1 45.1041 45.1041 35.6085
4850 1 46.6867 46.6867 37.1911
4851 1 45.1041 45.1041 38.7737
4852 1 46.6867 46.6867 40.3563
4853 1 45.1041 45.1041 41.9389
4854 1 46.6867 46.6867 43.5215
4855 1 45.1041 45.1041 45.1041
4856 1 46.6867 46.6867 46.6867
4857 1 45.1041 45.1041 48.2693
4858 1 46.6867 46.6867 49.8519
4859 1 45.1041 48.2693 0.7913
4860 1 46.6867 49.8519 2.3739
4861 1 45.1041 48.2693 3.9565
4862 1 46.6867 49.8519 5.5391
4863 1 45.1041 48.2693 7.1217
4864 1 46.6867 49.8519 8.7043
4865 1 45.1041 48.2693 10.2869
4866 1 46.6867 49.8519 11.8695
4867 1 45.1041 48.2693 13.4521
4868 1 46.6867 49.8519 15.0347
4869 1 45.1041 48.2693 16.6173
4870 1 46.6867 49.8519 18.1999
4871 1 45.1041 48.2693 19.7825
4872 1 46.6867 49.8519 21.3651
4873 1 45.1041 48.2693 22.9477
4874 1 46.6867 49.8519 24.5303
4875 1 45.1041 48.2693 26.1129
4876 1 46.6867 49.8519 27.6955
4877 1 45.1041 48.2693 29.2781
4878 1 46.6867 49.8519 30.8607
4879 1 45.1041 48.2693 32.4433
4880 1 46.6867 49.8519 34.0259
4881 1 45.1041 48.2693 35.6085
4882 1 46.6867 49.8519 37.1911
4883 1 45.1041 48.2693 38.7737
4884 1 46.6867 49.8519 40.3563
4885 1 45.1041 48.2693 41.9389
4886 1 46.6867 49.8519 43.5215
4887 1 45.1041 48.2693 45.1041
4888 1 46.6867 49.8519 46.6867
4889 1 45.1041 48.2693 48.2693
4890 1 46.6867 49.8519 49.8519
4891 1 48.2693 0.7913 0.7913
4892 1 49.8519 2.3739 2.3739
4893 1 48.2693 0.7913 3.9565
4894 1 49.8519 2.3739 5.5391
4895 1 48.2693 0.7913 7.1217
4896 1 49.8519 2.3739 8.7043
4897 1 48.2693 0.7913 10.2869
4898 1 49.8519 2.3739 11.8695
4899 1 48.2693 0.7913 13.4521
4900 1 49.8519 2.3739 15.0347
4901 1 48.2693 0.7913 16.6173
4902 1 49.8519 2.3739 18.1999
4903 1 48.2693 0.7913 19.7825
4904 1 49.8519 2.3739 21.3651
4905 1 48.2693 0.7913 22.9477
4906 1 49.8519 2.3739 24.5303
4907 1 48.2693 0.7913 26.1129
4908 1 49.8519 2.3739 27.6955
4909 1 48.2693 0.7913 29.2781
4910 1 49.8519 2.3739 30.8607
4911 1 48.2693 0.7913 32.4433
4912 1 49.8519 2.3739 34.0259
4913 1 48.2693 0.7913 35.6085
4914 1 49.8519 2.3739 37.1911
4915 1 48.2693 0.7913 38.7737
4916 1 49.8519 2.3739 40.3563
4917 1 48.2693 0.7913 41.9389
4918 1 49.8519 2.3739 43.5215
4919 1 48.2693 0.7913 45.1041
4920 1 49.8519 2.3739 46.6867
4921 1 48.2693 0.7913 48.2693
4922 1 49.8519 2.3739 49.8519
4923 1 48.2693 3.9565 0.7913
4924 1 49.8519 5.5391 2.3739
4925 1 48.2693 3.9565 3.9565
4926 1 49.8519 5.5391 5.5391
4927 1 48.2693 3.9565 7.1217
4928 1 49.8519 5.5391 8.7043
4929 1 48.2693 3.9565 10.2869
4930 1 49.8519 5.5391 11.8695
4931 1 48.2693 3.9565 13.4521
4932 1 49.8519 5.5391 15.0347
4933 1 48.2693 3.9565 16.6173
4934 1 49.8519 5.5391 18.1999
4935 1 48.2693 3.9565 19.7825
4936 1 49.8519 5.5391 21.3651
4937 1 48.2693 3.9565 22.9477
4938 1 49.8519 5.5391 24.5303
4939 1 48.2693 3.9565 26.1129
4940 1 49.8519 5.5391 27.6955
4941 1 48.2693 3.9565 29.2781
4942 1 49.8519 5.5391 30.8607
4943 1 48.2693 3.9565 32.4433
4944 1 49.8519 5.5391 34.0259
4945 1 48.2693 3.9565 35.6085
4946 1 49.8519 5.5391 37.1911
4947 1 48.2693 3.9565 38.7737
4948 1 49.8519 5.5391 40.3563
4949 1 48.2693 3.9565 41.9389
4950 1 49.8519 5.5391 43.5215
4951 1 48.2693 3.9565 45.1041
4952 1 49.8519 5.5391 46.6867
4953 1 48.2693 3.9565 48.2693
4954 1 49.8519 5.5391 49.8519
4955 1 48.2693 7.1217 0.7913
4956 1 49.8519 8.7043 2.3739
4957 1 48.2693 7.1217 3.9565
4958 1 49.8519 8.7043 5.5391
4959 1 48.2693 7.1217 7.1217
4960 1 49.8519 8.7043 8.7043
4961 1 48.2693 7.1217 10.2869
4962 1 49.8519 8.7043 11.8695
4963 1 48.2693 7.1217 13.4521
4964 1 49.8519 8.7043 15.0347
4965 1 48.2693 7.1217 16.6173
4966 1 49.8519 8.7043 18.1999
4967 1 48.2693 7.1217 19.7825
4968 1 49.8519 8.7043 21.3651
4969 1 48.2693 7.1217 22.9477
4970 1 49.8519 8.7043 24.5303
4971 1 48.2693 7.1217 26.1129
4972 1 49.8519 8.7043 27.6955
4973 1 48.2693 7.1217 29.2781
4974 1 49.8519 8.7043 30.8607
4975 1 48.2693 7.1217 32.4433
4976 1 49.8519 8.7043 34.0259
4977 1 48.2693 7.1217 35.6085
4978 1 49.8519 8.7043 37.1911
4979 1 48.2693 7.1217 38.7737
4980 1 49.8519 8.7043 40.3563
4981 1 48.2693 7.1217 41.9389
4982 1 49.8519 8.7043 43.5215
4983 1 48.2693 7.1217 45.1041
4984 1 49.8519 8.7043 46.6867
4985 1 48.2693 7.1217 48.2693
4986 1 49.8519 8.7043 49.8519
4987 1 48.2693 10.2869 0.7913
4988 1 49.8519 11.8695 2.3739
4989 1 48.2693 10.2869 3.9565
4990 1 49.8519 11.8695 5.5391
4991 1 48.2693 10.2869 7.1217
4992 1 49.8519 11.8695 8.7043
4993 1 48.2693 10.2869 10.2869
4994 1 49.8519 11.8695 11.8695
4995 1 48.2693 10.2869 13.4521
4996 1 49.8519 11.8695 15.0347
4997 1 48.2693 10.2869 16.6173
4998 1 49.8519 11.8695 18.1999
4999 1 48.2693 10.2869 19.7825
5000 1 49.8519 11.8695 21.3651
5001 1 48.2693 10.2869 22.9477
5002 1 49.8519 11.8695 24.5303
5003 1 48.2693 10.2869 26.1129
5004 1 49.8519 11.8695 27.6955
5005 1 48.2693 10.2869 29.2781
5006 1 49.8519 11.8695 30.8607
5007 1 48.2693 10.2869 32.4433
5008 1 49.8519 11.8695 34.0259
5009 1 48.2693 10.2869 35.6085
5010 1 49.8519 11.8695 37.1911
5011 1 48.2693 10.2869 38.7737
5012 1 49.8519 11.8695 40.3563
5013 1 48.2693 10.2869 41.9389
5014 1 49.8519 11.8695 43.5215
5015 1 48.2693 10.2869 45.1041
5016 1 49.8519 11.8695 46.6867
5017 1 48.2693 10.2869 48.2693
5018 1 49.8519 11.8695 49.8519
5019 1 48.2693 13.4521 0.7913
5020 1 49.8519 15.0347 2.3739
5021 1 48.2693 13.4521 3.9565
5022 1 49.8519 15.0347 5.5391
5023 1 48.2693 13.4521 7.1217
5024 1 49.8519 15.0347 8.7043
5025 1 48.2693 13.4521 10.2869
5026 1 49.8519 15.0347 11.8695
5027 1 48.2693 13.4521 13.4521
5028 1 49.8519 15.0347 15.0347
5029 1 48.2693 13.4521 16.6173
5030 1 49.8519 15.0347 18.1999
5031 1 48.2693 13.4521 19.7825
5032 1 49.8519 15.0347 21.3651
5033 1 48.2693 13.4521 22.9477
5034 1 49.8519 15.0347 24.5303
5035 1 48.2693 13.4521 26.1129
5036 1 49.8519 15.0347 27.6955
5037 1 48.2693 13.4521 29.2781
5038 1 49.8519 15.0347 30.8607
5039 1 48.2693 13.4521 32.4433
5040 1 49.8519 15.0347 34.0259
5041 1 48.2693 13.4521 35.6085
5042 1 49.8519 15.0347 37.1911
5043 1 48.2693 13.4521 38.7737
5044 1 49.8519 15.0347 40.3563
5045 1 48.2693 13.4521 41.9389
5046 1 49.8519 15.0347 43.5215
5047 1 48.2693 13.4521 45.1041
5048 1 49.8519 15.0347 46.6867
5049 1 48.2693 13.4521 48.2693
5050 1 49.8519 15.0347 49.8519
5051 1 48.2693 16.6173 0.7913
5052 1 49.8519 18.1999 2.3739
5053 1 48.2693 16.6173 3.9565
5054 1 49.8519 18.1999 5.5391
5055 1 48.2693 16.6173 7.1217
5056 1 49.8519 18.1999 8.7043
5057 1 48.2693 16.6173 10.2869
5058 1 49.8519 18.1999 11.8695
5059 1 48.2693 16.6173 13.4521
5060 1 49.8519 18.1999 15.0347
5061 1 48.2693 16.6173 16.6173
5062 1 49.8519 18.1999 18.1999
5063 1 48.2693 16.6173 19.7825
5064 1 49.8519 18.1999 21.3651
5065 1 48.2693 16.6173 22.9477
5066 1 49.8519 18.1999 24.5303
5067 1 48.2693 16.6173 26.1129
5068 1 49.8519 18.1999 27.6955
5069 1 48.2693 16.6173 29.2781
5070 1 49.8519 18.1999 30.8607
5071 1 48.2693 16.6173 32.4433
5072 1 49.8519 18.1999 34.0259
5073 1 48.2693 16.6173 35.6085
5074 1 49.8519 18.1999 37.1911
5075 1 48.2693 16.6173 38.7737
5076 1 49.8519 18.1999 40.3563
5077 1 48.2693 16.6173 41.9389
5078 1 49.8519 18.1999 43.5215
5079 1 48.2693 16.6173 45.1041
5080 1 49.8519 18.1999 46.6867
5081 1 48.2693 16.6173 48.2693
5082 1 49.8519 18.1999 49.8519
5083 1 48.2693 19.7825 0.7913
5084 1 49.8519 21.3651 2.3739
5085 1 48.2693 19.7825 3.9565
5086 1 49.8519 21.3651 5.5391
5087 1 48.2693 19.7825 7.1217
5088 1 49.8519 21.3651 8.7043
5089 1 48.2693 19.7825 10.2869
5090 1 49.8519 21.3651 11.8695
5091 1 48.2693 19.7825 13.4521
5092 1 49.8519 21.3651 15.0347
5093 1 48.2693 19.7825 16.6173
5094 1 49.8519 21.3651 18.1999
5095 1 48.2693 19.7825 19.7825
5096 1 49.8519 21.3651 21.3651
5097 1 48.2693 19.7825 22.9477
5098 1 49.8519 21.3651 24.5303
5099 1 48.2693 19.7825 26.1129
5100 1 49.8519 21.3651 27.6955
5101 1 48.2693 19.7825 29.2781
5102 1 49.8519 21.3651 30.8607
5103 1 48.2693 19.7825 32.4433
5104 1 49.8519 21.3651 34.0259
5105 1 48.2693 19.7825 35.6085
5106 1 49.8519 21.3651 37.1911
5107 1 48.2693 19.7825 38.7737
5108 1 49.8519 21.3651 40.3563
5109 1 48.2693 19.7825 41.9389
5110 1 49.8519 21.3651 43.5215
5111 1 48.2693 19.7825 45.1041
5112 1 49.8519 21.3651 46.6867
5113 1 48.2693 19.7825 48.2693
5114 1 49.8519 21.3651 49.8519
5115 1 48.2693 22.9477 0.7913
5116 1 49.8519 24.5303 2.3739
5117 1 48.2693 22.9477 3.9565
5118 1 49.8519 24.5303 5.5391
5119 1 48.2693 22.9477 7.1217
5120 1 49.8519 24.5303 8.7043
5121 1 48.2693 22.9477 10.2869
5122 1 49.8519 24.5303 11.8695
5123 1 48.2693 22.9477 13.4521
5124 1 49.8519 24.5303 15.0347
5125 1 48.2693 22.9477 16.6173
5126 1 49.8519 24.5303 18.1999
5127 1 48.2693 22.9477 19.7825
5128 1 49.8519 24.5303 21.3651
5129 1 48.2693 22.9477 22.9477
5130 1 49.8519 24.5303 24.5303
5131 1 48.2693 22.9477 26.1129
5132 1 49.8519 24.5303 27.6955
5133 1 48.2693 22.9477 29.2781
5134 1 49.8519 24.5303 30.8607
5135 1 48.2693 22.9477 32.4433
5136 1 49.8519 24.5303 34.0259
5137 1 48.2693 22.9477 35.6085
5138 1 49.8519 24.5303 37.1911
5139 1 48.2693 22.9477 38.7737
5140 1 49.8519 24.5303 40.3563
5141 1 48.2693 22.9477 41.9389
5142 1 49.8519 24.5303 43.5215
5143 1 48.2693 22.9477 45.1041
5144 1 49.8519 24.5303 46.6867
5145 1 48.2693 22.9477 48.2693
5146 1 49.8519 24.5303 49.8519
5147 1 48.2693 26.1129 0.7913
5148 1 49.8519 27.6955 2.3739
5149 1 48.2693 26.1129 3.9565
5150 1 49.8519 27.6955 5.5391
5151 1 48.2693 26.1129 7.1217
5152 1 49.8519 27.6955 8.7043
5153 1 48.2693 26.1129 10.2869
5154 1 49.8519 27.6955 11.8695
5155 1 48.2693 26.1129 13.4521
5156 1 49.8519 27.6955 15.0347
5157 1 48.2693 26.1129 16.6173
5158 1 49.8519 27.6955 18.1999
5159 1 48.2693 26.1129 19.7825
5160 1 49.8519 27.6955 21.3651
5161 1 48.2693 26.1129 22.9477
5162 1 49.8519 27.6955 24.5303
5163 1 48.2693 26.1129 26.1129
5164 1 49.8519 27.6955 27.6955
5165 1 48.2693 26.1129 29.2781
5166 1 49.8519 27.6955 30.8607
5167 1 48.2693 26.1129 32.4433
5168 1 49.8519 27.6955 34.0259
5169 1 48.2693 26.1129 35.6085
5170 1 49.8519 27.6955 37.1911
5171 1 48.2693 26.1129 38.7737
5172 1 49.8519 27.6955 40.3563
5173 1 48.2693 26.1129 41.9389
5174 1 49.8519 27.6955 43.5215
5175 1 48.2693 26.1129 45.1041
5176 1 49.8519 27.6955 46.6867
5177 1 48.2693 26.1129 48.2693
5178 1 49.8519 27.6955 49.8519
5179 1 48.2693 29.2781 0.7913
5180 1 49.8519 30.8607 2.3739
5181 1 48.2693 29.2781 3.9565
5182 1 49.8519 30.8607 5.5391
5183 1 48.2693 29.2781 7.1217
5184 1 49.8519 30.8607 8.7043
5185 1 48.2693 29.2781 10.2869
5186 1 49.8519 30.8607 11.8695
5187 1 48.2693 29.2781 13.4521
5188 1 49.8519 30.8607 15.0347
5189 1 48.2693 29.2781 16.6173
5190 1 49.8519 30.8607 18.1999
5191 1 48.2693 29.2781 19.7825
5192 1 49.8519 30.8607 21.3651
5193 1 48.2693 29.2781 22.9477
5194 1 49.8519 30.8607 24.5303
5195 1 48.2693 29.2781 26.1129
5196 1 49.8519 30.8607 27.6955
5197 1 48.2693 29.2781 29.2781
5198 1 49.8519 30.8607 30.8607
5199 1 48.2693 29.2781 32.4433
5200 1 49.8519 30.8607 34.0259
5201 1 48.2693 29.2781 35.6085
5202 1 49.8519 30.8607 37.1911
5203 1 48.2693 29.2781 38.7737
5204 1 49.8519 30.8607 40.3563
5205 1 48.2693 29.2781 41.9389
5206 1 49.8519 30.8607 43.5215
5207 1 48.2693 29.2781 45.1041
5208 1 49.8519 30.8607 46.6867
5209 1 48.2693 29.2781 48.2693
5210 1 49.8519 30.8607 49.8519
5211 1 48.2693 32.4433 0.7913
5212 1 49.8519 34.0259 2.3739
5213 1 48.2693 32.4433 3.9565
5214 1 49.8519 34.0259 5.5391
5215 1 48.2693 32.4433 7.1217
5216 1 49.8519 34.0259 8.7043
5217 1 48.2693 32.4433 10.2869
5218 1 49.8519 34.0259 11.8695
5219 1 48.2693 32.4433 13.4521
5220 1 49.8519 34.0259 15.0347
5221 1 48.2693 32.4433 16.6173
5222 1 49.8519 34.0259 18.1999
5223 1 48.2693 32.4433 19.7825
5224 1 49.8519 34.0259 21.3651
5225 1 48.2693 32.4433 22.9477
5226 1 49.8519 34.0259 24.5303
5227 1 48.2693 32.4433 26.1129
5228 1 49.8519 34.0259 27.6955
5229 1 48.2693 32.4433 29.2781
5230 1 49.8519 34.0259 30.8607
5231 1 48.2693 32.4433 32.4433
5232 1 49.8519 34.0259 34.0259
5233 1 48.2693 32.4433 35.6085
5234 1 49.8519 34.0259 37.1911
5235 1 48.2693 32.4433 38.7737
5236 1 49.8519 34.0259 40.3563
5237 1 48.2693 32.4433 41.9389
5238 1 49.8519 34.0259 43.5215
5239 1 48.2693 32.4433 45.1041
5240 1 49.8519 34.0259 46.6867
5241 1 48.2693 32.4433 48.2693
5242 1 49.8519 34.0259 49.8519
5243 1 48.2693 35.6085 0.7913
5244 1 49.8519 37.1911 2.3739
5245 1 48.2693 35.6085 3.9565
5246 1 49.8519 37.1911 5.5391
5247 1 48.2693 35.6085 7.1217
5248 1 49.8519 37.1911 8.7043
5249 1 48.2693 35.6085 10.2869
5250 1 49.8519 37.1911 11.8695
5251 1 48.2693 35.6085 13.4521
5252 1 49.8519 37.1911 15.0347
5253 1 48.2693 35.6085 16.6173
5254 1 49.8519 37.1911 18.1999
5255 1 48.2693 35.6085 19.7825
5256 1 49.8519 37.1911 21.3651
5257 1 48.2693 35.6085 22.9477
5258 1 49.8519 37.1911 24.5303
5259 1 48.2693 35.6085 26.1129
5260 1 49.8519 37.1911 27.6955
5261 1 48.2693 35.6085 29.2781
5262 1 49.8519 37.1911 30.8607
5263 1 48.2693 35.6085 32.4433
5264 1 49.8519 37.1911 34.0259
5265 1 48.2693 35.6085 35.6085
5266 1 49.8519 37.1911 37.1911
5267 1 48.2693 35.6085 38.7737
5268 1 49.8519 37.1911 40.3563
5269 1 48.2693 35.6085 41.9389
5270 1 49.8519 37.1911 43.5215
5271 1 48.2693 35.6085 45.1041
5272 1 49.8519 37.1911 46.6867
5273 1 48.2693 35.6085 48.2693
5274 1 49.8519 37.1911 49.8519
5275 1 48.2693 38.7737 0.7913
5276 1 49.8519 40.3563 2.3739
5277 1 48.2693 38.7737 3.9565
5278 1 49.8519 40.3563 5.5391
5279 1 48.2693 38.7737 7.1217
5280 1 49.8519 40.3563 8.7043
5281 1 48.2693 38.7737 10.2869
5282 1 49.8519 40.3563 11.8695
5283 1 48.2693 38.7737 13.4521
5284 1 49.8519 40.3563 15.0347
5285 1 48.2693 38.7737 16.6173
5286 1 49.8519 40.3563 18.1999
5287 1 48.2693 38.7737 19.7825
5288 1 49.8519 40.3563 21.3651
5289 1 48.2693 38.7737 22.9477
5290 1 49.8519 40.3563 24.5303
5291 1 48.2693 38.7737 26.1129
5292 1 49.8519 40.3563 27.6955
5293 1 48.2693 38.7737 29.2781
5294 1 49.8519 40.3563 30.8607
5295 1 48.2693 38.7737 32.4433
5296 1 49.8519 40.3563 34.0259
5297 1 48.2693 38.7737 35.6085
5298 1 49.8519 40.3563 37.1911
5299 1 48.2693 38.7737 38.7737
5300 1 49.8519 40.3563 40.3563
5301 1 48.2693 38.7737 41.9389
5302 1 49.8519 40.3563 43.5215
5303 1 48.2693 38.7737 45.1041
5304 1 49.8519 40.3563 46.6867
5305 1 48.2693 38.7737 48.2693
5306 1 49.8519 40.3563 49.8519
5307 1 48.2693 41.9389 0.7913
5308 1 49.8519 43.5215 2.3739
5309 1 48.2693 41.9389 3.9565
5310 1 49.8519 43.5215 5.5391
5311 1 48.2693 41.9389 7.1217
5312 1 49.8519 43.5215 8.7043
5313 1 48.2693 41.9389 10.2869
5314 1 49.8519 43.5215 11.8695
5315 1 48.2693 41.9389 13.4521
5316 1 49.8519 43.5215 15.0347
5317 1 48.2693 41.9389 16.6173
5318 1 49.8519 43.5215 18.1999
5319 1 48.2693 41.9389 19.7825
5320 1 49.8519 43.5215 21.3651
5321 1 48.2693 41.9389 22.9477
5322 1 49.8519 43.5215 24.5303
5323 1 48.2693 41.9389 26.1129
5324 1 49.8519 43.5215 27.6955
5325 1 48.2693 41.9389 29.2781
5326 1 49.8519 43.5215 30.8607
5327 1 48.2693 41.9389 32.4433
5328 1 49.8519 43.5215 34.0259
5329 1 48.2693 41.9389 35.6085
5330 1 49.8519 43.5215 37.1911
5331 1 48.2693 41.9389 38.7737
5332 1 49.8519 43.5215 40.3563
5333 1 48.2693 41.9389 41.9389
5334 1 49.8519 43.5215 43.5215
5335 1 48.2693 41.9389 45.1041
5336 1 49.8519 43.5215 46.6867
5337 1 48.2693 41.9389 48.2693
5338 1 49.8519 43.5215 49.8519
5339 1 48.2693 45.1041 0.7913
5340 1 49.8519 46.6867 2.3739
5341 1 48.2693 45.1041 3.9565
5342 1 49.8519 46.6867 5.5391
5343 1 48.2693 45.1041 7.1217
5344 1 49.8519 46.6867 8.7043
5345 1 48.2693 45.1041 10.2869
5346 1 49.8519 46.6867 11.8695
5347 1 48.2693 45.1041 13.4521
5348 1 49.8519 46.6867 15.0347
5349 1 48.2693 45.1041 16.6173
5350 1 49.8519 46.6867 18.1999
5351 1 48.2693 45.1041 19.7825
5352 1 49.8519 46.6867 21.3651
5353 1 48.2693 45.1041 22.9477
5354 1 49.8519 46.6867 24.5303
5355 1 48.2693 45.1041 26.1129
5356 1 49.8519 46.6867 27.6955
5357 1 48.2693 45.1041 29.2781
5358 1 49.8519 46.6867 30.8607
5359 1 48.2693 45.1041 32.4433
5360 1 49.8519 46.6867 34.0259
5361 1 48.2693 45.1041 35.6085
5362 1 49.8519 46.6867 37.1911
5363 1 48.2693 45.1041 38.7737
5364 1 49.8519 46.6867 40.3563
5365 1 48.2693 45.1041 41.9389
5366 1 49.8519 46.6867 43.5215
5367 1 48.2693 45.1041 45.1041
5368 1 49.8519 46.6867 46.6867
5369 1 48.2693 45.1041 48.2693
5370 1 49.8519 46.6867 49.8519
5371 1 48.2693 48.2693 0.7913
5372 1 49.8519 49.8519 2.3739
5373 1 48.2693 48.2693 3.9565
5374 1 49.8519 49.8519 5.5391
5375 1 48.2693 48.2693 7.1217
5376 1 49.8519 49.8519 8.7043
5377 1 48.2693 48.2693 10.2869
5378 1 49.8519 49.8519 11.8695
5379 1 48.2693 48.2693 13.4521
5380 1 49.8519 49.8519 15.0347
5381 1 48.2693 48.2693 16.6173
5382 1 49.8519 49.8519 18.1999
5383 1 48.2693 48.2693 19.7825
5384 1 49.8519 49.8519 21.3651
5385 1 48.2693 48.2693 22.9477
5386 1 49.8519 49.8519 24.5303
5387 1 48.2693 48.2693 26.1129
5388 1 49.8519 49.8519 27.6955
5389 1 48.2693 48.2693 29.2781
5390 1 49.8519 49.8519 30.8607
5391 1 48.2693 48.2693 32.4433
5392 1 49.8519 49.8519 34.0259
5393 1 48.2693 48.2693 35.6085
5394 1 49.8519 49.8519 37.1911
5395 1 48.2693 48.2693 38.7737
5396 1 49.8519 49.8519 40.3563
5397 1 48.2693 48.2693 41.9389
5398 1 49.8519 49.8519 43.5215
5399 1 48.2693 48.2693 45.1041
5400 1 49.8519 49.8519 46.6867
5401 1 48.2693 48.2693 48.2693
5402 1 49.8519 49.8519 49.8519
5403 1 13.4521 0.7913 0.7913
5404 1 15.0347 2.3739 2.3739
5405 1 13.4521 0.7913 3.9565
5406 1 15.0347 2.3739 5.5391
5407 1 13.4521 0.7913 7.1217
5408 1 15.0347 2.3739 8.7043
5409 1 13.4521 3.9565 0.7913
5410 1 15.0347 5.5391 2.3739
5411 1 13.4521 3.9565 3.9565
5412 1 15.0347 5.5391 5.5391
5413 1 13.4521 3.9565 7.1217
5414 1 15.0347 5.5391 8.7043
5415 1 13.4521 7.1217 0.7913
5416 1 15.0347 8.7043 2.3739
5417 1 13.4521 7.1217 3.9565
5418 1 15.0347 8.7043 5.5391
5419 1 13.4521 7.1217 7.1217
5420 1 15.0347 8.7043 8.7043
5421 1 13.4521 10.2869 0.7913
5422 1 15.0347 11.8695 2.3739
5423 1 13.4521 10.2869 3.9565
5424 1 15.0347 11.8695 5.5391
5425 1 13.4521 10.2869 7.1217
5426 1 15.0347 11.8695 8.7043
5427 1 13.4521 13.4521 0.7913
5428 1 15.0347 15.0347 2.3739
5429 1 13.4521 13.4521 3.9565
5430 1 15.0347 15.0347 5.5391
5431 1 13.4521 13.4521 7.1217
5432 1 15.0347 15.0347 8.7043
5433 1 13.4521 16.6173 0.7913
5434 1 15.0347 18.1999 2.3739
5435 1 13.4521 16.6173 3.9565
5436 1 15.0347 18.1999 5.5391
5437 1 13.4521 16.6173 7.1217
5438 1 15.0347 18.1999 8.7043
5439 1 13.4521 19.7825 0.7913
5440 1 15.0347 21.3651 2.3739
5441 1 13.4521 19.7825 3.9565
5442 1 15.0347 21.3651 5.5391
5443 1 13.4521 19.7825 7.1217
5444 1 15.0347 21.3651 8.7043
5445 1 13.4521 22.9477 0.7913
5446 1 15.0347 24.5303 2.3739
5447 1 13.4521 22.9477 3.9565
5448 1 15.0347 24.5303 5.5391
5449 1 13.4521 22.9477 7.1217
5450 1 15.0347 24.5303 8.7043
5451 1 13.4521 26.1129 0.7913
5452 1 15.0347 27.6955 2.3739
5453 1 13.4521 26.1129 3.9565
5454 1 15.0347 27.6955 5.5391
5455 1 13.4521 26.1129 7.1217
5456 1 15.0347 27.6955 8.7043
5457 1 13.4521 29.2781 0.7913
5458 1 15.0347 30.8607 2.3739
5459 1 13.4521 29.2781 3.9565
5460 1 15.0347 30.8607 5.5391
5461 1 13.4521 29.2781 7.1217
5462 1 15.0347 30.8607 8.7043
5463 1 13.4521 32.4433 0.7913
5464 1 15.0347 34.0259 2.3739
5465 1 13.4521 32.4433 3.9565
5466 1 15.0347 34.0259 5.5391
5467 1 13.4521 32.4433 7.1217
5468 1 15.0347 34.0259 8.7043
5469 1 13.4521 35.6085 0.7913
5470 1 15.0347 37.1911 2.3739
5471 1 13.4521 35.6085 3.9565
5472 1 15.0347 37.1911 5.5391
5473 1 13.4521 35.6085 7.1217
5474 1 15.0347 37.1911 8.7043
5475 1 13.4521 38.7737 0.7913
5476 1 15.0347 40.3563 2.3739
5477 1 13.4521 38.7737 3.9565
5478 1 15.0347 40.3563 5.5391
5479 1 13.4521 38.7737 7.1217
5480 1 15.0347 40.3563 8.7043
5481 1 13.4521 41.9389 0.7913
5482 1 15.0347 43.5215 2.3739
5483 1 13.4521 41.9389 3.9565
5484 1 15.0347 43.5215 5.5391
5485 1 13.4521 41.9389 7.1217
5486 1 15.0347 43.5215 8.7043
5487 1 13.4521 45.1041 0.7913
5488 1 15.0347 46.6867 2.3739
5489 1 13.4521 45.1041 3.9565
5490 1 15.0347 46.6867 5.5391
5491 1 13.4521 45.1041 7.1217
5492 1 15.0347 46.6867 8.7043
5493 1 13.4521 48.2693 0.7913
5494 1 15.0347 49.8519 2.3739
5495 1 13.4521 48.2693 3.9565
5496 1 15.0347 49.8519 5.5391
5497 1 13.4521 48.2693 7.1217
5498 1 15.0347 49.8519 8.7043
5499 1 16.6173 0.7913 0.7913
5500 1 18.1999 2.3739 2.3739
5501 1 16.6173 0.7913 3.9565
5502 1 18.1999 2.3739 5.5391
5503 1 16.6173 0.7913 7.1217
5504 1 18.1999 2.3739 8.7043
5505 1 16.6173 3.9565 0.7913
5506 1 18.1999 5.5391 2.3739
5507 1 16.6173 3.9565 3.9565
5508 1 18.1999 5.5391 5.5391
5509 1 16.6173 3.9565 7.1217
5510 1 18.1999 5.5391 8.7043
5511 1 16.6173 7.1217 0.7913
5512 1 18.1999 8.7043 2.3739
5513 1 16.6173 7.1217 3.9565
5514 1 18.1999 8.7043 5.5391
5515 1 16.6173 7.1217 7.1217
5516 1 18.1999 8.7043 8.7043
5517 1 16.6173 10.2869 0.7913
5518 1 18.1999 11.8695 2.3739
5519 1 16.6173 10.2869 3.9565
5520 1 18.1999 11.8695 5.5391
5521 1 16.6173 10.2869 7.1217
5522 1 18.1999 11.8695 8.7043
5523 1 16.6173 13.4521 0.7913
5524 1 18.1999 15.0347 2.3739
5525 1 16.6173 13.4521 3.9565
5526 1 18.1999 15.0347 5.5391
5527 1 16.6173 13.4521 7.1217
5528 1 18.1999 15.0347 8.7043
5529 1 16.6173 16.6173 0.7913
5530 1 18.1999 18.1999 2.3739
5531 1 16.6173 16.6173 3.9565
5532 1 18.1999 18.1999 5.5391
5533 1 16.6173 16.6173 7.1217
5534 1 18.1999 18.1999 8.7043
5535 1 16.6173 19.7825 0.7913
5536 1 18.1999 21.3651 2.3739
5537 1 16.6173 19.7825 3.9565
5538 1 18.1999 21.3651 5.5391
5539 1 16.6173 19.7825 7.1217
5540 1 18.1999 21.3651 8.7043
5541 1 16.6173 22.9477 0.7913
5542 1 18.1999 24.5303 2.3739
5543 1 16.6173 22.9477 3.9565
5544 1 18.1999 24.5303 5.5391
5545 1 16.6173 22.9477 7.1217
5546 1 18.1999 24.5303 8.7043
5547 1 16.6173 26.1129 0.7913
5548 1 18.1999 27.6955 2.3739
5549 1 16.6173 26.1129 3.9565
5550 1 18.1999 27.6955 5.5391
5551 1 16.6173 26.1129 7.1217
5552 1 18.1999 27.6955 8.7043
5553 1 16.6173 29.2781 0.7913
5554 1 18.1999 30.8607 2.3739
5555 1 16.6173 29.2781 3.9565
5556 1 18.1999 30.8607 5.5391
5557 1 16.6173 29.2781 7.1217
5558 1 18.1999 30.8607 8.7043
5559 1 16.6173 32.4433 0.7913
5560 1 18.1999 34.0259 2.3739
5561 1 16.6173 32.4433 3.9565
5562 1 18.1999 34.0259 5.5391
5563 1 16.6173 32.4433 7.1217
5564 1 18.1999 34.0259 8.7043
5565 1 16.6173 35.6085 0.7913
5566 1 18.1999 37.1911 2.3739
5567 1 16.6173 35.6085 3.9565
5568 1 18.1999 37.1911 5.5391
5569 1 16.6173 35.6085 7.1217
5570 1 18.1999 37.1911 8.7043
5571 1 16.6173 38.7737 0.7913
5572 1 18.1999 40.3563 2.3739
5573 1 16.6173 38.7737 3.9565
5574 1 18.1999 40.3563 5.5391
5575 1 16.6173 38.7737 7.1217
5576 1 18.1999 40.3563 8.7043
5577 1 16.6173 41.9389 0.7913
5578 1 18.1999 43.5215 2.3739
5579 1 16.6173 41.9389 3.9565
5580 1 18.1999 43.5215 5.5391
5581 1 16.6173 41.9389 7.1217
5582 1 18.1999 43.5215 8.7043
5583 1 16.6173 45.1041 0.7913
5584 1 18.1999 46.6867 2.3739
5585 1 16.6173 45.1041 3.9565
5586 1 18.1999 46.6867 5.5391
5587 1 16.6173 45.1041 7.1217
5588 1 18.1999 46.6867 8.7043
5589 1 16.6173 48.2693 0.7913
5590 1 18.1999 49.8519 2.3739
5591 1 16.6173 48.2693 3.9565
5592 1 18.1999 49.8519 5.5391
5593 1 16.6173 48.2693 7.1217
5594 1 18.1999 49.8519 8.7043
5595 1 19.7825 0.7913 0.7913
5596 1 21.3651 2.3739 2.3739
5597 1 19.7825 0.7913 3.9565
5598 1 21.3651 2.3739 5.5391
5599 1 19.7825 0.7913 7.1217
5600 1 21.3651 2.3739 8.7043
5601 1 19.7825 3.9565 0.7913
5602 1 21.3651 5.5391 2.3739
5603 1 19.7825 3.9565 3.9565
5604 1 21.3651 5.5391 5.5391
5605 1 19.7825 3.9565 7.1217
5606 1 21.3651 5.5391 8.7043
5607 1 19.7825 7.1217 0.7913
5608 1 21.3651 8.7043 2.3739
5609 1 19.7825 7.1217 3.9565
5610 1 21.3651 8.7043 5.5391
5611 1 19.7825 7.1217 7.1217
5612 1 21.3651 8.7043 8.7043
5613 1 19.7825 10.2869 0.7913
5614 1 21.3651 11.8695 2.3739
5615 1 19.7825 10.2869 3.9565
5616 1 21.3651 11.8695 5.5391
5617 1 19.7825 10.2869 7.1217
5618 1 21.3651 11.8695 8.7043
5619 1 19.7825 13.4521 0.7913
5620 1 21.3651 15.0347 2.3739
5621 1 19.7825 13.4521 3.9565
5622 1 21.3651 15.0347 5.5391
5623 1 19.7825 13.4521 7.1217
5624 1 21.3651 15.0347 8.7043
5625 1 19.7825 16.6173 0.7913
5626 1 21.3651 18.1999 2.3739
5627 1 19.7825 16.6173 3.9565
5628 1 21.3651 18.1999 5.5391
5629 1 19.7825 16.6173 7.1217
5630 1 21.3651 18.1999 8.7043
5631 1 19.7825 19.7825 0.7913
5632 1 21.3651 21.3651 2.3739
5633 1 19.7825 19.7825 3.9565
5634 1 21.3651 21.3651 5.5391
5635 1 19.7825 19.7825 7.1217
5636 1 21.3651 21.3651 8.7043
5637 1 19.7825 22.9477 0.7913
5638 1 21.3651 24.5303 2.3739
5639 1 19.7825 22.9477 3.9565
5640 1 21.3651 24.5303 5.5391
5641 1 19.7825 22.9477 7.1217
5642 1 21.3651 24.5303 8.7043
5643 1 19.7825 26.1129 0.7913
5644 1 21.3651 27.6955 2.3739
5645 1 19.7825 26.1129 3.9565
5646 1 21.3651 27.6955 5.5391
5647 1 19.7825 26.1129 7.1217
5648 1 21.3651 27.6955 8.7043
5649 1 19.7825 29.2781 0.7913
5650 1 21.3651 30.8607 2.3739
5651 1 19.7825 29.2781 3.9565
5652 1 21.3651 30.8607 5.5391
5653 1 19.7825 29.2781 7.1217
5654 1 21.3651 30.8607 8.7043
5655 1 19.7825 32.4433 0.7913
5656 1 21.3651 34.0259 2.3739
5657 1 19.7825 32.4433 3.9565
5658 1 21.3651 34.0259 5.5391
5659 1 19.7825 32.4433 7.1217
5660 1 21.3651 34.0259 8.7043
5661 1 19.7825 35.6085 0.7913
5662 1 21.3651 37.1911 2.3739
5663 1 19.7825 35.6085 3.9565
5664 1 21.3651 37.1911 5.5391
5665 1 19.7825 35.6085 7.1217
5666 1 21.3651 37.1911 8.7043
5667 1 19.7825 38.7737 0.7913
5668 1 21.3651 40.3563 2.3739
5669 1 19.7825 38.7737 3.9565
5670 1 21.3651 40.3563 5.5391
5671 1 19.7825 38.7737 7.1217
5672 1 21.3651 40.3563 8.7043
5673 1 19.7825 41.9389 0.7913
5674 1 21.3651 43.5215 2.3739
5675 1 19.7825 41.9389 3.9565
5676 1 21.3651 43.5215 5.5391
5677 1 19.7825 41.9389 7.1217
5678 1 21.3651 43.5215 8.7043
5679 1 19.7825 45.1041 0.7913
5680 1 21.3651 46.6867 2.3739
5681 1 19.7825 45.1041 3.9565
5682 1 21.3651 46.6867 5.5391
5683 1 19.7825 45.1041 7.1217
5684 1 21.3651 46.6867 8.7043
5685 1 19.7825 48.2693 0.7913
5686 1 21.3651 49.8519 2.3739
5687 1 19.7825 48.2693 3.9565
5688 1 21.3651 49.8519 5.5391
5689 1 19.7825 48.2693 7.1217
5690 1 21.3651 49.8519 8.7043
5691 1 22.9477 0.7913 0.7913
5692 1 24.5303 2.3739 2.3739
5693 1 22.9477 0.7913 3.9565
5694 1 24.5303 2.3739 5.5391
5695 1 22.9477 0.7913 7.1217
5696 1 24.5303 2.3739 8.7043
5697 1 22.9477 3.9565 0.7913
5698 1 24.5303 5.5391 2.3739
5699 1 22.9477 3.9565 3.9565
5700 1 24.5303 5.5391 5.5391
5701 1 22.9477 3.9565 7.1217
5702 1 24.5303 5.5391 8.7043
5703 1 22.9477 7.1217 0.7913
5704 1 24.5303 8.7043 2.3739
5705 1 22.9477 7.1217 3.9565
5706 1 24.5303 8.7043 5.5391
5707 1 22.9477 7.1217 7.1217
5708 1 24.5303 8.7043 8.7043
5709 1 22.9477 10.2869 0.7913
5710 1 24.5303 11.8695 2.3739
5711 1 22.9477 10.2869 3.9565
5712 1 24.5303 11.8695 5.5391
5713 1 22.9477 10.2869 7.1217
5714 1 24.5303 11.8695 8.7043
5715 1 22.9477 13.4521 0.7913
5716 1 24.5303 15.0347 2.3739
5717 1 22.9477 13.4521 3.9565
5718 1 24.5303 15.0347 5.5391
5719 1 22.9477 13.4521 7.1217
5720 1 24.5303 15.0347 8.7043
5721 1 22.9477 16.6173 0.7913
5722 1 24.5303 18.1999 2.3739
5723 1 22.9477 16.6173 3.9565
5724 1 24.5303 18.1999 5.5391
5725 1 22.9477 16.6173 7.1217
5726 1 24.5303 18.1999 8.7043
5727 1 22.9477 19.7825 0.7913
5728 1 24.5303 21.3651 2.3739
5729 1 22.9477 19.7825 3.9565
5730 1 24.5303 21.3651 5.5391
5731 1 22.9477 19.7825 7.1217
5732 1 24.5303 21.3651 8.7043
5733 1 22.9477 22.9477 0.7913
5734 1 24.5303 24.5303 2.3739
5735 1 22.9477 22.9477 3.9565
5736 1 24.5303 24.5303 5.5391
5737 1 22.9477 22.9477 7.1217
5738 1 24.5303 24.5303 8.7043
5739 1 22.9477 26.1129 0.7913
5740 1 24.5303 27.6955 2.3739
5741 1 22.9477 26.1129 3.9565
5742 1 24.5303 27.6955 5.5391
5743 1 22.9477 26.1129 7.1217
5744 1 24.5303 27.6955 8.7043
5745 1 22.9477 29.2781 0.7913
5746 1 24.5303 30.8607 2.3739
5747 1 22.9477 29.2781 3.9565
5748 1 24.5303 30.8607 5.5391
5749 1 22.9477 29.2781 7.1217
5750 1 24.5303 30.8607 8.7043
5751 1 22.9477 32.4433 0.7913
5752 1 24.5303 34.0259 2.3739
5753 1 22.9477 32.4433 3.9565
5754 1 24.5303 34.0259 5.5391
5755 1 22.9477 32.4433 7.1217
5756 1 24.5303 34.0259 8.7043
5757 1 22.9477 35.6085 0.7913
5758 1 24.5303 37.1911 2.3739
5759 1 22.9477 35.6085 3.9565
5760 1 24.5303 37.1911 5.5391
5761 1 22.9477 35.6085 7.1217
5762 1 24.5303 37.1911 8.7043
5763 1 22.9477 38.7737 0.7913
5764 1 24.5303 40.3563 2.3739
5765 1 22.9477 38.7737 3.9565
5766 1 24.5303 40.3563 5.5391
5767 1 22.9477 38.7737 7.1217
5768 1 24.5303 40.3563 8.7043
5769 1 22.9477 41.9389 0.7913
5770 1 24.5303 43.5215 2.3739
5771 1 22.9477 41.9389 3.9565
5772 1 24.5303 43.5215 5.5391
5773 1 22.9477 41.9389 7.1217
5774 1 24.5303 43.5215 8.7043
5775 1 22.9477 45.1041 0.7913
5776 1 24.5303 46.6867 2.3739
5777 1 22.9477 45.1041 3.9565
5778 1 24.5303 46.6867 5.5391
5779 1 22.9477 45.1041 7.1217
5780 1 24.5303 46.6867 8.7043
5781 1 22.9477 48.2693 0.7913
5782 1 24.5303 49.8519 2.3739
5783 1 22.9477 48.2693 3.9565
5784 1 24.5303 49.8519 5.5391
5785 1 22.9477 48.2693 7.1217
5786 1 24.5303 49.8519 8.7043
5787 1 26.1129 0.7913 0.7913
5788 1 27.6955 2.3739 2.3739
5789 1 26.1129 0.7913 3.9565
5790 1 27.6955 2.3739 5.5391
5791 1 26.1129 0.7913 7.1217
5792 1 27.6955 2.3739 8.7043
5793 1 26.1129 3.9565 0.7913
5794 1 27.6955 5.5391 2.3739
5795 1 26.1129 3.9565 3.9565
5796 1 27.6955 5.5391 5.5391
5797 1 26.1129 3.9565 7.1217
5798 1 27.6955 5.5391 8.7043
5799 1 26.1129 7.1217 0.7913
5800 1 27.6955 8.7043 2.3739
5801 1 26.1129 7.1217 3.9565
5802 1 27.6955 8.7043 5.5391
5803 1 26.1129 7.1217 7.1217
5804 1 27.6955 8.7043 8.7043
5805 1 26.1129 10.2869 0.7913
5806 1 27.6955 11.8695 2.3739
5807 1 26.1129 10.2869 3.9565
5808 1 27.6955 11.8695 5.5391
5809 1 26.1129 10.2869 7.1217
5810 1 27.6955 11.8695 8.7043
5811 1 26.1129 13.4521 0.7913
5812 1 27.6955 15.0347 2.3739
5813 1 26.1129 13.4521 3.9565
5814 1 27.6955 15.0347 5.5391
5815 1 26.1129 13.4521 7.1217
5816 1 27.6955 15.0347 8.7043
5817 1 26.1129 16.6173 0.7913
5818 1 27.6955 18.1999 2.3739
5819 1 26.1129 16.6173 3.9565
5820 1 27.6955 18.1999 5.5391
5821 1 26.1129 16.6173 7.1217
5822 1 27.6955 18.1999 8.7043
5823 1 26.1129 19.7825 0.7913
5824 1 27.6955 21.3651 2.3739
5825 1 26.1129 19.7825 3.9565
5826 1 27.6955 21.3651 5.5391
5827 1 26.1129 19.7825 7.1217
5828 1 27.6955 21.3651 8.7043
5829 1 26.1129 22.9477 0.7913
5830 1 27.6955 24.5303 2.3739
5831 1 26.1129 22.9477 3.9565
5832 1 27.6955 24.5303 5.5391
5833 1 26.1129 22.9477 7.1217
5834 1 27.6955 24.5303 8.7043
5835 1 26.1129 26.1129 0.7913
5836 1 27.6955 27.6955 2.3739
5837 1 26.1129 26.1129 3.9565
5838 1 27.6955 27.6955 5.5391
5839 1 26.1129 26.1129 7.1217
5840 1 27.6955 27.6955 8.7043
5841 1 26.1129 29.2781 0.7913
5842 1 27.6955 30.8607 2.3739
5843 1 26.1129 29.2781 3.9565
5844 1 27.6955 30.8607 5.5391
5845 1 26.1129 29.2781 7.1217
5846 1 27.6955 30.8607 8.7043
5847 1 26.1129 32.4433 0.7913
5848 1 27.6955 34.0259 2.3739
5849 1 26.1129 32.4433 3.9565
5850 1 27.6955 34.0259 5.5391
5851 1 26.1129 32.4433 7.1217
5852 1 27.6955 34.0259 8.7043
5853 1 26.1129 35.6085 0.7913
5854 1 27.6955 37.1911 2.3739
5855 1 26.1129 35.6085 3.9565
5856 1 27.6955 37.1911 5.5391
5857 1 26.1129 35.6085 7.1217
5858 1 27.6955 37.1911 8.7043
5859 1 26.1129 38.7737 0.7913
5860 1 27.6955 40.3563 2.3739
5861 1 26.1129 38.7737 3.9565
5862 1 27.6955 40.3563 5.5391
5863 1 26.1129 38.7737 7.1217
5864 1 27.6955 40.3563 8.7043
5865 1 26.1129 41.9389 0.7913
5866 1 27.6955 43.5215 2.3739
5867 1 26.1129 41.9389 3.9565
5868 1 27.6955 43.5215 5.5391
5869 1 26.1129 41.9389 7.1217
5870 1 27.6955 43.5215 8.7043
5871 1 26.1129 45.1041 0.7913
5872 1 27.6955 46.6867 2.3739
5873 1 26.1129 45.1041 3.9565
5874 1 27.6955 46.6867 5.5391
5875 1 26.1129 45.1041 7.1217
5876 1 27.6955 46.6867 8.7043
5877 1 26.1129 48.2693 0.7913
5878 1 27.6955 49.8519 2.3739
5879 1 26.1129 48.2693 3.9565
5880 1 27.6955 49.8519 5.5391
5881 1 26.1129 48.2693 7.1217
5882 1 27.6955 49.8519 8.7043
5883 1 29.2781 0.7913 0.7913
5884 1 30.8607 2.3739 2.3739
5885 1 29.2781 0.7913 3.9565
5886 1 30.8607 2.3739 5.5391
5887 1 29.2781 0.7913 7.1217
5888 1 30.8607 2.3739 8.7043
5889 1 29.2781 3.9565 0.7913
5890 1 30.8607 5.5391 2.3739
5891 1 29.2781 3.9565 3.9565
5892 1 30.8607 5.5391 5.5391
5893 1 29.2781 3.9565 7.1217
5894 1 30.8607 5.5391 8.7043
5895 1 29.2781 7.1217 0.7913
5896 1 30.8607 8.7043 2.3739
5897 1 29.2781 7.1217 3.9565
5898 1 30.8607 8.7043 5.5391
5899 1 29.2781 7.1217 7.1217
5900 1 30.8607 8.7043 8.7043
5901 1 29.2781 10.2869 0.7913
5902 1 30.8607 11.8695 2.3739
5903 1 29.2781 10.2869 3.9565
5904 1 30.8607 11.8695 5.5391
5905 1 29.2781 10.2869 7.1217
5906 1 30.8607 11.8695 8.7043
5907 1 29.2781 13.4521 0.7913
5908 1 30.8607 15.0347 2.3739
5909 1 29.2781 13.4521 3.9565
5910 1 30.8607 15.0347 5.5391
5911 1 29.2781 13.4521 7.1217
5912 1 30.8607 15.0347 8.7043
5913 1 29.2781 16.6173 0.7913
5914 1 30.8607 18.1999 2.3739
5915 1 29.2781 16.6173 3.9565
5916 1 30.8607 18.1999 5.5391
5917 1 29.2781 16.6173 7.1217
5918 1 30.8607 18.1999 8.7043
5919 1 29.2781 19.7825 0.7913
5920 1 30.8607 21.3651 2.3739
5921 1 29.2781 19.7825 3.9565
5922 1 30.8607 21.3651 5.5391
5923 1 29.2781 19.7825 7.1217
5924 1 30.8607 21.3651 8.7043
5925 1 29.2781 22.9477 0.7913
5926 1 30.8607 24.5303 2.3739
5927 1 29.2781 22.9477 3.9565
5928 1 30.8607 24.5303 5.5391
5929 1 29.2781 22.9477 7.1217
5930 1 30.8607 24.5303 8.7043
5931 1 29.2781 26.1129 0.7913
5932 1 30.8607 27.6955 2.3739
5933 1 29.2781 26.1129 3.9565
5934 1 30.8607 27.6955 5.5391
5935 1 29.2781 26.1129 7.1217
5936 1 30.8607 27.6955 8.7043
5937 1 29.2781 29.2781 0.7913
5938 1 30.8607 30.8607 2.3739
5939 1 29.2781 29.2781 3.9565
5940 1 30.8607 30.8607 5.5391
5941 1 29.2781 29.2781 7.1217
5942 1 30.8607 30.8607 8.7043
5943 1 29.2781 32.4433 0.7913
5944 1 30.8607 34.0259 2.3739
5945 1 29.2781 32.4433 3.9565
5946 1 30.8607 34.0259 5.5391
5947 1 29.2781 32.4433 7.1217
5948 1 30.8607 34.0259 8.7043
5949 1 29.2781 35.6085 0.7913
5950 1 30.8607 37.1911 2.3739
5951 1 29.2781 35.6085 3.9565
5952 1 30.8607 37.1911 5.5391
5953 1 29.2781 35.6085 7.1217
5954 1 30.8607 37.1911 8.7043
5955 1 29.2781 38.7737 0.7913
5956 1 30.8607 40.3563 2.3739
5957 1 29.2781 38.7737 3.9565
5958 1 30.8607 40.3563 5.5391
5959 1 29.2781 38.7737 7.1217
5960 1 30.8607 40.3563 8.7043
5961 1 29.2781 41.9389 0.7913
5962 1 30.8607 43.5215 2.3739
5963 1 29.2781 41.9389 3.9565
5964 1 30.8607 43.5215 5.5391
5965 1 29.2781 41.9389 7.1217
5966 1 30.8607 43.5215 8.7043
5967 1 29.2781 45.1041 0.7913
5968 1 30.8607 46.6867 2.3739
5969 1 29.2781 45.1041 3.9565
5970 1 30.8607 46.6867 5.5391
5971 1 29.2781 45.1041 7.1217
5972 1 30.8607 46.6867 8.7043
5973 1 29.2781 48.2693 0.7913
5974 1 30.8607 49.8519 2.3739
5975 1 29.2781 48.2693 3.9565
5976 1 30.8607 49.8519 5.5391
5977 1 29.2781 48.2693 7.1217
5978 1 30.8607 49.8519 8.7043
5979 1 32.4433 0.7913 0.7913
5980 1 34.0259 2.3739 2.3739
5981 1 32.4433 0.7913 3.9565
5982 1 34.0259 2.3739 5.5391
5983 1 32.4433 0.7913 7.1217
5984 1 34.0259 2.3739 8.7043
5985 1 32.4433 3.9565 0.7913
5986 1 34.0259 5.5391 2.3739
5987 1 32.4433 3.9565 3.9565
5988 1 34.0259 5.5391 5.5391
5989 1 32.4433 3.9565 7.1217
5990 1 34.0259 5.5391 8.7043
5991 1 32.4433 7.1217 0.7913
5992 1 34.0259 8.7043 2.3739
5993 1 32.4433 7.1217 3.9565
5994 1 34.0259 8.7043 5.5391
5995 1 32.4433 7.1217 7.1217
5996 1 34.0259 8.7043 8.7043
5997 1 32.4433 10.2869 0.7913
5998 1 34.0259 11.8695 2.3739
5999 1 32.4433 10.2869 3.9565
6000 1 34.0259 11.8695 5.5391
6001 1 32.4433 10.2869 7.1217
6002 1 34.0259 11.8695 8.7043
6003 1 32.4433 13.4521 0.7913
6004 1 34.0259 15.0347 2.3739
6005 1 32.4433 13.4521 3.9565
6006 1 34.0259 15.0347 5.5391
6007 1 32.4433 13.4521 7.1217
6008 1 34.0259 15.0347 8.7043
6009 1 32.4433 16.6173 0.7913
6010 1 34.0259 18.1999 2.3739
6011 1 32.4433 16.6173 3.9565
6012 1 34.0259 18.1999 5.5391
6013 1 32.4433 16.6173 7.1217
6014 1 34.0259 18.1999 8.7043
6015 1 32.4433 19.7825 0.7913
6016 1 34.0259 21.3651 2.3739
6017 1 32.4433 19.7825 3.9565
6018 1 34.0259 21.3651 5.5391
6019 1 32.4433 19.7825 7.1217
6020 1 34.0259 21.3651 8.7043
6021 1 32.4433 22.9477 0.7913
6022 1 34.0259 24.5303 2.3739
6023 1 32.4433 22.9477 3.9565
6024 1 34.0259 24.5303 5.5391
6025 1 32.4433 22.9477 7.1217
6026 1 34.0259 24.5303 8.7043
6027 1 32.4433 26.1129 0.7913
6028 1 34.0259 27.6955 2.3739
6029 1 32.4433 26.1129 3.9565
6030 1 34.0259 27.6955 5.5391
6031 1 32.4433 26.1129 7.1217
6032 1 34.0259 27.6955 8.7043
6033 1 32.4433 29.2781 0.7913
6034 1 34.0259 30.8607 2.3739
6035 1 32.4433 29.2781 3.9565
6036 1 34.0259 30.8607 5.5391
6037 1 32.4433 29.2781 7.1217
6038 1 34.0259 30.8607 8.7043
6039 1 32.4433 32.4433 0.7913
6040 1 34.0259 34.0259 2.3739
6041 1 32.4433 32.4433 3.9565
6042 1 34.0259 34.0259 5.5391
6043 1 32.4433 32.4433 7.1217
6044 1 34.0259 34.0259 8.7043
6045 1 32.4433 35.6085 0.7913
6046 1 34.0259 37.1911 2.3739
6047 1 32.4433 35.6085 3.9565
6048 1 34.0259 37.1911 5.5391
6049 1 32.4433 35.6085 7.1217
6050 1 34.0259 37.1911 8.7043
6051 1 32.4433 38.7737 0.7913
6052 1 34.0259 40.3563 2.3739
6053 1 32.4433 38.7737 3.9565
6054 1 34.0259 40.3563 5.5391
6055 1 32.4433 38.7737 7.1217
6056 1 34.0259 40.3563 8.7043
6057 1 32.4433 41.9389 0.7913
6058 1 34.0259 43.5215 2.3739
6059 1 32.4433 41.9389 3.9565
6060 1 34.0259 43.5215 5.5391
6061 1 32.4433 41.9389 7.1217
6062 1 34.0259 43.5215 8.7043
6063 1 32.4433 45.1041 0.7913
6064 1 34.0259 46.6867 2.3739
6065 1 32.4433 45.1041 3.9565
6066 1 34.0259 46.6867 5.5391
6067 1 32.4433 45.1041 7.1217
6068 1 34.0259 46.6867 8.7043
6069 1 32.4433 48.2693 0.7913
6070 1 34.0259 49.8519 2.3739
6071 1 32.4433 48.2693 3.9565
6072 1 34.0259 49.8519 5.5391
6073 1 32.4433 48.2693 7.1217
6074 1 34.0259 49.8519 8.7043
6075 1 35.6085 0.7913 0.7913
6076 1 37.1911 2.3739 2.3739
6077 1 35.6085 0.7913 3.9565
6078 1 37.1911 2.3739 5.5391
6079 1 35.6085 0.7913 7.1217
6080 1 37.1911 2.3739 8.7043
6081 1 35.6085 3.9565 0.7913
6082 1 37.1911 5.5391 2.3739
6083 1 35.6085 3.9565 3.9565
6084 1 37.1911 5.5391 5.5391
6085 1 35.6085 3.9565 7.1217
6086 1 37.1911 5.5391 8.7043
6087 1 35.6085 7.1217 0.7913
6088 1 37.1911 8.7043 2.3739
6089 1 35.6085 7.1217 3.9565
6090 1 37.1911 8.7043 5.5391
6091 1 35.6085 7.1217 7.1217
6092 1 37.1911 8.7043 8.7043
6093 1 35.6085 10.2869 0.7913
6094 1 37.1911 11.8695 2.3739
6095 1 35.6085 10.2869 3.9565
6096 1 37.1911 11.8695 5.5391
6097 1 35.6085 10.2869 7.1217
6098 1 37.1911 11.8695 8.7043
6099 1 35.6085 13.4521 0.7913
6100 1 37.1911 15.0347 2.3739
6101 1 35.6085 13.4521 3.9565
6102 1 37.1911 15.0347 5.5391
6103 1 35.6085 13.4521 7.1217
6104 1 37.1911 15.0347 8.7043
6105 1 35.6085 16.6173 0.7913
6106 1 37.1911 18.1999 2.3739
6107 1 35.6085 16.6173 3.9565
6108 1 37.1911 18.1999 5.5391
6109 1 35.6085 16.6173 7.1217
6110 1 37.1911 18.1999 8.7043
6111 1 35.6085 19.7825 0.7913
6112 1 37.1911 21.3651 2.3739
6113 1 35.6085 19.7825 3.9565
6114 1 37.1911 21.3651 5.5391
6115 1 35.6085 19.7825 7.1217
6116 1 37.1911 21.3651 8.7043
6117 1 35.6085 22.9477 0.7913
6118 1 37.1911 24.5303 2.3739
6119 1 35.6085 22.9477 3.9565
6120 1 37.1911 24.5303 5.5391
6121 1 35.6085 22.9477 7.1217
6122 1 37.1911 24.5303 8.7043
6123 1 35.6085 26.1129 0.7913
6124 1 37.1911 27.6955 2.3739
6125 1 35.6085 26.1129 3.9565
6126 1 37.1911 27.6955 5.5391
6127 1 35.6085 26.1129 7.1217
6128 1 37.1911 27.6955 8.7043
6129 1 35.6085 29.2781 0.7913
6130 1 37.1911 30.8607 2.3739
6131 1 35.6085 29.2781 3.9565
6132 1 37.1911 30.8607 5.5391
6133 1 35.6085 29.2781 7.1217
6134 1 37.1911 30.8607 8.7043
6135 1 35.6085 32.4433 0.7913
6136 1 37.1911 34.0259 2.3739
6137 1 35.6085 32.4433 3.9565
6138 1 37.1911 34.0259 5.5391
6139 1 35.6085 32.4433 7.1217
6140 1 37.1911 34.0259 8.7043
6141 1 35.6085 35.6085 0.7913
6142 1 37.1911 37.1911 2.3739
6143 1 35.6085 35.6085 3.9565
6144 1 37.1911 37.1911 5.5391
6145 1 35.6085 35.6085 7.1217
6146 1 37.1911 37.1911 8.7043
6147 1 35.6085 38.7737 0.7913
6148 1 37.1911 40.3563 2.3739
6149 1 35.6085 38.7737 3.9565
6150 1 37.1911 40.3563 5.5391
6151 1 35.6085 38.7737 7.1217
6152 1 37.1911 40.3563 8.7043
6153 1 35.6085 41.9389 0.7913
6154 1 37.1911 43.5215 2.3739
6155 1 35.6085 41.9389 3.9565
6156 1 37.1911 43.5215 5.5391
6157 1 35.6085 41.9389 7.1217
6158 1 37.1911 43.5215 8.7043
6159 1 35.6085 45.1041 0.7913
6160 1 37.1911 46.6867 2.3739
6161 1 35.6085 45.1041 3.9565
6162 1 37.1911 46.6867 5.5391
6163 1 35.6085 45.1041 7.1217
6164 1 37.1911 46.6867 8.7043
6165 1 35.6085 48.2693 0.7913
6166 1 37.1911 49.8519 2.3739
6167 1 35.6085 48.2693 3.9565
6168 1 37.1911 49.8519 5.5391
6169 1 35.6085 48.2693 7.1217
6170 1 37.1911 49.8519 8.7043
6171 1 13.4521 0.7913 38.7737
6172 1 15.0347 2.3739 40.3563
6173 1 13.4521 0.7913 41.9389
6174 1 15.0347 2.3739 43.5215
6175 1 13.4521 0.7913 45.1041
6176 1 15.0347 2.3739 46.6867
6177 1 13.4521 0.7913 48.2693
6178 1 15.0347 2.3739 49.8519
6179 1 13.4521 3.9565 38.7737
6180 1 15.0347 5.5391 40.3563
6181 1 13.4521 3.9565 41.9389
6182 1 15.0347 5.5391 43.5215
6183 1 13.4521 3.9565 45.1041
6184 1 15.0347 5.5391 46.6867
6185 1 13.4521 3.9565 48.2693
6186 1 15.0347 5.5391 49.8519
6187 1 13.4521 7.1217 38.7737
6188 1 15.0347 8.7043 40.3563
6189 1 13.4521 7.1217 41.9389
6190 1 15.0347 8.7043 43.5215
6191 1 13.4521 7.1217 45.1041
6192 1 15.0347 8.7043 46.6867
6193 1 13.4521 7.1217 48.2693
6194 1 15.0347 8.7043 49.8519
6195 1 13.4521 10.2869 38.7737
6196 1 15.0347 11.8695 40.3563
6197 1 13.4521 10.2869 41.9389
6198 1 15.0347 11.8695 43.5215
6199 1 13.4521 10.2869 45.1041
6200 1 15.0347 11.8695 46.6867
6201 1 13.4521 10.2869 48.2693
6202 1 15.0347 11.8695 49.8519
6203 1 13.4521 13.4521 38.7737
6204 1 15.0347 15.0347 40.3563
6205 1 13.4521 13.4521 41.9389
6206 1 15.0347 15.0347 43.5215
6207 1 13.4521 13.4521 45.1041
6208 1 15.0347 15.0347 46.6867
6209 1 13.4521 13.4521 48.2693
6210 1 15.0347 15.0347 49.8519
6211 1 13.4521 16.6173 38.7737
6212 1 15.0347 18.1999 40.3563
6213 1 13.4521 16.6173 41.9389
6214 1 15.0347 18.1999 43.5215
6215 1 13.4521 16.6173 45.1041
6216 1 15.0347 18.1999 46.6867
6217 1 13.4521 16.6173 48.2693
6218 1 15.0347 18.1999 49.8519
6219 1 13.4521 19.7825 38.7737
6220 1 15.0347 21.3651 40.3563
6221 1 13.4521 19.7825 41.9389
6222 1 15.0347 21.3651 43.5215
6223 1 13.4521 19.7825 45.1041
6224 1 15.0347 21.3651 46.6867
6225 1 13.4521 19.7825 48.2693
6226 1 15.0347 21.3651 49.8519
6227 1 13.4521 22.9477 38.7737
6228 1 15.0347 24.5303 40.3563
6229 1 13.4521 22.9477 41.9389
6230 1 15.0347 24.5303 43.5215
6231 1 13.4521 22.9477 45.1041
6232 1 15.0347 24.5303 46.6867
6233 1 13.4521 22.9477 48.2693
6234 1 15.0347 24.5303 49.8519
6235 1 13.4521 26.1129 38.7737
6236 1 15.0347 27.6955 40.3563
6237 1 13.4521 26.1129 41.9389
6238 1 15.0347 27.6955 43.5215
6239 1 13.4521 26.1129 45.1041
6240 1 15.0347 27.6955 46.6867
6241 1 13.4521 26.1129 48.2693
6242 1 15.0347 27.6955 49.8519
6243 1 13.4521 29.2781 38.7737
6244 1 15.0347 30.8607 40.3563
6245 1 13.4521 29.2781 41.9389
6246 1 15.0347 30.8607 43.5215
6247 1 13.4521 29.2781 45.1041
6248 1 15.0347 30.8607 46.6867
6249 1 13.4521 29.2781 48.2693
6250 1 15.0347 30.8607 49.8519
6251 1 13.4521 32.4433 38.7737
6252 1 15.0347 34.0259 40.3563
6253 1 13.4521 32.4433 41.9389
6254 1 15.0347 34.0259 43.5215
6255 1 13.4521 32.4433 45.1041
6256 1 15.0347 34.0259 46.6867
6257 1 13.4521 32.4433 48.2693
6258 1 15.0347 34.0259 49.8519
6259 1 13.4521 35.6085 38.7737
6260 1 15.0347 37.1911 40.3563
6261 1 13.4521 35.6085 41.9389
6262 1 15.0347 37.1911 43.5215
6263 1 13.4521 35.6085 45.1041
6264 1 15.0347 37.1911 46.6867
6265 1 13.4521 35.6085 48.2693
6266 1 15.0347 37.1911 49.8519
6267 1 13.4521 38.7737 38.7737
6268 1 15.0347 40.3563 40.3563
6269 1 13.4521 38.7737 41.9389
6270 1 15.0347 40.3563 43.5215
6271 1 13.4521 38.7737 45.1041
6272 1 15.0347 40.3563 46.6867
6273 1 13.4521 38.7737 48.2693
6274 1 15.0347 40.3563 49.8519
6275 1 13.4521 41.9389 38.7737
6276 1 15.0347 43.5215 40.3563
6277 1 13.4521 41.9389 41.9389
6278 1 15.0347 43.5215 43.5215
6279 1 13.4521 41.9389 45.1041
6280 1 15.0347 43.5215 46.6867
6281 1 13.4521 41.9389 48.2693
6282 1 15.0347 43.5215 49.8519
6283 1 13.4521 45.1041 38.7737
6284 1 15.0347 46.6867 40.3563
6285 1 13.4521 45.1041 41.9389
6286 1 15.0347 46.6867 43.5215
6287 1 13.4521 45.1041 45.1041
6288 1 15.0347 46.6867 46.6867
6289 1 13.4521 45.1041 48.2693
6290 1 15.0347 46.6867 49.8519
6291 1 13.4521 48.2693 38.7737
6292 1 15.0347 49.8519 40.3563
6293 1 13.4521 48.2693 41.9389
6294 1 15.0347 49.8519 43.5215
6295 1 13.4521 48.2693 45.1041
6296 1 15.0347 49.8519 46.6867
6297 1 13.4521 48.2693 48.2693
6298 1 15.0347 49.8519 49.8519
6299 1 16.6173 0.7913 38.7737
6300 1 18.1999 2.3739 40.3563
6301 1 16.6173 0.7913 41.9389
6302 1 18.1999 2.3739 43.5215
6303 1 16.6173 0.7913 45.1041
6304 1 18.1999 2.3739 46.6867
6305 1 16.6173 0.7913 48.2693
6306 1 18.1999 2.3739 49.8519
6307 1 16.6173 3.9565 38.7737
6308 1 18.1999 5.5391 40.3563
6309 1 16.6173 3.9565 41.9389
6310 1 18.1999 5.5391 43.5215
6311 1 16.6173 3.9565 45.1041
6312 1 18.1999 5.5391 46.6867
6313 1 16.6173 3.9565 48.2693
6314 1 18.1999 5.5391 49.8519
6315 1 16.6173 7.1217 38.7737
6316 1 18.1999 8.7043 40.3563
6317 1 16.6173 7.1217 41.9389
6318 1 18.1999 8.7043 43.5215
6319 1 16.6173 7.1217 45.1041
6320 1 18.1999 8.7043 46.6867
6321 1 16.6173 7.1217 48.2693
6322 1 18.1999 8.7043 49.8519
6323 1 16.6173 10.2869 38.7737
6324 1 18.1999 11.8695 40.3563
6325 1 16.6173 10.2869 41.9389
6326 1 18.1999 11.8695 43.5215
6327 1 16.6173 10.2869 45.1041
6328 1 18.1999 11.8695 46.6867
6329 1 16.6173 10.2869 48.2693
6330 1 18.1999 11.8695 49.8519
6331 1 16.6173 13.4521 38.7737
6332 1 18.1999 15.0347 40.3563
6333 1 16.6173 13.4521 41.9389
6334 1 18.1999 15.0347 43.5215
6335 1 16.6173 13.4521 45.1041
6336 1 18.1999 15.0347 46.6867
6337 1 16.6173 13.4521 48.2693
6338 1 18.1999 15.0347 49.8519
6339 1 16.6173 16.6173 38.7737
6340 1 18.1999 18.1999 40.3563
6341 1 16.6173 16.6173 41.9389
6342 1 18.1999 18.1999 43.5215
6343 1 16.6173 16.6173 45.1041
6344 1 18.1999 18.1999 46.6867
6345 1 16.6173 16.6173 48.2693
6346 1 18.1999 18.1999 49.8519
6347 1 16.6173 19.7825 38.7737
6348 1 18.1999 21.3651 40.3563
6349 1 16.6173 19.7825 41.9389
6350 1 18.1999 21.3651 43.5215
6351 1 16.6173 19.7825 45.1041
6352 1 18.1999 21.3651 46.6867
6353 1 16.6173 19.7825 48.2693
6354 1 18.1999 21.3651 49.8519
6355 1 16.6173 22.9477 38.7737
6356 1 18.1999 24.5303 40.3563
6357 1 16.6173 22.9477 41.9389
6358 1 18.1999 24.5303 43.5215
6359 1 16.6173 22.9477 45.1041
6360 1 18.1999 24.5303 46.6867
6361 1 16.6173 22.9477 48.2693
6362 1 18.1999 24.5303 49.8519
6363 1 16.6173 26.1129 38.7737
6364 1 18.1999 27.6955 40.3563
6365 1 16.6173 26.1129 41.9389
6366 1 18.1999 27.6955 43.5215
6367 1 16.6173 26.1129 45.1041
6368 1 18.1999 27.6955 46.6867
6369 1 16.6173 26.1129 48.2693
6370 1 18.1999 27.6955 49.8519
6371 1 16.6173 29.2781 38.7737
6372 1 18.1999 30.8607 40.3563
6373 1 16.6173 29.2781 41.9389
6374 1 18.1999 30.8607 43.5215
6375 1 16.6173 29.2781 45.1041
6376 1 18.1999 30.8607 46.6867
6377 1 16.6173 29.2781 48.2693
6378 1 18.1999 30.8607 49.8519
6379 1 16.6173 32.4433 38.7737
6380 1 18.1999 34.0259 40.3563
6381 1 16.6173 32.4433 41.9389
6382 1 18.1999 34.0259 43.5215
6383 1 16.6173 32.4433 45.1041
6384 1 18.1999 34.0259 46.6867
6385 1 16.6173 32.4433 48.2693
6386 1 18.1999 34.0259 49.8519
6387 1 16.6173 35.6085 38.7737
6388 1 18.1999 37.1911 40.3563
6389 1 16.6173 35.6085 41.9389
6390 1 18.1999 37.1911 43.5215
6391 1 16.6173 35.6085 45.1041
6392 1 18.1999 37.1911 46.6867
6393 1 16.6173 35.6085 48.2693
6394 1 18.1999 37.1911 49.8519
6395 1 16.6173 38.7737 38.7737
6396 1 18.1999 40.3563 40.3563
6397 1 16.6173 38.7737 41.9389
6398 1 18.1999 40.3563 43.5215
6399 1 16.6173 38.7737 45.1041
6400 1 18.1999 40.3563 46.6867
6401 1 16.6173 38.7737 48.2693
6402 1 18.1999 40.3563 49.8519
6403 1 16.6173 41.9389 38.7737
6404 1 18.1999 43.5215 40.3563
6405 1 16.6173 41.9389 41.9389
6406 1 18.1999 43.5215 43.5215
6407 1 16.6173 41.9389 45.1041
6408 1 18.1999 43.5215 46.6867
6409 1 16.6173 41.9389 48.2693
6410 1 18.1999 43.5215 49.8519
6411 1 16.6173 45.1041 38.7737
6412 1 18.1999 46.6867 40.3563
6413 1 16.6173 45.1041 41.9389
6414 1 18.1999 46.6867 43.5215
6415 1 16.6173 45.1041 45.1041
6416 1 18.1999 46.6867 46.6867
6417 1 16.6173 45.1041 48.2693
6418 1 18.1999 46.6867 49.8519
6419 1 16.6173 48.2693 38.7737
6420 1 18.1999 49.8519 40.3563
6421 1 16.6173 48.2693 41.9389
6422 1 18.1999 49.8519 43.5215
6423 1 16.6173 48.2693 45.1041
6424 1 18.1999 49.8519 46.6867
6425 1 16.6173 48.2693 48.2693
6426 1 18.1999 49.8519 49.8519
6427 1 19.7825 0.7913 38.7737
6428 1 21.3651 2.3739 40.3563
6429 1 19.7825 0.7913 41.9389
6430 1 21.3651 2.3739 43.5215
6431 1 19.7825 0.7913 45.1041
6432 1 21.3651 2.3739 46.6867
6433 1 19.7825 0.7913 48.2693
6434 1 21.3651 2.3739 49.8519
6435 1 19.7825 3.9565 38.7737
6436 1 21.3651 5.5391 40.3563
6437 1 19.7825 3.9565 41.9389
6438 1 21.3651 5.5391 43.5215
6439 1 19.7825 3.9565 45.1041
6440 1 21.3651 5.5391 46.6867
6441 1 19.7825 3.9565 48.2693
6442 1 21.3651 5.5391 49.8519
6443 1 19.7825 7.1217 38.7737
6444 1 21.3651 8.7043 40.3563
6445 1 19.7825 7.1217 41.9389
6446 1 21.3651 8.7043 43.5215
6447 1 19.7825 7.1217 45.1041
6448 1 21.3651 8.7043 46.6867
6449 1 19.7825 7.1217 48.2693
6450 1 21.3651 8.7043 49.8519
6451 1 19.7825 10.2869 38.7737
6452 1 21.3651 11.8695 40.3563
6453 1 19.7825 10.2869 41.9389
6454 1 21.3651 11.8695 43.5215
6455 1 19.7825 10.2869 45.1041
6456 1 21.3651 11.8695 46.6867
6457 1 19.7825 10.2869 48.2693
6458 1 21.3651 11.8695 49.8519
6459 1 19.7825 13.4521 38.7737
6460 1 21.3651 15.0347 40.3563
6461 1 19.7825 13.4521 41.9389
6462 1 21.3651 15.0347 43.5215
6463 1 19.7825 13.4521 45.1041
6464 1 21.3651 15.0347 46.6867
6465 1 19.7825 13.4521 48.2693
6466 1 21.3651 15.0347 49.8519
6467 1 19.7825 16.6173 38.7737
6468 1 21.3651 18.1999 40.3563
6469 1 19.7825 16.6173 41.9389
6470 1 21.3651 18.1999 43.5215
6471 1 19.7825 16.6173 45.1041
6472 1 21.3651 18.1999 46.6867
6473 1 19.7825 16.6173 48.2693
6474 1 21.3651 18.1999 49.8519
6475 1 19.7825 19.7825 38.7737
6476 1 21.3651 21.3651 40.3563
6477 1 19.7825 19.7825 41.9389
6478 1 21.3651 21.3651 43.5215
6479 1 19.7825 19.7825 45.1041
6480 1 21.3651 21.3651 46.6867
6481 1 19.7825 19.7825 48.2693
6482 1 21.3651 21.3651 49.8519
6483 1 19.7825 22.9477 38.7737
6484 1 21.3651 24.5303 40.3563
6485 1 19.7825 22.9477 41.9389
6486 1 21.3651 24.5303 43.5215
6487 1 19.7825 22.9477 45.1041
6488 1 21.3651 24.5303 46.6867
6489 1 19.7825 22.9477 48.2693
6490 1 21.3651 24.5303 49.8519
6491 1 19.7825 26.1129 38.7737
6492 1 21.3651 27.6955 40.3563
6493 1 19.7825 26.1129 41.9389
6494 1 21.3651 27.6955 43.5215
6495 1 19.7825 26.1129 45.1041
6496 1 21.3651 27.6955 46.6867
6497 1 19.7825 26.1129 48.2693
6498 1 21.3651 27.6955 49.8519
6499 1 19.7825 29.2781 38.7737
6500 1 21.3651 30.8607 40.3563
6501 1 19.7825 29.2781 41.9389
6502 1 21.3651 30.8607 43.5215
6503 1 19.7825 29.2781 45.1041
6504 1 21.3651 30.8607 46.6867
6505 1 19.7825 29.2781 48.2693
6506 1 21.3651 30.8607 49.8519
6507 1 19.7825 32.4433 38.7737
6508 1 21.3651 34.0259 40.3563
6509 1 19.7825 32.4433 41.9389
6510 1 21.3651 34.0259 43.5215
6511 1 19.7825 32.4433 45.1041
6512 1 21.3651 34.0259 46.6867
6513 1 19.7825 32.4433 48.2693
6514 1 21.3651 34.0259 49.8519
6515 1 19.7825 35.6085 38.7737
6516 1 21.3651 37.1911 40.3563
6517 1 19.7825 35.6085 41.9389
6518 1 21.3651 37.1911 43.5215
6519 1 19.7825 35.6085 45.1041
6520 1 21.3651 37.1911 46.6867
6521 1 19.7825 35.6085 48.2693
6522 1 21.3651 37.1911 49.8519
6523 1 19.7825 38.7737 38.7737
6524 1 21.3651 40.3563 40.3563
6525 1 19.7825 38.7737 41.9389
6526 1 21.3651 40.3563 43.5215
6527 1 19.7825 38.7737 45.1041
6528 1 21.3651 40.3563 46.6867
6529 1 19.7825 38.7737 48.2693
6530 1 21.3651 40.3563 49.8519
6531 1 19.7825 41.9389 38.7737
6532 1 21.3651 43.5215 40.3563
6533 1 19.7825 41.9389 41.9389
6534 1 21.3651 43.5215 43.5215
6535 1 19.7825 41.9389 45.1041
6536 1 21.3651 43.5215 46.6867
6537 1 19.7825 41.9389 48.2693
6538 1 21.3651 43.5215 49.8519
6539 1 19.7825 45.1041 38.7737
6540 1 21.3651 46.6867 40.3563
6541 1 19.7825 45.1041 41.9389
6542 1 21.3651 46.6867 43.5215
6543 1 19.7825 45.1041 45.1041
6544 1 21.3651 46.6867 46.6867
6545 1 19.7825 45.1041 48.2693
6546 1 21.3651 46.6867 49.8519
6547 1 19.7825 48.2693 38.7737
6548 1 21.3651 49.8519 40.3563
6549 1 19.7825 48.2693 41.9389
6550 1 21.3651 49.8519 43.5215
6551 1 19.7825 48.2693 45.1041
6552 1 21.3651 49.8519 46.6867
6553 1 19.7825 48.2693 48.2693
6554 1 21.3651 49.8519 49.8519
6555 1 22.9477 0.7913 38.7737
6556 1 24.5303 2.3739 40.3563
6557 1 22.9477 0.7913 41.9389
6558 1 24.5303 2.3739 43.5215
6559 1 22.9477 0.7913 45.1041
6560 1 24.5303 2.3739 46.6867
6561 1 22.9477 0.7913 48.2693
6562 1 24.5303 2.3739 49.8519
6563 1 22.9477 3.9565 38.7737
6564 1 24.5303 5.5391 40.3563
6565 1 22.9477 3.9565 41.9389
6566 1 24.5303 5.5391 43.5215
6567 1 22.9477 3.9565 45.1041
6568 1 24.5303 5.5391 46.6867
6569 1 22.9477 3.9565 48.2693
6570 1 24.5303 5.5391 49.8519
6571 1 22.9477 7.1217 38.7737
6572 1 24.5303 8.7043 40.3563
6573 1 22.9477 7.1217 41.9389
6574 1 24.5303 8.7043 43.5215
6575 1 22.9477 7.1217 45.1041
6576 1 24.5303 8.7043 46.6867
6577 1 22.9477 7.1217 48.2693
6578 1 24.5303 8.7043 49.8519
6579 1 22.9477 10.2869 38.7737
6580 1 24.5303 11.8695 40.3563
6581 1 22.9477 10.2869 41.9389
6582 1 24.5303 11.8695 43.5215
6583 1 22.9477 10.2869 45.1041
6584 1 24.5303 11.8695 46.6867
6585 1 22.9477 10.2869 48.2693
6586 1 24.5303 11.8695 49.8519
6587 1 22.9477 13.4521 38.7737
6588 1 24.5303 15.0347 40.3563
6589 1 22.9477 13.4521 41.9389
6590 1 24.5303 15.0347 43.5215
6591 1 22.9477 13.4521 45.1041
6592 1 24.5303 15.0347 46.6867
6593 1 22.9477 13.4521 48.2693
6594 1 24.5303 15.0347 49.8519
6595 1 22.9477 16.6173 38.7737
6596 1 24.5303 18.1999 40.3563
6597 1 22.9477 16.6173 41.9389
6598 1 24.5303 18.1999 43.5215
6599 1 22.9477 16.6173 45.1041
6600 1 24.5303 18.1999 46.6867
6601 1 22.9477 16.6173 48.2693
6602 1 24.5303 18.1999 49.8519
6603 1 22.9477 19.7825 38.7737
6604 1 24.5303 21.3651 40.3563
6605 1 22.9477 19.7825 41.9389
6606 1 24.5303 21.3651 43.5215
6607 1 22.9477 19.7825 45.1041
6608 1 24.5303 21.3651 46.6867
6609 1 22.9477 19.7825 48.2693
6610 1 24.5303 21.3651 49.8519
6611 1 22.9477 22.9477 38.7737
6612 1 24.5303 24.5303 40.3563
6613 1 22.9477 22.9477 41.9389
6614 1 24.5303 24.5303 43.5215
6615 1 22.9477 22.9477 45.1041
6616 1 24.5303 24.5303 46.6867
6617 1 22.9477 22.9477 48.2693
6618 1 24.5303 24.5303 49.8519
6619 1 22.9477 26.1129 38.7737
6620 1 24.5303 27.6955 40.3563
6621 1 22.9477 26.1129 41.9389
6622 1 24.5303 27.6955 43.5215
6623 1 22.9477 26.1129 45.1041
6624 1 24.5303 27.6955 46.6867
6625 1 22.9477 26.1129 48.2693
6626 1 24.5303 27.6955 49.8519
6627 1 22.9477 29.2781 38.7737
6628 1 24.5303 30.8607 40.3563
6629 1 22.9477 29.2781 41.9389
6630 1 24.5303 30.8607 43.5215
6631 1 22.9477 29.2781 45.1041
6632 1 24.5303 30.8607 46.6867
6633 1 22.9477 29.2781 48.2693
6634 1 24.5303 30.8607 49.8519
6635 1 22.9477 32.4433 38.7737
6636 1 24.5303 34.0259 40.3563
6637 1 22.9477 32.4433 41.9389
6638 1 24.5303 34.0259 43.5215
6639 1 22.9477 32.4433 45.1041
6640 1 24.5303 34.0259 46.6867
6641 1 22.9477 32.4433 48.2693
6642 1 24.5303 34.0259 49.8519
6643 1 22.9477 35.6085 38.7737
6644 1 24.5303 37.1911 40.3563
6645 1 22.9477 35.6085 41.9389
6646 1 24.5303 37.1911 43.5215
6647 1 22.9477 35.6085 45.1041
6648 1 24.5303 37.1911 46.6867
6649 1 22.9477 35.6085 48.2693
6650 1 24.5303 37.1911 49.8519
6651 1 22.9477 38.7737 38.7737
6652 1 24.5303 40.3563 40.3563
6653 1 22.9477 38.7737 41.9389
6654 1 24.5303 40.3563 43.5215
6655 1 22.9477 38.7737 45.1041
6656 1 24.5303 40.3563 46.6867
6657 1 22.9477 38.7737 48.2693
6658 1 24.5303 40.3563 49.8519
6659 1 22.9477 41.9389 38.7737
6660 1 24.5303 43.5215 40.3563
6661 1 22.9477 41.9389 41.9389
6662 1 24.5303 43.5215 43.5215
6663 1 22.9477 41.9389 45.1041
6664 1 24.5303 43.5215 46.6867
6665 1 22.9477 41.9389 48.2693
6666 1 24.5303 43.5215 49.8519
6667 1 22.9477 45.1041 38.7737
6668 1 24.5303 46.6867 40.3563
6669 1 22.9477 45.1041 41.9389
6670 1 24.5303 46.6867 43.5215
6671 1 22.9477 45.1041 45.1041
6672 1 24.5303 46.6867 46.6867
6673 1 22.9477 45.1041 48.2693
6674 1 24.5303 46.6867 49.8519
6675 1 22.9477 48.2693 38.7737
6676 1 24.5303 49.8519 40.3563
6677 1 22.9477 48.2693 41.9389
6678 1 24.5303 49.8519 43.5215
6679 1 22.9477 48.2693 45.1041
6680 1 24.5303 49.8519 46.6867
6681 1 22.9477 48.2693 48.2693
6682 1 24.5303 49.8519 49.8519
6683 1 26.1129 0.7913 38.7737
6684 1 27.6955 2.3739 40.3563
6685 1 26.1129 0.7913 41.9389
6686 1 27.6955 2.3739 43.5215
6687 1 26.1129 0.7913 45.1041
6688 1 27.6955 2.3739 46.6867
6689 1 26.1129 0.7913 48.2693
6690 1 27.6955 2.3739 49.8519
6691 1 26.1129 3.9565 38.7737
6692 1 27.6955 5.5391 40.3563
6693 1 26.1129 3.9565 41.9389
6694 1 27.6955 5.5391 43.5215
6695 1 26.1129 3.9565 45.1041
6696 1 27.6955 5.5391 46.6867
6697 1 26.1129 3.9565 48.2693
6698 1 27.6955 5.5391 49.8519
6699 1 26.1129 7.1217 38.7737
6700 1 27.6955 8.7043 40.3563
6701 1 26.1129 7.1217 41.9389
6702 1 27.6955 8.7043 43.5215
6703 1 26.1129 7.1217 45.1041
6704 1 27.6955 8.7043 46.6867
6705 1 26.1129 7.1217 48.2693
6706 1 27.6955 8.7043 49.8519
6707 1 26.1129 10.2869 38.7737
6708 1 27.6955 11.8695 40.3563
6709 1 26.1129 10.2869 41.9389
6710 1 27.6955 11.8695 43.5215
6711 1 26.1129 10.2869 45.1041
6712 1 27.6955 11.8695 46.6867
6713 1 26.1129 10.2869 48.2693
6714 1 27.6955 11.8695 49.8519
6715 1 26.1129 13.4521 38.7737
6716 1 27.6955 15.0347 40.3563
6717 1 26.1129 13.4521 41.9389
6718 1 27.6955 15.0347 43.5215
6719 1 26.1129 13.4521 45.1041
6720 1 27.6955 15.0347 46.6867
6721 1 26.1129 13.4521 48.2693
6722 1 27.6955 15.0347 49.8519
6723 1 26.1129 16.6173 38.7737
6724 1 27.6955 18.1999 40.3563
6725 1 26.1129 16.6173 41.9389
6726 1 27.6955 18.1999 43.5215
6727 1 26.1129 16.6173 45.1041
6728 1 27.6955 18.1999 46.6867
6729 1 26.1129 16.6173 48.2693
6730 1 27.6955 18.1999 49.8519
6731 1 26.1129 19.7825 38.7737
6732 1 27.6955 21.3651 40.3563
6733 1 26.1129 19.7825 41.9389
6734 1 27.6955 21.3651 43.5215
6735 1 26.1129 19.7825 45.1041
6736 1 27.6955 21.3651 46.6867
6737 1 26.1129 19.7825 48.2693
6738 1 27.6955 21.3651 49.8519
6739 1 26.1129 22.9477 38.7737
6740 1 27.6955 24.5303 40.3563
6741 1 26.1129 22.9477 41.9389
6742 1 27.6955 24.5303 43.5215
6743 1 26.1129 22.9477 45.1041
6744 1 27.6955 24.5303 46.6867
6745 1 26.1129 22.9477 48.2693
6746 1 27.6955 24.5303 49.8519
6747 1 26.1129 26.1129 38.7737
6748 1 27.6955 27.6955 40.3563
6749 1 26.1129 26.1129 41.9389
6750 1 27.6955 27.6955 43.5215
6751 1 26.1129 26.1129 45.1041
6752 1 27.6955 27.6955 46.6867
6753 1 26.1129 26.1129 48.2693
6754 1 27.6955 27.6955 49.8519
6755 1 26.1129 29.2781 38.7737
6756 1 27.6955 30.8607 40.3563
6757 1 26.1129 29.2781 41.9389
6758 1 27.6955 30.8607 43.5215
6759 1 26.1129 29.2781 45.1041
6760 1 27.6955 30.8607 46.6867
6761 1 26.1129 29.2781 48.2693
6762 1 27.6955 30.8607 49.8519
6763 1 26.1129 32.4433 38.7737
6764 1 27.6955 34.0259 40.3563
6765 1 26.1129 32.4433 41.9389
6766 1 27.6955 34.0259 43.5215
6767 1 26.1129 32.4433 45.1041
6768 1 27.6955 34.0259 46.6867
6769 1 26.1129 32.4433 48.2693
6770 1 27.6955 34.0259 49.8519
6771 1 26.1129 35.6085 38.7737
6772 1 27.6955 37.1911 40.3563
6773 1 26.1129 35.6085 41.9389
6774 1 27.6955 37.1911 43.5215
6775 1 26.1129 35.6085 45.1041
6776 1 27.6955 37.1911 46.6867
6777 1 26.1129 35.6085 48.2693
6778 1 27.6955 37.1911 49.8519
6779 1 26.1129 38.7737 38.7737
6780 1 27.6955 40.3563 40.3563
6781 1 26.1129 38.7737 41.9389
6782 1 27.6955 40.3563 43.5215
6783 1 26.1129 38.7737 45.1041
6784 1 27.6955 40.3563 46.6867
6785 1 26.1129 38.7737 48.2693
6786 1 27.6955 40.3563 49.8519
6787 1 26.1129 41.9389 38.7737
6788 1 27.6955 43.5215 40.3563
6789 1 26.1129 41.9389 41.9389
6790 1 27.6955 43.5215 43.5215
6791 1 26.1129 41.9389 45.1041
6792 1 27.6955 43.5215 46.6867
6793 1 26.1129 41.9389 48.2693
6794 1 27.6955 43.5215 49.8519
6795 1 26.1129 45.1041 38.7737
6796 1 27.6955 46.6867 40.3563
6797 1 26.1129 45.1041 41.9389
6798 1 27.6955 46.6867 43.5215
6799 1 26.1129 45.1041 45.1041
6800 1 27.6955 46.6867 46.6867
6801 1 26.1129 45.1041 48.2693
6802 1 27.6955 46.6867 49.8519
6803 1 26.1129 48.2693 38.7737
6804 1 27.6955 49.8519 40.3563
6805 1 26.1129 48.2693 41.9389
6806 1 27.6955 49.8519 43.5215
6807 1 26.1129 48.2693 45.1041
6808 1 27.6955 49.8519 46.6867
6809 1 26.1129 48.2693 48.2693
6810 1 27.6955 49.8519 49.8519
6811 1 29.2781 0.7913 38.7737
6812 1 30.8607 2.3739 40.3563
6813 1 29.2781 0.7913 41.9389
6814 1 30.8607 2.3739 43.5215
6815 1 29.2781 0.7913 45.1041
6816 1 30.8607 2.3739 46.6867
6817 1 29.2781 0.7913 48.2693
6818 1 30.8607 2.3739 49.8519
6819 1 29.2781 3.9565 38.7737
6820 1 30.8607 5.5391 40.3563
6821 1 29.2781 3.9565 41.9389
6822 1 30.8607 5.5391 43.5215
6823 1 29.2781 3.9565 45.1041
6824 1 30.8607 5.5391 46.6867
6825 1 29.2781 3.9565 48.2693
6826 1 30.8607 5.5391 49.8519
6827 1 29.2781 7.1217 38.7737
6828 1 30.8607 8.7043 40.3563
6829 1 29.2781 7.1217 41.9389
6830 1 30.8607 8.7043 43.5215
6831 1 29.2781 7.1217 45.1041
6832 1 30.8607 8.7043 46.6867
6833 1 29.2781 7.1217 48.2693
6834 1 30.8607 8.7043 49.8519
6835 1 29.2781 10.2869 38.7737
6836 1 30.8607 11.8695 40.3563
6837 1 29.2781 10.2869 41.9389
6838 1 30.8607 11.8695 43.5215
6839 1 29.2781 10.2869 45.1041
6840 1 30.8607 11.8695 46.6867
6841 1 29.2781 10.2869 48.2693
6842 1 30.8607 11.8695 49.8519
6843 1 29.2781 13.4521 38.7737
6844 1 30.8607 15.0347 40.3563
6845 1 29.2781 13.4521 41.9389
6846 1 30.8607 15.0347 43.5215
6847 1 29.2781 13.4521 45.1041
6848 1 30.8607 15.0347 46.6867
6849 1 29.2781 13.4521 48.2693
6850 1 30.8607 15.0347 49.8519
6851 1 29.2781 16.6173 38.7737
6852 1 30.8607 18.1999 40.3563
6853 1 29.2781 16.6173 41.9389
6854 1 30.8607 18.1999 43.5215
6855 1 29.2781 16.6173 45.1041
6856 1 30.8607 18.1999 46.6867
6857 1 29.2781 16.6173 48.2693
6858 1 30.8607 18.1999 49.8519
6859 1 29.2781 19.7825 38.7737
6860 1 30.8607 21.3651 40.3563
6861 1 29.2781 19.7825 41.9389
6862 1 30.8607 21.3651 43.5215
6863 1 29.2781 19.7825 45.1041
6864 1 30.8607 21.3651 46.6867
6865 1 29.2781 19.7825 48.2693
6866 1 30.8607 21.3651 49.8519
6867 1 29.2781 22.9477 38.7737
6868 1 30.8607 24.5303 40.3563
6869 1 29.2781 22.9477 41.9389
6870 1 30.8607 24.5303 43.5215
6871 1 29.2781 22.9477 45.1041
6872 1 30.8607 24.5303 46.6867
6873 1 29.2781 22.9477 48.2693
6874 1 30.8607 24.5303 49.8519
6875 1 29.2781 26.1129 38.7737
6876 1 30.8607 27.6955 40.3563
6877 1 29.2781 26.1129 41.9389
6878 1 30.8607 27.6955 43.5215
6879 1 29.2781 26.1129 45.1041
6880 1 30.8607 27.6955 46.6867
6881 1 29.2781 26.1129 48.2693
6882 1 30.8607 27.6955 49.8519
6883 1 29.2781 29.2781 38.7737
6884 1 30.8607 30.8607 40.3563
6885 1 29.2781 29.2781 41.9389
6886 1 30.8607 30.8607 43.5215
6887 1 29.2781 29.2781 45.1041
6888 1 30.8607 30.8607 46.6867
6889 1 29.2781 29.2781 48.2693
6890 1 30.8607 30.8607 49.8519
6891 1 29.2781 32.4433 38.7737
6892 1 30.8607 34.0259 40.3563
6893 1 29.2781 32.4433 41.9389
6894 1 30.8607 34.0259 43.5215
6895 1 29.2781 32.4433 45.1041
6896 1 30.8607 34.0259 46.6867
6897 1 29.2781 32.4433 48.2693
6898 1 30.8607 34.0259 49.8519
6899 1 29.2781 35.6085 38.7737
6900 1 30.8607 37.1911 40.3563
6901 1 29.2781 35.6085 41.9389
6902 1 30.8607 37.1911 43.5215
6903 1 29.2781 35.6085 45.1041
6904 1 30.8607 37.1911 46.6867
6905 1 29.2781 35.6085 48.2693
6906 1 30.8607 37.1911 49.8519
6907 1 29.2781 38.7737 38.7737
6908 1 30.8607 40.3563 40.3563
6909 1 29.2781 38.7737 41.9389
6910 1 30.8607 40.3563 43.5215
6911 1 29.2781 38.7737 45.1041
6912 1 30.8607 40.3563 46.6867
6913 1 29.2781 38.7737 48.2693
6914 1 30.8607 40.3563 49.8519
6915 1 29.2781 41.9389 38.7737
6916 1 30.8607 43.5215 40.3563
6917 1 29.2781 41.9389 41.9389
6918 1 30.8607 43.5215 43.5215
6919 1 29.2781 41.9389 45.1041
6920 1 30.8607 43.5215 46.6867
6921 1 29.2781 41.9389 48.2693
6922 1 30.8607 43.5215 49.8519
6923 1 29.2781 45.1041 38.7737
6924 1 30.8607 46.6867 40.3563
6925 1 29.2781 45.1041 41.9389
6926 1 30.8607 46.6867 43.5215
6927 1 29.2781 45.1041 45.1041
6928 1 30.8607 46.6867 46.6867
6929 1 29.2781 45.1041 48.2693
6930 1 30.8607 46.6867 49.8519
6931 1 29.2781 48.2693 38.7737
6932 1 30.8607 49.8519 40.3563
6933 1 29.2781 48.2693 41.9389
6934 1 30.8607 49.8519 43.5215
6935 1 29.2781 48.2693 45.1041
6936 1 30.8607 49.8519 46.6867
6937 1 29.2781 48.2693 48.2693
6938 1 30.8607 49.8519 49.8519
6939 1 32.4433 0.7913 38.7737
6940 1 34.0259 2.3739 40.3563
6941 1 32.4433 0.7913 41.9389
6942 1 34.0259 2.3739 43.5215
6943 1 32.4433 0.7913 45.1041
6944 1 34.0259 2.3739 46.6867
6945 1 32.4433 0.7913 48.2693
6946 1 34.0259 2.3739 49.8519
6947 1 32.4433 3.9565 38.7737
6948 1 34.0259 5.5391 40.3563
6949 1 32.4433 3.9565 41.9389
6950 1 34.0259 5.5391 43.5215
6951 1 32.4433 3.9565 45.1041
6952 1 34.0259 5.5391 46.6867
6953 1 32.4433 3.9565 48.2693
6954 1 34.0259 5.5391 49.8519
6955 1 32.4433 7.1217 38.7737
6956 1 34.0259 8.7043 40.3563
6957 1 32.4433 7.1217 41.9389
6958 1 34.0259 8.7043 43.5215
6959 1 32.4433 7.1217 45.1041
6960 1 34.0259 8.7043 46.6867
6961 1 32.4433 7.1217 48.2693
6962 1 34.0259 8.7043 49.8519
6963 1 32.4433 10.2869 38.7737
6964 1 34.0259 11.8695 40.3563
6965 1 32.4433 10.2869 41.9389
6966 1 34.0259 11.8695 43.5215
6967 1 32.4433 10.2869 45.1041
6968 1 34.0259 11.8695 46.6867
6969 1 32.4433 10.2869 48.2693
6970 1 34.0259 11.8695 49.8519
6971 1 32.4433 13.4521 38.7737
6972 1 34.0259 15.0347 40.3563
6973 1 32.4433 13.4521 41.9389
6974 1 34.0259 15.0347 43.5215
6975 1 32.4433 13.4521 45.1041
6976 1 34.0259 15.0347 46.6867
6977 1 32.4433 13.4521 48.2693
6978 1 34.0259 15.0347 49.8519
6979 1 32.4433 16.6173 38.7737
6980 1 34.0259 18.1999 40.3563
6981 1 32.4433 16.6173 41.9389
6982 1 34.0259 18.1999 43.5215
6983 1 32.4433 16.6173 45.1041
6984 1 34.0259 18.1999 46.6867
6985 1 32.4433 16.6173 48.2693
6986 1 34.0259 18.1999 49.8519
6987 1 32.4433 19.7825 38.7737
6988 1 34.0259 21.3651 40.3563
6989 1 32.4433 19.7825 41.9389
6990 1 34.0259 21.3651 43.5215
6991 1 32.4433 19.7825 45.1041
6992 1 34.0259 21.3651 46.6867
6993 1 32.4433 19.7825 48.2693
6994 1 34.0259 21.3651 49.8519
6995 1 32.4433 22.9477 38.7737
6996 1 34.0259 24.5303 40.3563
6997 1 32.4433 22.9477 41.9389
6998 1 34.0259 24.5303 43.5215
6999 1 32.4433 22.9477 45.1041
7000 1 34.0259 24.5303 46.6867
7001 1 32.4433 22.9477 48.2693
7002 1 34.0259 24.5303 49.8519
7003 1 32.4433 26.1129 38.7737
7004 1 34.0259 27.6955 40.3563
7005 1 32.4433 26.1129 41.9389
7006 1 34.0259 27.6955 43.5215
7007 1 32.4433 26.1129 45.1041
7008 1 34.0259 27.6955 46.6867
7009 1 32.4433 26.1129 48.2693
7010 1 34.0259 27.6955 49.8519
7011 1 32.4433 29.2781 38.7737
7012 1 34.0259 30.8607 40.3563
7013 1 32.4433 29.2781 41.9389
7014 1 34.0259 30.8607 43.5215
7015 1 32.4433 29.2781 45.1041
7016 1 34.0259 30.8607 46.6867
7017 1 32.4433 29.2781 48.2693
7018 1 34.0259 30.8607 49.8519
7019 1 32.4433 32.4433 38.7737
7020 1 34.0259 34.0259 40.3563
7021 1 32.4433 32.4433 41.9389
7022 1 34.0259 34.0259 43.5215
7023 1 32.4433 32.4433 45.1041
7024 1 34.0259 34.0259 46.6867
7025 1 32.4433 32.4433 48.2693
7026 1 34.0259 34.0259 49.8519
7027 1 32.4433 35.6085 38.7737
7028 1 34.0259 37.1911 40.3563
7029 1 32.4433 35.6085 41.9389
7030 1 34.0259 37.1911 43.5215
7031 1 32.4433 35.6085 45.1041
7032 1 34.0259 37.1911 46.6867
7033 1 32.4433 35.6085 48.2693
7034 1 34.0259 37.1911 49.8519
7035 1 32.4433 38.7737 38.7737
7036 1 34.0259 40.3563 40.3563
7037 1 32.4433 38.7737 41.9389
7038 1 34.0259 40.3563 43.5215
7039 1 32.4433 38.7737 45.1041
7040 1 34.0259 40.3563 46.6867
7041 1 32.4433 38.7737 48.2693
7042 1 34.0259 40.3563 49.8519
7043 1 32.4433 41.9389 38.7737
7044 1 34.0259 43.5215 40.3563
7045 1 32.4433 41.9389 41.9389
7046 1 34.0259 43.5215 43.5215
7047 1 32.4433 41.9389 45.1041
7048 1 34.0259 43.5215 46.6867
7049 1 32.4433 41.9389 48.2693
7050 1 34.0259 43.5215 49.8519
7051 1 32.4433 45.1041 38.7737
7052 1 34.0259 46.6867 40.3563
7053 1 32.4433 45.1041 41.9389
7054 1 34.0259 46.6867 43.5215
7055 1 32.4433 45.1041 45.1041
7056 1 34.0259 46.6867 46.6867
7057 1 32.4433 45.1041 48.2693
7058 1 34.0259 46.6867 49.8519
7059 1 32.4433 48.2693 38.7737
7060 1 34.0259 49.8519 40.3563
7061 1 32.4433 48.2693 41.9389
7062 1 34.0259 49.8519 43.5215
7063 1 32.4433 48.2693 45.1041
7064 1 34.0259 49.8519 46.6867
7065 1 32.4433 48.2693 48.2693
7066 1 34.0259 49.8519 49.8519
7067 1 35.6085 0.7913 38.7737
7068 1 37.1911 2.3739 40.3563
7069 1 35.6085 0.7913 41.9389
7070 1 37.1911 2.3739 43.5215
7071 1 35.6085 0.7913 45.1041
7072 1 37.1911 2.3739 46.6867
7073 1 35.6085 0.7913 48.2693
7074 1 37.1911 2.3739 49.8519
7075 1 35.6085 3.9565 38.7737
7076 1 37.1911 5.5391 40.3563
7077 1 35.6085 3.9565 41.9389
7078 1 37.1911 5.5391 43.5215
7079 1 35.6085 3.9565 45.1041
7080 1 37.1911 5.5391 46.6867
7081 1 35.6085 3.9565 48.2693
7082 1 37.1911 5.5391 49.8519
7083 1 35.6085 7.1217 38.7737
7084 1 37.1911 8.7043 40.3563
7085 1 35.6085 7.1217 41.9389
7086 1 37.1911 8.7043 43.5215
7087 1 35.6085 7.1217 45.1041
7088 1 37.1911 8.7043 46.6867
7089 1 35.6085 7.1217 48.2693
7090 1 37.1911 8.7043 49.8519
7091 1 35.6085 10.2869 38.7737
7092 1 37.1911 11.8695 40.3563
7093 1 35.6085 10.2869 41.9389
7094 1 37.1911 11.8695 43.5215
7095 1 35.6085 10.2869 45.1041
7096 1 37.1911 11.8695 46.6867
7097 1 35.6085 10.2869 48.2693
7098 1 37.1911 11.8695 49.8519
7099 1 35.6085 13.4521 38.7737
7100 1 37.1911 15.0347 40.3563
7101 1 35.6085 13.4521 41.9389
7102 1 37.1911 15.0347 43.5215
7103 1 35.6085 13.4521 45.1041
7104 1 37.1911 15.0347 46.6867
7105 1 35.6085 13.4521 48.2693
7106 1 37.1911 15.0347 49.8519
7107 1 35.6085 16.6173 38.7737
7108 1 37.1911 18.1999 40.3563
7109 1 35.6085 16.6173 41.9389
7110 1 37.1911 18.1999 43.5215
7111 1 35.6085 16.6173 45.1041
7112 1 37.1911 18.1999 46.6867
7113 1 35.6085 16.6173 48.2693
7114 1 37.1911 18.1999 49.8519
7115 1 35.6085 19.7825 38.7737
7116 1 37.1911 21.3651 40.3563
7117 1 35.6085 19.7825 41.9389
7118 1 37.1911 21.3651 43.5215
7119 1 35.6085 19.7825 45.1041
7120 1 37.1911 21.3651 46.6867
7121 1 35.6085 19.7825 48.2693
7122 1 37.1911 21.3651 49.8519
7123 1 35.6085 22.9477 38.7737
7124 1 37.1911 24.5303 40.3563
7125 1 35.6085 22.9477 41.9389
7126 1 37.1911 24.5303 43.5215
7127 1 35.6085 22.9477 45.1041
7128 1 37.1911 24.5303 46.6867
7129 1 35.6085 22.9477 48.2693
7130 1 37.1911 24.5303 49.8519
7131 1 35.6085 26.1129 38.7737
7132 1 37.1911 27.6955 40.3563
7133 1 35.6085 26.1129 41.9389
7134 1 37.1911 27.6955 43.5215
7135 1 35.6085 26.1129 45.1041
7136 1 37.1911 27.6955 46.6867
7137 1 35.6085 26.1129 48.2693
7138 1 37.1911 27.6955 49.8519
7139 1 35.6085 29.2781 38.7737
7140 1 37.1911 30.8607 40.3563
7141 1 35.6085 29.2781 41.9389
7142 1 37.1911 30.8607 43.5215
7143 1 35.6085 29.2781 45.1041
7144 1 37.1911 30.8607 46.6867
7145 1 35.6085 29.2781 48.2693
7146 1 37.1911 30.8607 49.8519
7147 1 35.6085 32.4433 38.7737
7148 1 37.1911 34.0259 40.3563
7149 1 35.6085 32.4433 41.9389
7150 1 37.1911 34.0259 43.5215
7151 1 35.6085 32.4433 45.1041
7152 1 37.1911 34.0259 46.6867
7153 1 35.6085 32.4433 48.2693
7154 1 37.1911 34.0259 49.8519
7155 1 35.6085 35.6085 38.7737
7156 1 37.1911 37.1911 40.3563
7157 1 35.6085 35.6085 41.9389
7158 1 37.1911 37.1911 43.5215
7159 1 35.6085 35.6085 45.1041
7160 1 37.1911 37.1911 46.6867
7161 1 35.6085 35.6085 48.2693
7162 1 37.1911 37.1911 49.8519
7163 1 35.6085 38.7737 38.7737
7164 1 37.1911 40.3563 40.3563
7165 1 35.6085 38.7737 41.9389
7166 1 37.1911 40.3563 43.5215
7167 1 35.6085 38.7737 45.1041
7168 1 37.1911 40.3563 46.6867
7169 1 35.6085 38.7737 48.2693
7170 1 37.1911 40.3563 49.8519
7171 1 35.6085 41.9389 38.7737
7172 1 37.1911 43.5215 40.3563
7173 1 35.6085 41.9389 41.9389
7174 1 37.1911 43.5215 43.5215
7175 1 35.6085 41.9389 45.1041
7176 1 37.1911 43.5215 46.6867
7177 1 35.6085 41.9389 48.2693
7178 1 37.1911 43.5215 49.8519
7179 1 35.6085 45.1041 38.7737
7180 1 37.1911 46.6867 40.3563
7181 1 35.6085 45.1041 41.9389
7182 1 37.1911 46.6867 43.5215
7183 1 35.6085 45.1041 45.1041
7184 1 37.1911 46.6867 46.6867
7185 1 35.6085 45.1041 48.2693
7186 1 37.1911 46.6867 49.8519
7187 1 35.6085 48.2693 38.7737
7188 1 37.1911 49.8519 40.3563
7189 1 35.6085 48.2693 41.9389
7190 1 37.1911 49.8519 43.5215
7191 1 35.6085 48.2693 45.1041
7192 1 37.1911 49.8519 46.6867
7193 1 35.6085 48.2693 48.2693
7194 1 37.1911 49.8519 49.8519
7195 1 13.4521 0.7913 10.2869
7196 1 15.0347 2.3739 11.8695
7197 1 13.4521 0.7913 13.4521
7198 1 15.0347 2.3739 15.0347
7199 1 13.4521 0.7913 16.6173
7200 1 15.0347 2.3739 18.1999
7201 1 13.4521 0.7913 19.7825
7202 1 15.0347 2.3739 21.3651
7203 1 13.4521 0.7913 22.9477
7204 1 15.0347 2.3739 24.5303
7205 1 13.4521 0.7913 26.1129
7206 1 15.0347 2.3739 27.6955
7207 1 13.4521 0.7913 29.2781
7208 1 15.0347 2.3739 30.8607
7209 1 13.4521 0.7913 32.4433
7210 1 15.0347 2.3739 34.0259
7211 1 13.4521 0.7913 35.6085
7212 1 15.0347 2.3739 37.1911
7213 1 13.4521 3.9565 10.2869
7214 1 15.0347 5.5391 11.8695
7215 1 13.4521 3.9565 13.4521
7216 1 15.0347 5.5391 15.0347
7217 1 13.4521 3.9565 16.6173
7218 1 15.0347 5.5391 18.1999
7219 1 13.4521 3.9565 19.7825
7220 1 15.0347 5.5391 21.3651
7221 1 13.4521 3.9565 22.9477
7222 1 15.0347 5.5391 24.5303
7223 1 13.4521 3.9565 26.1129
7224 1 15.0347 5.5391 27.6955
7225 1 13.4521 3.9565 29.2781
7226 1 15.0347 5.5391 30.8607
7227 1 13.4521 3.9565 32.4433
7228 1 15.0347 5.5391 34.0259
7229 1 13.4521 3.9565 35.6085
7230 1 15.0347 5.5391 37.1911
7231 1 13.4521 7.1217 10.2869
7232 1 15.0347 8.7043 11.8695
7233 1 13.4521 7.1217 13.4521
7234 1 15.0347 8.7043 15.0347
7235 1 13.4521 7.1217 16.6173
7236 1 15.0347 8.7043 18.1999
7237 1 13.4521 7.1217 19.7825
7238 1 15.0347 8.7043 21.3651
7239 1 13.4521 7.1217 22.9477
7240 1 15.0347 8.7043 24.5303
7241 1 13.4521 7.1217 26.1129
7242 1 15.0347 8.7043 27.6955
7243 1 13.4521 7.1217 29.2781
7244 1 15.0347 8.7043 30.8607
7245 1 13.4521 7.1217 32.4433
7246 1 15.0347 8.7043 34.0259
7247 1 13.4521 7.1217 35.6085
7248 1 15.0347 8.7043 37.1911
7249 1 16.6173 0.7913 10.2869
7250 1 18.1999 2.3739 11.8695
7251 1 16.6173 0.7913 13.4521
7252 1 18.1999 2.3739 15.0347
7253 1 16.6173 0.7913 16.6173
7254 1 18.1999 2.3739 18.1999
7255 1 16.6173 0.7913 19.7825
7256 1 18.1999 2.3739 21.3651
7257 1 16.6173 0.7913 22.9477
7258 1 18.1999 2.3739 24.5303
7259 1 16.6173 0.7913 26.1129
7260 1 18.1999 2.3739 27.6955
7261 1 16.6173 0.7913 29.2781
7262 1 18.1999 2.3739 30.8607
7263 1 16.6173 0.7913 32.4433
7264 1 18.1999 2.3739 34.0259
7265 1 16.6173 0.7913 35.6085
7266 1 18.1999 2.3739 37.1911
7267 1 16.6173 3.9565 10.2869
7268 1 18.1999 5.5391 11.8695
7269 1 16.6173 3.9565 13.4521
7270 1 18.1999 5.5391 15.0347
7271 1 16.6173 3.9565 16.6173
7272 1 18.1999 5.5391 18.1999
7273 1 16.6173 3.9565 19.7825
7274 1 18.1999 5.5391 21.3651
7275 1 16.6173 3.9565 22.9477
7276 1 18.1999 5.5391 24.5303
7277 1 16.6173 3.9565 26.1129
7278 1 18.1999 5.5391 27.6955
7279 1 16.6173 3.9565 29.2781
7280 1 18.1999 5.5391 30.8607
7281 1 16.6173 3.9565 32.4433
7282 1 18.1999 5.5391 34.0259
7283 1 16.6173 3.9565 35.6085
7284 1 18.1999 5.5391 37.1911
7285 1 16.6173 7.1217 10.2869
7286 1 18.1999 8.7043 11.8695
7287 1 16.6173 7.1217 13.4521
7288 1 18.1999 8.7043 15.0347
7289 1 16.6173 7.1217 16.6173
7290 1 18.1999 8.7043 18.1999
7291 1 16.6173 7.1217 19.7825
7292 1 18.1999 8.7043 21.3651
7293 1 16.6173 7.1217 22.9477
7294 1 18.1999 8.7043 24.5303
7295 1 16.6173 7.1217 26.1129
7296 1 18.1999 8.7043 27.6955
7297 1 16.6173 7.1217 29.2781
7298 1 18.1999 8.7043 30.8607
7299 1 16.6173 7.1217 32.4433
7300 1 18.1999 8.7043 34.0259
7301 1 16.6173 7.1217 35.6085
7302 1 18.1999 8.7043 37.1911
7303 1 19.7825 0.7913 10.2869
7304 1 21.3651 2.3739 11.8695
7305 1 19.7825 0.7913 13.4521
7306 1 21.3651 2.3739 15.0347
7307 1 19.7825 0.7913 16.6173
7308 1 21.3651 2.3739 18.1999
7309 1 19.7825 0.7913 19.7825
7310 1 21.3651 2.3739 21.3651
7311 1 19.7825 0.7913 22.9477
7312 1 21.3651 2.3739 24.5303
7313 1 19.7825 0.7913 26.1129
7314 1 21.3651 2.3739 27.6955
7315 1 19.7825 0.7913 29.2781
7316 1 21.3651 2.3739 30.8607
7317 1 19.7825 0.7913 32.4433
7318 1 21.3651 2.3739 34.0259
7319 1 19.7825 0.7913 35.6085
7320 1 21.3651 2.3739 37.1911
7321 1 19.7825 3.9565 10.2869
7322 1 21.3651 5.5391 11.8695
7323 1 19.7825 3.9565 13.4521
7324 1 21.3651 5.5391 15.0347
7325 1 19.7825 3.9565 16.6173
7326 1 21.3651 5.5391 18.1999
7327 1 19.7825 3.9565 19.7825
7328 1 21.3651 5.5391 21.3651
7329 1 19.7825 3.9565 22.9477
7330 1 21.3651 5.5391 24.5303
7331 1 19.7825 3.9565 26.1129
7332 1 21.3651 5.5391 27.6955
7333 1 19.7825 3.9565 29.2781
7334 1 21.3651 5.5391 30.8607
7335 1 19.7825 3.9565 32.4433
7336 1 21.3651 5.5391 34.0259
7337 1 19.7825 3.9565 35.6085
7338 1 21.3651 5.5391 37.1911
7339 1 19.7825 7.1217 10.2869
7340 1 21.3651 8.7043 11.8695
7341 1 19.7825 7.1217 13.4521
7342 1 21.3651 8.7043 15.0347
7343 1 19.7825 7.1217 16.6173
7344 1 21.3651 8.7043 18.1999
7345 1 19.7825 7.1217 19.7825
7346 1 21.3651 8.7043 21.3651
7347 1 19.7825 7.1217 22.9477
7348 1 21.3651 8.7043 24.5303
7349 1 19.7825 7.1217 26.1129
7350 1 21.3651 8.7043 27.6955
7351 1 19.7825 7.1217 29.2781
7352 1 21.3651 8.7043 30.8607
7353 1 19.7825 7.1217 32.4433
7354 1 21.3651 8.7043 34.0259
7355 1 19.7825 7.1217 35.6085
7356 1 21.3651 8.7043 37.1911
7357 1 22.9477 0.7913 10.2869
7358 1 24.5303 2.3739 11.8695
7359 1 22.9477 0.7913 13.4521
7360 1 24.5303 2.3739 15.0347
7361 1 22.9477 0.7913 16.6173
7362 1 24.5303 2.3739 18.1999
7363 1 22.9477 0.7913 19.7825
7364 1 24.5303 2.3739 21.3651
7365 1 22.9477 0.7913 22.9477
7366 1 24.5303 2.3739 24.5303
7367 1 22.9477 0.7913 26.1129
7368 1 24.5303 2.3739 27.6955
7369 1 22.9477 0.7913 29.2781
7370 1 24.5303 2.3739 30.8607
7371 1 22.9477 0.7913 32.4433
7372 1 24.5303 2.3739 34.0259
7373 1 22.9477 0.7913 35.6085
7374 1 24.5303 2.3739 37.1911
7375 1 22.9477 3.9565 10.2869
7376 1 24.5303 5.5391 11.8695
7377 1 22.9477 3.9565 13.4521
7378 1 24.5303 5.5391 15.0347
7379 1 22.9477 3.9565 16.6173
7380 1 24.5303 5.5391 18.1999
7381 1 22.9477 3.9565 19.7825
7382 1 24.5303 5.5391 21.3651
7383 1 22.9477 3.9565 22.9477
7384 1 24.5303 5.5391 24.5303
7385 1 22.9477 3.9565 26.1129
7386 1 24.5303 5.5391 27.6955
7387 1 22.9477 3.9565 29.2781
7388 1 24.5303 5.5391 30.8607
7389 1 22.9477 3.9565 32.4433
7390 1 24.5303 5.5391 34.0259
7391 1 22.9477 3.9565 35.6085
7392 1 24.5303 5.5391 37.1911
7393 1 22.9477 7.1217 10.2869
7394 1 24.5303 8.7043 11.8695
7395 1 22.9477 7.1217 13.4521
7396 1 24.5303 8.7043 15.0347
7397 1 22.9477 7.1217 16.6173
7398 1 24.5303 8.7043 18.1999
7399 1 22.9477 7.1217 19.7825
7400 1 24.5303 8.7043 21.3651
7401 1 22.9477 7.1217 22.9477
7402 1 24.5303 8.7043 24.5303
7403 1 22.9477 7.1217 26.1129
7404 1 24.5303 8.7043 27.6955
7405 1 22.9477 7.1217 29.2781
7406 1 24.5303 8.7043 30.8607
7407 1 22.9477 7.1217 32.4433
7408 1 24.5303 8.7043 34.0259
7409 1 22.9477 7.1217 35.6085
7410 1 24.5303 8.7043 37.1911
7411 1 26.1129 0.7913 10.2869
7412 1 27.6955 2.3739 11.8695
7413 1 26.1129 0.7913 13.4521
7414 1 27.6955 2.3739 15.0347
7415 1 26.1129 0.7913 16.6173
7416 1 27.6955 2.3739 18.1999
7417 1 26.1129 0.7913 19.7825
7418 1 27.6955 2.3739 21.3651
7419 1 26.1129 0.7913 22.9477
7420 1 27.6955 2.3739 24.5303
7421 1 26.1129 0.7913 26.1129
7422 1 27.6955 2.3739 27.6955
7423 1 26.1129 0.7913 29.2781
7424 1 27.6955 2.3739 30.8607
7425 1 26.1129 0.7913 32.4433
7426 1 27.6955 2.3739 34.0259
7427 1 26.1129 0.7913 35.6085
7428 1 27.6955 2.3739 37.1911
7429 1 26.1129 3.9565 10.2869
7430 1 27.6955 5.5391 11.8695
7431 1 26.1129 3.9565 13.4521
7432 1 27.6955 5.5391 15.0347
7433 1 26.1129 3.9565 16.6173
7434 1 27.6955 5.5391 18.1999
7435 1 26.1129 3.9565 19.7825
7436 1 27.6955 5.5391 21.3651
7437 1 26.1129 3.9565 22.9477
7438 1 27.6955 5.5391 24.5303
7439 1 26.1129 3.9565 26.1129
7440 1 27.6955 5.5391 27.6955
7441 1 26.1129 3.9565 29.2781
7442 1 27.6955 5.5391 30.8607
7443 1 26.1129 3.9565 32.4433
7444 1 27.6955 5.5391 34.0259
7445 1 26.1129 3.9565 35.6085
7446 1 27.6955 5.5391 37.1911
7447 1 26.1129 7.1217 10.2869
7448 1 27.6955 8.7043 11.8695
7449 1 26.1129 7.1217 13.4521
7450 1 27.6955 8.7043 15.0347
7451 1 26.1129 7.1217 16.6173
7452 1 27.6955 8.7043 18.1999
7453 1 26.1129 7.1217 19.7825
7454 1 27.6955 8.7043 21.3651
7455 1 26.1129 7.1217 22.9477
7456 1 27.6955 8.7043 24.5303
7457 1 26.1129 7.1217 26.1129
7458 1 27.6955 8.7043 27.6955
7459 1 26.1129 7.1217 29.2781
7460 1 27.6955 8.7043 30.8607
7461 1 26.1129 7.1217 32.4433
7462 1 27.6955 8.7043 34.0259
7463 1 26.1129 7.1217 35.6085
7464 1 27.6955 8.7043 37.1911
7465 1 29.2781 0.7913 10.2869
7466 1 30.8607 2.3739 11.8695
7467 1 29.2781 0.7913 13.4521
7468 1 30.8607 2.3739 15.0347
7469 1 29.2781 0.7913 16.6173
7470 1 30.8607 2.3739 18.1999
7471 1 29.2781 0.7913 19.7825
7472 1 30.8607 2.3739 21.3651
7473 1 29.2781 0.7913 22.9477
7474 1 30.8607 2.3739 24.5303
7475 1 29.2781 0.7913 26.1129
7476 1 30.8607 2.3739 27.6955
7477 1 29.2781 0.7913 29.2781
7478 1 30.8607 2.3739 30.8607
7479 1 29.2781 0.7913 32.4433
7480 1 30.8607 2.3739 34.0259
7481 1 29.2781 0.7913 35.6085
7482 1 30.8607 2.3739 37.1911
7483 1 29.2781 3.9565 10.2869
7484 1 30.8607 5.5391 11.8695
7485 1 29.2781 3.9565 13.4521
7486 1 30.8607 5.5391 15.0347
7487 1 29.2781 3.9565 16.6173
7488 1 30.8607 5.5391 18.1999
7489 1 29.2781 3.9565 19.7825
7490 1 30.8607 5.5391 21.3651
7491 1 29.2781 3.9565 22.9477
7492 1 30.8607 5.5391 24.5303
7493 1 29.2781 3.9565 26.1129
7494 1 30.8607 5.5391 27.6955
7495 1 29.2781 3.9565 29.2781
7496 1 30.8607 5.5391 30.8607
7497 1 29.2781 3.9565 32.4433
7498 1 30.8607 5.5391 34.0259
7499 1 29.2781 3.9565 35.6085
7500 1 30.8607 5.5391 37.1911
7501 1 29.2781 7.1217 10.2869
7502 1 30.8607 8.7043 11.8695
7503 1 29.2781 7.1217 13.4521
7504 1 30.8607 8.7043 15.0347
7505 1 29.2781 7.1217 16.6173
7506 1 30.8607 8.7043 18.1999
7507 1 29.2781 7.1217 19.7825
7508 1 30.8607 8.7043 21.3651
7509 1 29.2781 7.1217 22.9477
7510 1 30.8607 8.7043 24.5303
7511 1 29.2781 7.1217 26.1129
7512 1 30.8607 8.7043 27.6955
7513 1 29.2781 7.1217 29.2781
7514 1 30.8607 8.7043 30.8607
7515 1 29.2781 7.1217 32.4433
7516 1 30.8607 8.7043 34.0259
7517 1 29.2781 7.1217 35.6085
7518 1 30.8607 8.7043 37.1911
7519 1 32.4433 0.7913 10.2869
7520 1 34.0259 2.3739 11.8695
7521 1 32.4433 0.7913 13.4521
7522 1 34.0259 2.3739 15.0347
7523 1 32.4433 0.7913 16.6173
7524 1 34.0259 2.3739 18.1999
7525 1 32.4433 0.7913 19.7825
7526 1 34.0259 2.3739 21.3651
7527 1 32.4433 0.7913 22.9477
7528 1 34.0259 2.3739 24.5303
7529 1 32.4433 0.7913 26.1129
7530 1 34.0259 2.3739 27.6955
7531 1 32.4433 0.7913 29.2781
7532 1 34.0259 2.3739 30.8607
7533 1 32.4433 0.7913 32.4433
7534 1 34.0259 2.3739 34.0259
7535 1 32.4433 0.7913 35.6085
7536 1 34.0259 2.3739 37.1911
7537 1 32.4433 3.9565 10.2869
7538 1 34.0259 5.5391 11.8695
7539 1 32.4433 3.9565 13.4521
7540 1 34.0259 5.5391 15.0347
7541 1 32.4433 3.9565 16.6173
7542 1 34.0259 5.5391 18.1999
7543 1 32.4433 3.9565 19.7825
7544 1 34.0259 5.5391 21.3651
7545 1 32.4433 3.9565 22.9477
7546 1 34.0259 5.5391 24.5303
7547 1 32.4433 3.9565 26.1129
7548 1 34.0259 5.5391 27.6955
7549 1 32.4433 3.9565 29.2781
7550 1 34.0259 5.5391 30.8607
7551 1 32.4433 3.9565 32.4433
7552 1 34.0259 5.5391 34.0259
7553 1 32.4433 3.9565 35.6085
7554 1 34.0259 5.5391 37.1911
7555 1 32.4433 7.1217 10.2869
7556 1 34.0259 8.7043 11.8695
7557 1 32.4433 7.1217 13.4521
7558 1 34.0259 8.7043 15.0347
7559 1 32.4433 7.1217 16.6173
7560 1 34.0259 8.7043 18.1999
7561 1 32.4433 7.1217 19.7825
7562 1 34.0259 8.7043 21.3651
7563 1 32.4433 7.1217 22.9477
7564 1 34.0259 8.7043 24.5303
7565 1 32.4433 7.1217 26.1129
7566 1 34.0259 8.7043 27.6955
7567 1 32.4433 7.1217 29.2781
7568 1 34.0259 8.7043 30.8607
7569 1 32.4433 7.1217 32.4433
7570 1 34.0259 8.7043 34.0259
7571 1 32.4433 7.1217 35.6085
7572 1 34.0259 8.7043 37.1911
7573 1 35.6085 0.7913 10.2869
7574 1 37.1911 2.3739 11.8695
7575 1 35.6085 0.7913 13.4521
7576 1 37.1911 2.3739 15.0347
7577 1 35.6085 0.7913 16.6173
7578 1 37.1911 2.3739 18.1999
7579 1 35.6085 0.7913 19.7825
7580 1 37.1911 2.3739 21.3651
7581 1 35.6085 0.7913 22.9477
7582 1 37.1911 2.3739 24.5303
7583 1 35.6085 0.7913 26.1129
7584 1 37.1911 2.3739 27.6955
7585 1 35.6085 0.7913 29.2781
7586 1 37.1911 2.3739 30.8607
7587 1 35.6085 0.7913 32.4433
7588 1 37.1911 2.3739 34.0259
7589 1 35.6085 0.7913 35.6085
7590 1 37.1911 2.3739 37.1911
7591 1 35.6085 3.9565 10.2869
7592 1 37.1911 5.5391 11.8695
7593 1 35.6085 3.9565 13.4521
7594 1 37.1911 5.5391 15.0347
7595 1 35.6085 3.9565 16.6173
7596 1 37.1911 5.5391 18.1999
7597 1 35.6085 3.9565 19.7825
7598 1 37.1911 5.5391 21.3651
7599 1 35.6085 3.9565 22.9477
7600 1 37.1911 5.5391 24.5303
7601 1 35.6085 3.9565 26.1129
7602 1 37.1911 5.5391 27.6955
7603 1 35.6085 3.9565 29.2781
7604 1 37.1911 5.5391 30.8607
7605 1 35.6085 3.9565 32.4433
7606 1 37.1911 5.5391 34.0259
7607 1 35.6085 3.9565 35.6085
7608 1 37.1911 5.5391 37.1911
7609 1 35.6085 7.1217 10.2869
7610 1 37.1911 8.7043 11.8695
7611 1 35.6085 7.1217 13.4521
7612 1 37.1911 8.7043 15.0347
7613 1 35.6085 7.1217 16.6173
7614 1 37.1911 8.7043 18.1999
7615 1 35.6085 7.1217 19.7825
7616 1 37.1911 8.7043 21.3651
7617 1 35.6085 7.1217 22.9477
7618 1 37.1911 8.7043 24.5303
7619 1 35.6085 7.1217 26.1129
7620 1 37.1911 8.7043 27.6955
7621 1 35.6085 7.1217 29.2781
7622 1 37.1911 8.7043 30.8607
7623 1 35.6085 7.1217 32.4433
7624 1 37.1911 8.7043 34.0259
7625 1 35.6085 7.1217 35.6085
7626 1 37.1911 8.7043 37.1911
7627 1 13.4521 38.7737 10.2869
7628 1 15.0347 40.3563 11.8695
7629 1 13.4521 38.7737 13.4521
7630 1 15.0347 40.3563 15.0347
7631 1 13.4521 38.7737 16.6173
7632 1 15.0347 40.3563 18.1999
7633 1 13.4521 38.7737 19.7825
7634 1 15.0347 40.3563 21.3651
7635 1 13.4521 38.7737 22.9477
7636 1 15.0347 40.3563 24.5303
7637 1 13.4521 38.7737 26.1129
7638 1 15.0347 40.3563 27.6955
7639 1 13.4521 38.7737 29.2781
7640 1 15.0347 40.3563 30.8607
7641 1 13.4521 38.7737 32.4433
7642 1 15.0347 40.3563 34.0259
7643 1 13.4521 38.7737 35.6085
7644 1 15.0347 40.3563 37.1911
7645 1 13.4521 41.9389 10.2869
7646 1 15.0347 43.5215 11.8695
7647 1 13.4521 41.9389 13.4521
7648 1 15.0347 43.5215 15.0347
7649 1 13.4521 41.9389 16.6173
7650 1 15.0347 43.5215 18.1999
7651 1 13.4521 41.9389 19.7825
7652 1 15.0347 43.5215 21.3651
7653 1 13.4521 41.9389 22.9477
7654 1 15.0347 43.5215 24.5303
7655 1 13.4521 41.9389 26.1129
7656 1 15.0347 43.5215 27.6955
7657 1 13.4521 41.9389 29.2781
7658 1 15.0347 43.5215 30.8607
7659 1 13.4521 41.9389 32.4433
7660 1 15.0347 43.5215 34.0259
7661 1 13.4521 41.9389 35.6085
7662 1 15.0347 43.5215 37.1911
7663 1 13.4521 45.1041 10.2869
7664 1 15.0347 46.6867 11.8695
7665 1 13.4521 45.1041 13.4521
7666 1 15.0347 46.6867 15.0347
7667 1 13.4521 45.1041 16.6173
7668 1 15.0347 46.6867 18.1999
7669 1 13.4521 45.1041 19.7825
7670 1 15.0347 46.6867 21.3651
7671 1 13.4521 45.1041 22.9477
7672 1 15.0347 46.6867 24.5303
7673 1 13.4521 45.1041 26.1129
7674 1 15.0347 46.6867 27.6955
7675 1 13.4521 45.1041 29.2781
7676 1 15.0347 46.6867 30.8607
7677 1 13.4521 45.1041 32.4433
7678 1 15.0347 46.6867 34.0259
7679 1 13.4521 45.1041 35.6085
7680 1 15.0347 46.6867 37.1911
7681 1 13.4521 48.2693 10.2869
7682 1 15.0347 49.8519 11.8695
7683 1 13.4521 48.2693 13.4521
7684 1 15.0347 49.8519 15.0347
7685 1 13.4521 48.2693 16.6173
7686 1 15.0347 49.8519 18.1999
7687 1 13.4521 48.2693 19.7825
7688 1 15.0347 49.8519 21.3651
7689 1 13.4521 48.2693 22.9477
7690 1 15.0347 49.8519 24.5303
7691 1 13.4521 48.2693 26.1129
7692 1 15.0347 49.8519 27.6955
7693 1 13.4521 48.2693 29.2781
7694 1 15.0347 49.8519 30.8607
7695 1 13.4521 48.2693 32.4433
7696 1 15.0347 49.8519 34.0259
7697 1 13.4521 48.2693 35.6085
7698 1 15.0347 49.8519 37.1911
7699 1 16.6173 38.7737 10.2869
7700 1 18.1999 40.3563 11.8695
7701 1 16.6173 38.7737 13.4521
7702 1 18.1999 40.3563 15.0347
7703 1 16.6173 38.7737 16.6173
7704 1 18.1999 40.3563 18.1999
7705 1 16.6173 38.7737 19.7825
7706 1 18.1999 40.3563 21.3651
7707 1 16.6173 38.7737 22.9477
7708 1 18.1999 40.3563 24.5303
7709 1 16.6173 38.7737 26.1129
7710 1 18.1999 40.3563 27.6955
7711 1 16.6173 38.7737 29.2781
7712 1 18.1999 40.3563 30.8607
7713 1 16.6173 38.7737 32.4433
7714 1 18.1999 40.3563 34.0259
7715 1 16.6173 38.7737 35.6085
7716 1 18.1999 40.3563 37.1911
7717 1 16.6173 41.9389 10.2869
7718 1 18.1999 43.5215 11.8695
7719 1 16.6173 41.9389 13.4521
7720 1 18.1999 43.5215 15.0347
7721 1 16.6173 41.9389 16.6173
7722 1 18.1999 43.5215 18.1999
7723 1 16.6173 41.9389 19.7825
7724 1 18.1999 43.5215 21.3651
7725 1 16.6173 41.9389 22.9477
7726 1 18.1999 43.5215 24.5303
7727 1 16.6173 41.9389 26.1129
7728 1 18.1999 43.5215 27.6955
7729 1 16.6173 41.9389 29.2781
7730 1 18.1999 43.5215 30.8607
7731 1 16.6173 41.9389 32.4433
7732 1 18.1999 43.5215 34.0259
7733 1 16.6173 41.9389 35.6085
7734 1 18.1999 43.5215 37.1911
7735 1 16.6173 45.1041 10.2869
7736 1 18.1999 46.6867 11.8695
7737 1 16.6173 45.1041 13.4521
7738 1 18.1999 46.6867 15.0347
7739 1 16.6173 45.1041 16.6173
7740 1 18.1999 46.6867 18.1999
7741 1 16.6173 45.1041 19.7825
7742 1 18.1999 46.6867 21.3651
7743 1 16.6173 45.1041 22.9477
7744 1 18.1999 46.6867 24.5303
7745 1 16.6173 45.1041 26.1129
7746 1 18.1999 46.6867 27.6955
7747 1 16.6173 45.1041 29.2781
7748 1 18.1999 46.6867 30.8607
7749 1 16.6173 45.1041 32.4433
7750 1 18.1999 46.6867 34.0259
7751 1 16.6173 45.1041 35.6085
7752 1 18.1999 46.6867 37.1911
7753 1 16.6173 48.2693 10.2869
7754 1 18.1999 49.8519 11.8695
7755 1 16.6173 48.2693 13.4521
7756 1 18.1999 49.8519 15.0347
7757 1 16.6173 48.2693 16.6173
7758 1 18.1999 49.8519 18.1999
7759 1 16.6173 48.2693 19.7825
7760 1 18.1999 49.8519 21.3651
7761 1 16.6173 48.2693 22.9477
7762 1 18.1999 49.8519 24.5303
7763 1 16.6173 48.2693 26.1129
7764 1 18.1999 49.8519 27.6955
7765 1 16.6173 48.2693 29.2781
7766 1 18.1999 49.8519 30.8607
7767 1 16.6173 48.2693 32.4433
7768 1 18.1999 49.8519 34.0259
7769 1 16.6173 48.2693 35.6085
7770 1 18.1999 49.8519 37.1911
7771 1 19.7825 38.7737 10.2869
7772 1 21.3651 40.3563 11.8695
7773 1 19.7825 38.7737 13.4521
7774 1 21.3651 40.3563 15.0347
7775 1 19.7825 38.7737 16.6173
7776 1 21.3651 40.3563 18.1999
7777 1 19.7825 38.7737 19.7825
7778 1 21.3651 40.3563 21.3651
7779 1 19.7825 38.7737 22.9477
7780 1 21.3651 40.3563 24.5303
7781 1 19.7825 38.7737 26.1129
7782 1 21.3651 40.3563 27.6955
7783 1 19.7825 38.7737 29.2781
7784 1 21.3651 40.3563 30.8607
7785 1 19.7825 38.7737 32.4433
7786 1 21.3651 40.3563 34.0259
7787 1 19.7825 38.7737 35.6085
7788 1 21.3651 40.3563 37.1911
7789 1 19.7825 41.9389 10.2869
7790 1 21.3651 43.5215 11.8695
7791 1 19.7825 41.9389 13.4521
7792 1 21.3651 43.5215 15.0347
7793 1 19.7825 41.9389 16.6173
7794 1 21.3651 43.5215 18.1999
7795 1 19.7825 41.9389 19.7825
7796 1 21.3651 43.5215 21.3651
7797 1 19.7825 41.9389 22.9477
7798 1 21.3651 43.5215 24.5303
7799 1 19.7825 41.9389 26.1129
7800 1 21.3651 43.5215 27.6955
7801 1 19.7825 41.9389 29.2781
7802 1 21.3651 43.5215 30.8607
7803 1 19.7825 41.9389 32.4433
7804 1 21.3651 43.5215 34.0259
7805 1 19.7825 41.9389 35.6085
7806 1 21.3651 43.5215 37.1911
7807 1 19.7825 45.1041 10.2869
7808 1 21.3651 46.6867 11.8695
7809 1 19.7825 45.1041 13.4521
7810 1 21.3651 46.6867 15.0347
7811 1 19.7825 45.1041 16.6173
7812 1 21.3651 46.6867 18.1999
7813 1 19.7825 45.1041 19.7825
7814 1 21.3651 46.6867 21.3651
7815 1 19.7825 45.1041 22.9477
7816 1 21.3651 46.6867 24.5303
7817 1 19.7825 45.1041 26.1129
7818 1 21.3651 46.6867 27.6955
7819 1 19.7825 45.1041 29.2781
7820 1 21.3651 46.6867 30.8607
7821 1 19.7825 45.1041 32.4433
7822 1 21.3651 46.6867 34.0259
7823 1 19.7825 45.1041 35.6085
7824 1 21.3651 46.6867 37.1911
7825 1 19.7825 48.2693 10.2869
7826 1 21.3651 49.8519 11.8695
7827 1 19.7825 48.2693 13.4521
7828 1 21.3651 49.8519 15.0347
7829 1 19.7825 48.2693 16.6173
7830 1 21.3651 49.8519 18.1999
7831 1 19.7825 48.2693 19.7825
7832 1 21.3651 49.8519 21.3651
7833 1 19.7825 48.2693 22.9477
7834 1 21.3651 49.8519 24.5303
7835 1 19.7825 48.2693 26.1129
7836 1 21.3651 49.8519 27.6955
7837 1 19.7825 48.2693 29.2781
7838 1 21.3651 49.8519 30.8607
7839 1 19.7825 48.2693 32.4433
7840 1 21.3651 49.8519 34.0259
7841 1 19.7825 48.2693 35.6085
7842 1 21.3651 49.8519 37.1911
7843 1 22.9477 38.7737 10.2869
7844 1 24.5303 40.3563 11.8695
7845 1 22.9477 38.7737 13.4521
7846 1 24.5303 40.3563 15.0347
7847 1 22.9477 38.7737 16.6173
7848 1 24.5303 40.3563 18.1999
7849 1 22.9477 38.7737 19.7825
7850 1 24.5303 40.3563 21.3651
7851 1 22.9477 38.7737 22.9477
7852 1 24.5303 40.3563 24.5303
7853 1 22.9477 38.7737 26.1129
7854 1 24.5303 40.3563 27.6955
7855 1 22.9477 38.7737 29.2781
7856 1 24.5303 40.3563 30.8607
7857 1 22.9477 38.7737 32.4433
7858 1 24.5303 40.3563 34.0259
7859 1 22.9477 38.7737 35.6085
7860 1 24.5303 40.3563 37.1911
7861 1 22.9477 41.9389 10.2869
7862 1 24.5303 43.5215 11.8695
7863 1 22.9477 41.9389 13.4521
7864 1 24.5303 43.5215 15.0347
7865 1 22.9477 41.9389 16.6173
7866 1 24.5303 43.5215 18.1999
7867 1 22.9477 41.9389 19.7825
7868 1 24.5303 43.5215 21.3651
7869 1 22.9477 41.9389 22.9477
7870 1 24.5303 43.5215 24.5303
7871 1 22.9477 41.9389 26.1129
7872 1 24.5303 43.5215 27.6955
7873 1 22.9477 41.9389 29.2781
7874 1 24.5303 43.5215 30.8607
7875 1 22.9477 41.9389 32.4433
7876 1 24.5303 43.5215 34.0259
7877 1 22.9477 41.9389 35.6085
7878 1 24.5303 43.5215 37.1911
7879 1 22.9477 45.1041 10.2869
7880 1 24.5303 46.6867 11.8695
7881 1 22.9477 45.1041 13.4521
7882 1 24.5303 46.6867 15.0347
7883 1 22.9477 45.1041 16.6173
7884 1 24.5303 46.6867 18.1999
7885 1 22.9477 45.1041 19.7825
7886 1 24.5303 46.6867 21.3651
7887 1 22.9477 45.1041 22.9477
7888 1 24.5303 46.6867 24.5303
7889 1 22.9477 45.1041 26.1129
7890 1 24.5303 46.6867 27.6955
7891 1 22.9477 45.1041 29.2781
7892 1 24.5303 46.6867 30.8607
7893 1 22.9477 45.1041 32.4433
7894 1 24.5303 46.6867 34.0259
7895 1 22.9477 45.1041 35.6085
7896 1 24.5303 46.6867 37.1911
7897 1 22.9477 48.2693 10.2869
7898 1 24.5303 49.8519 11.8695
7899 1 22.9477 48.2693 13.4521
7900 1 24.5303 49.8519 15.0347
7901 1 22.9477 48.2693 16.6173
7902 1 24.5303 49.8519 18.1999
7903 1 22.9477 48.2693 19.7825
7904 1 24.5303 49.8519 21.3651
7905 1 22.9477 48.2693 22.9477
7906 1 24.5303 49.8519 24.5303
7907 1 22.9477 48.2693 26.1129
7908 1 24.5303 49.8519 27.6955
7909 1 22.9477 48.2693 29.2781
7910 1 24.5303 49.8519 30.8607
7911 1 22.9477 48.2693 32.4433
7912 1 24.5303 49.8519 34.0259
7913 1 22.9477 48.2693 35.6085
7914 1 24.5303 49.8519 37.1911
7915 1 26.1129 38.7737 10.2869
7916 1 27.6955 40.3563 11.8695
7917 1 26.1129 38.7737 13.4521
7918 1 27.6955 40.3563 15.0347
7919 1 26.1129 38.7737 16.6173
7920 1 27.6955 40.3563 18.1999
7921 1 26.1129 38.7737 19.7825
7922 1 27.6955 40.3563 21.3651
7923 1 26.1129 38.7737 22.9477
7924 1 27.6955 40.3563 24.5303
7925 1 26.1129 38.7737 26.1129
7926 1 27.6955 40.3563 27.6955
7927 1 26.1129 38.7737 29.2781
7928 1 27.6955 40.3563 30.8607
7929 1 26.1129 38.7737 32.4433
7930 1 27.6955 40.3563 34.0259
7931 1 26.1129 38.7737 35.6085
7932 1 27.6955 40.3563 37.1911
7933 1 26.1129 41.9389 10.2869
7934 1 27.6955 43.5215 11.8695
7935 1 26.1129 41.9389 13.4521
7936 1 27.6955 43.5215 15.0347
7937 1 26.1129 41.9389 16.6173
7938 1 27.6955 43.5215 18.1999
7939 1 26.1129 41.9389 19.7825
7940 1 27.6955 43.5215 21.3651
7941 1 26.1129 41.9389 22.9477
7942 1 27.6955 43.5215 24.5303
7943 1 26.1129 41.9389 26.1129
7944 1 27.6955 43.5215 27.6955
7945 1 26.1129 41.9389 29.2781
7946 1 27.6955 43.5215 30.8607
7947 1 26.1129 41.9389 32.4433
7948 1 27.6955 43.5215 34.0259
7949 1 26.1129 41.9389 35.6085
7950 1 27.6955 43.5215 37.1911
7951 1 26.1129 45.1041 10.2869
7952 1 27.6955 46.6867 11.8695
7953 1 26.1129 45.1041 13.4521
7954 1 27.6955 46.6867 15.0347
7955 1 26.1129 45.1041 16.6173
7956 1 27.6955 46.6867 18.1999
7957 1 26.1129 45.1041 19.7825
7958 1 27.6955 46.6867 21.3651
7959 1 26.1129 45.1041 22.9477
7960 1 27.6955 46.6867 24.5303
7961 1 26.1129 45.1041 26.1129
7962 1 27.6955 46.6867 27.6955
7963 1 26.1129 45.1041 29.2781
7964 1 27.6955 46.6867 30.8607
7965 1 26.1129 45.1041 32.4433
7966 1 27.6955 46.6867 34.0259
7967 1 26.1129 45.1041 35.6085
7968 1 27.6955 46.6867 37.1911
7969 1 26.1129 48.2693 10.2869
7970 1 27.6955 49.8519 11.8695
7971 1 26.1129 48.2693 13.4521
7972 1 27.6955 49.8519 15.0347
7973 1 26.1129 48.2693 16.6173
7974 1 27.6955 49.8519 18.1999
7975 1 26.1129 48.2693 19.7825
7976 1 27.6955 49.8519 21.3651
7977 1 26.1129 48.2693 22.9477
7978 1 27.6955 49.8519 24.5303
7979 1 26.1129 48.2693 26.1129
7980 1 27.6955 49.8519 27.6955
7981 1 26.1129 48.2693 29.2781
7982 1 27.6955 49.8519 30.8607
7983 1 26.1129 48.2693 32.4433
7984 1 27.6955 49.8519 34.0259
7985 1 26.1129 48.2693 35.6085
7986 1 27.6955 49.8519 37.1911
7987 1 29.2781 38.7737 10.2869
7988 1 30.8607 40.3563 11.8695
7989 1 29.2781 38.7737 13.4521
7990 1 30.8607 40.3563 15.0347
7991 1 29.2781 38.7737 16.6173
7992 1 30.8607 40.3563 18.1999
7993 1 29.2781 38.7737 19.7825
7994 1 30.8607 40.3563 21.3651
7995 1 29.2781 38.7737 22.9477
7996 1 30.8607 40.3563 24.5303
7997 1 29.2781 38.7737 26.1129
7998 1 30.8607 40.3563 27.6955
7999 1 29.2781 38.7737 29.2781
8000 1 30.8607 40.3563 30.8607
8001 1 29.2781 38.7737 32.4433
8002 1 30.8607 40.3563 34.0259
8003 1 29.2781 38.7737 35.6085
8004 1 30.8607 40.3563 37.1911
8005 1 29.2781 41.9389 10.2869
8006 1 30.8607 43.5215 11.8695
8007 1 29.2781 41.9389 13.4521
8008 1 30.8607 43.5215 15.0347
8009 1 29.2781 41.9389 16.6173
8010 1 30.8607 43.5215 18.1999
8011 1 29.2781 41.9389 19.7825
8012 1 30.8607 43.5215 21.3651
8013 1 29.2781 41.9389 22.9477
8014 1 30.8607 43.5215 24.5303
8015 1 29.2781 41.9389 26.1129
8016 1 30.8607 43.5215 27.6955
8017 1 29.2781 41.9389 29.2781
8018 1 30.8607 43.5215 30.8607
8019 1 29.2781 41.9389 32.4433
8020 1 30.8607 43.5215 34.0259
8021 1 29.2781 41.9389 35.6085
8022 1 30.8607 43.5215 37.1911
8023 1 29.2781 45.1041 10.2869
8024 1 30.8607 46.6867 11.8695
8025 1 29.2781 45.1041 13.4521
8026 1 30.8607 46.6867 15.0347
8027 1 29.2781 45.1041 16.6173
8028 1 30.8607 46.6867 18.1999
8029 1 29.2781 45.1041 19.7825
8030 1 30.8607 46.6867 21.3651
8031 1 29.2781 45.1041 22.9477
8032 1 30.8607 46.6867 24.5303
8033 1 29.2781 45.1041 26.1129
8034 1 30.8607 46.6867 27.6955
8035 1 29.2781 45.1041 29.2781
8036 1 30.8607 46.6867 30.8607
8037 1 29.2781 45.1041 32.4433
8038 1 30.8607 46.6867 34.0259
8039 1 29.2781 45.1041 35.6085
8040 1 30.8607 46.6867 37.1911
8041 1 29.2781 48.2693 10.2869
8042 1 30.8607 49.8519 11.8695
8043 1 29.2781 48.2693 13.4521
8044 1 30.8607 49.8519 15.0347
8045 1 29.2781 48.2693 16.6173
8046 1 30.8607 49.8519 18.1999
8047 1 29.2781 48.2693 19.7825
8048 1 30.8607 49.8519 21.3651
8049 1 29.2781 48.2693 22.9477
8050 1 30.8607 49.8519 24.5303
8051 1 29.2781 48.2693 26.1129
8052 1 30.8607 49.8519 27.6955
8053 1 29.2781 48.2693 29.2781
8054 1 30.8607 49.8519 30.8607
8055 1 29.2781 48.2693 32.4433
8056 1 30.8607 49.8519 34.0259
8057 1 29.2781 48.2693 35.6085
8058 1 30.8607 49.8519 37.1911
8059 1 32.4433 38.7737 10.2869
8060 1 34.0259 40.3563 11.8695
8061 1 32.4433 38.7737 13.4521
8062 1 34.0259 40.3563 15.0347
8063 1 32.4433 38.7737 16.6173
8064 1 34.0259 40.3563 18.1999
8065 1 32.4433 38.7737 19.7825
8066 1 34.0259 40.3563 21.3651
8067 1 32.4433 38.7737 22.9477
8068 1 34.0259 40.3563 24.5303
8069 1 32.4433 38.7737 26.1129
8070 1 34.0259 40.3563 27.6955
8071 1 32.4433 38.7737 29.2781
8072 1 34.0259 40.3563 30.8607
8073 1 32.4433 38.7737 32.4433
8074 1 34.0259 40.3563 34.0259
8075 1 32.4433 38.7737 35.6085
8076 1 34.0259 40.3563 37.1911
8077 1 32.4433 41.9389 10.2869
8078 1 34.0259 43.5215 11.8695
8079 1 32.4433 41.9389 13.4521
8080 1 34.0259 43.5215 15.0347
8081 1 32.4433 41.9389 16.6173
8082 1 34.0259 43.5215 18.1999
8083 1 32.4433 41.9389 19.7825
8084 1 34.0259 43.5215 21.3651
8085 1 32.4433 41.9389 22.9477
8086 1 34.0259 43.5215 24.5303
8087 1 32.4433 41.9389 26.1129
8088 1 34.0259 43.5215 27.6955
8089 1 32.4433 41.9389 29.2781
8090 1 34.0259 43.5215 30.8607
8091 1 32.4433 41.9389 32.4433
8092 1 34.0259 43.5215 34.0259
8093 1 32.4433 41.9389 35.6085
8094 1 34.0259 43.5215 37.1911
8095 1 32.4433 45.1041 10.2869
8096 1 34.0259 46.6867 11.8695
8097 1 32.4433 45.1041 13.4521
8098 1 34.0259 46.6867 15.0347
8099 1 32.4433 45.1041 16.6173
8100 1 34.0259 46.6867 18.1999
8101 1 32.4433 45.1041 19.7825
8102 1 34.0259 46.6867 21.3651
8103 1 32.4433 45.1041 22.9477
8104 1 34.0259 46.6867 24.5303
8105 1 32.4433 45.1041 26.1129
8106 1 34.0259 46.6867 27.6955
8107 1 32.4433 45.1041 29.2781
8108 1 34.0259 46.6867 30.8607
8109 1 32.4433 45.1041 32.4433
8110 1 34.0259 46.6867 34.0259
8111 1 32.4433 45.1041 35.6085
8112 1 34.0259 46.6867 37.1911
8113 1 32.4433 48.2693 10.2869
8114 1 34.0259 49.8519 11.8695
8115 1 32.4433 48.2693 13.4521
8116 1 34.0259 49.8519 15.0347
8117 1 32.4433 48.2693 16.6173
8118 1 34.0259 49.8519 18.1999
8119 1 32.4433 48.2693 19.7825
8120 1 34.0259 49.8519 21.3651
8121 1 32.4433 48.2693 22.9477
8122 1 34.0259 49.8519 24.5303
8123 1 32.4433 48.2693 26.1129
8124 1 34.0259 49.8519 27.6955
8125 1 32.4433 48.2693 29.2781
8126 1 34.0259 49.8519 30.8607
8127 1 32.4433 48.2693 32.4433
8128 1 34.0259 49.8519 34.0259
8129 1 32.4433 48.2693 35.6085
8130 1 34.0259 49.8519 37.1911
8131 1 35.6085 38.7737 10.2869
8132 1 37.1911 40.3563 11.8695
8133 1 35.6085 38.7737 13.4521
8134 1 37.1911 40.3563 15.0347
8135 1 35.6085 38.7737 16.6173
8136 1 37.1911 40.3563 18.1999
8137 1 35.6085 38.7737 19.7825
8138 1 37.1911 40.3563 21.3651
8139 1 35.6085 38.7737 22.9477
8140 1 37.1911 40.3563 24.5303
8141 1 35.6085 38.7737 26.1129
8142 1 37.1911 40.3563 27.6955
8143 1 35.6085 38.7737 29.2781
8144 1 37.1911 40.3563 30.8607
8145 1 35.6085 38.7737 32.4433
8146 1 37.1911 40.3563 34.0259
8147 1 35.6085 38.7737 35.6085
8148 1 37.1911 40.3563 37.1911
8149 1 35.6085 41.9389 10.2869
8150 1 37.1911 43.5215 11.8695
8151 1 35.6085 41.9389 13.4521
8152 1 37.1911 43.5215 15.0347
8153 1 35.6085 41.9389 16.6173
8154 1 37.1911 43.5215 18.1999
8155 1 35.6085 41.9389 19.7825
8156 1 37.1911 43.5215 21.3651
8157 1 35.6085 41.9389 22.9477
8158 1 37.1911 43.5215 24.5303
8159 1 35.6085 41.9389 26.1129
8160 1 37.1911 43.5215 27.6955
8161 1 35.6085 41.9389 29.2781
8162 1 37.1911 43.5215 30.8607
8163 1 35.6085 41.9389 32.4433
8164 1 37.1911 43.5215 34.0259
8165 1 35.6085 41.9389 35.6085
8166 1 37.1911 43.5215 37.1911
8167 1 35.6085 45.1041 10.2869
8168 1 37.1911 46.6867 11.8695
8169 1 35.6085 45.1041 13.4521
8170 1 37.1911 46.6867 15.0347
8171 1 35.6085 45.1041 16.6173
8172 1 37.1911 46.6867 18.1999
8173 1 35.6085 45.1041 19.7825
8174 1 37.1911 46.6867 21.3651
8175 1 35.6085 45.1041 22.9477
8176 1 37.1911 46.6867 24.5303
8177 1 35.6085 45.1041 26.1129
8178 1 37.1911 46.6867 27.6955
8179 1 35.6085 45.1041 29.2781
8180 1 37.1911 46.6867 30.8607
8181 1 35.6085 45.1041 32.4433
8182 1 37.1911 46.6867 34.0259
8183 1 35.6085 45.1041 35.6085
8184 1 37.1911 46.6867 37.1911
8185 1 35.6085 48.2693 10.2869
8186 1 37.1911 49.8519 11.8695
8187 1 35.6085 48.2693 13.4521
8188 1 37.1911 49.8519 15.0347
8189 1 35.6085 48.2693 16.6173
8190 1 37.1911 49.8519 18.1999
8191 1 35.6085 48.2693 19.7825
8192 1 37.1911 49.8519 21.3651
8193 1 35.6085 48.2693 22.9477
8194 1 37.1911 49.8519 24.5303
8195 1 35.6085 48.2693 26.1129
8196 1 37.1911 49.8519 27.6955
8197 1 35.6085 48.2693 29.2781
8198 1 37.1911 49.8519 30.8607
8199 1 35.6085 48.2693 32.4433
8200 1 37.1911 49.8519 34.0259
8201 1 35.6085 48.2693 35.6085
8202 1 37.1911 49.8519 37.1911
