./desired/DD-Bjorkas/8_4/181_532/cluster.dat


8200 atoms
0 bonds
0 angles
0 dihedrals
0 impropers

2 atom types
0 bond types
0 angle types
0 dihedral types
0 improper types


0.000      50.6432 xlo xhi
0.000      50.6432 ylo yhi
0.000      50.6432 zlo zhi


Atoms

1 1 11.8849 30.8668 11.8793
2 1 10.3109 29.2847 13.4555
3 1 11.8979 30.8797 15.0454
4 1 10.3112 29.2903 16.6162
5 1 11.8919 30.8751 18.2225
6 1 10.3207 29.2919 19.798
7 1 11.8882 30.8769 21.3834
8 1 10.3146 29.2751 22.9736
9 1 11.8846 30.8729 24.5392
10 1 10.293 29.2899 26.131
11 1 11.8675 30.8822 27.7127
12 1 10.2836 29.2976 29.3105
13 1 11.8441 30.8928 30.8906
14 1 10.2704 29.3074 32.4788
15 1 11.8578 30.8873 34.0597
16 1 10.2689 29.2984 35.642
17 1 11.8688 30.9016 37.2338
18 1 10.3078 32.4524 10.2874
19 1 11.8908 34.0546 11.8718
20 1 10.3104 32.4575 13.4515
21 1 11.8978 34.0359 15.0508
22 1 10.312 32.4481 16.6454
23 1 11.8753 34.0459 18.2249
24 1 10.3066 32.4512 19.796
25 1 11.8925 34.0379 21.3797
26 1 10.295 32.4669 22.9656
27 1 11.8733 34.0441 24.5443
28 1 10.2856 32.47 26.1299
29 1 11.8538 34.0546 27.7309
30 1 10.2777 32.4619 29.2992
31 1 11.8494 34.0473 30.8954
32 1 10.2713 32.4664 32.486
33 1 11.8621 34.06 34.0562
34 1 10.2869 32.473 35.639
35 1 11.859 34.0511 37.2289
36 1 10.3075 35.6358 10.2985
37 1 11.9067 37.207 11.8673
38 1 10.3071 35.625 13.4757
39 1 11.8815 37.2044 15.0287
40 1 10.3038 35.6162 16.6313
41 1 11.8822 37.1937 18.2215
42 1 10.308 35.6187 19.7948
43 1 11.8814 37.2104 21.3639
44 1 10.2927 35.633 22.9673
45 1 11.8821 37.2185 24.5471
46 1 10.2793 35.6402 26.1382
47 1 11.8651 37.2251 27.7091
48 1 10.2838 35.6327 29.2987
49 1 11.8516 37.2269 30.8838
50 1 10.2844 35.648 32.4778
51 1 11.864 37.2295 34.0592
52 1 10.2718 35.6396 35.6342
53 1 11.8597 37.2284 37.2271
54 1 10.2998 38.8046 10.2948
55 1 11.8964 40.3789 11.867
56 1 10.3061 38.7872 13.4602
57 1 11.8869 40.3913 15.0462
58 1 10.311 38.7862 16.633
59 1 11.8843 40.3782 18.2079
60 1 10.3089 38.8002 19.7842
61 1 11.8738 40.3875 21.381
62 1 10.2885 38.8111 22.9641
63 1 11.8722 40.3866 24.5398
64 1 10.2837 38.7935 26.1361
65 1 11.8737 40.3918 27.7204
66 1 10.2793 38.8102 29.3084
67 1 11.8744 40.3878 30.8739
68 1 10.2755 38.8059 32.4753
69 1 11.8635 40.39 34.0551
70 1 10.2788 38.8011 35.6338
71 1 11.8642 40.3825 37.2069
72 1 13.4594 29.3007 13.4743
73 1 13.4759 29.3008 16.6403
74 1 13.4769 29.2837 19.7968
75 1 13.4733 29.2886 22.9564
76 1 13.4625 29.2931 26.1447
77 1 13.4323 29.3074 29.3148
78 1 13.4272 29.2993 32.4921
79 1 13.4446 29.2933 35.6697
80 1 13.4474 32.4738 10.2813
81 1 13.4558 32.4666 13.4509
82 1 13.4762 32.4599 16.6267
83 1 13.4764 32.4558 19.8006
84 1 13.4628 32.464 22.9724
85 1 13.4614 32.4766 26.129
86 1 13.4245 32.4892 29.3192
87 1 13.4372 32.478 32.4848
88 1 13.4428 32.4817 35.6573
89 1 13.4645 35.6287 10.2904
90 1 13.4506 35.6287 13.461
91 1 13.467 35.6274 16.6307
92 1 13.4756 35.633 19.7972
93 1 13.4503 35.6347 22.9812
94 1 13.4332 35.651 26.1328
95 1 13.4492 35.6387 29.3135
96 1 13.4263 35.6426 32.4775
97 1 13.4441 35.6401 35.6451
98 1 13.4644 38.8007 10.2852
99 1 13.4789 38.8015 13.4647
100 1 13.4784 38.7891 16.6336
101 1 13.463 38.7886 19.8002
102 1 13.4588 38.8029 22.9715
103 1 13.4524 38.7941 26.1292
104 1 13.442 38.8134 29.3059
105 1 13.4424 38.8158 32.4734
106 1 13.4443 38.8089 35.6433
107 1 13.4594 29.2982 10.2937
108 1 10.2906 29.2896 10.2787
109 1 15.0135 30.9003 27.7246
110 1 14.9983 30.8991 30.9098
111 1 14.999 34.0703 30.9037
112 1 15.0003 34.0632 27.7279
113 1 15.0057 30.9084 34.0756
114 1 15.014 34.0694 34.082
115 1 15.0245 37.2334 30.9078
116 1 15.0319 30.8918 37.2335
117 1 15.027 37.2354 27.7227
118 1 15.0187 37.2252 37.2266
119 1 15.0192 37.2371 34.072
120 1 15.0263 34.0638 37.2393
121 1 15.0192 40.4105 34.0548
122 1 15.0366 40.3914 30.8996
123 1 15.0426 37.219 21.3861
124 1 15.026 40.398 24.5511
125 1 15.018 40.3885 37.2179
126 1 16.6295 29.3095 10.2853
127 1 18.1884 30.8998 11.8589
128 1 16.6037 29.3187 13.459
129 1 18.1922 30.8992 15.0357
130 1 16.6342 29.3101 16.6344
131 1 18.2144 30.8868 18.2155
132 1 18.22 30.8752 21.3853
133 1 16.6623 29.3036 22.967
134 1 18.1964 30.9155 24.5678
135 1 18.1162 30.9651 27.7775
136 1 16.549 29.3229 29.3531
137 1 18.144 30.928 30.9585
138 1 16.5925 29.3138 32.5083
139 1 18.1787 30.8988 34.0818
140 1 16.599 29.3079 35.6609
141 1 18.19 30.8872 37.2467
142 1 16.6362 32.4769 10.2896
143 1 18.215 34.0632 11.858
144 1 16.6265 32.4743 13.4555
145 1 18.2169 34.0732 15.0405
146 1 16.6299 32.4804 16.6331
147 1 18.2309 34.0626 18.2128
148 1 16.6308 32.4669 19.8207
149 1 18.2083 34.0639 21.3922
150 1 16.6317 32.4725 22.9649
151 1 18.2053 34.08 24.5727
152 1 16.5997 32.4772 26.1568
153 1 18.1717 34.0848 27.7502
154 1 16.5717 32.5102 29.3383
155 1 18.1468 34.0949 30.9306
156 1 16.5918 32.4835 32.5047
157 1 18.1874 34.0717 34.0733
158 1 16.6074 32.49 35.6571
159 1 18.202 34.072 37.2385
160 1 16.6344 35.6288 10.2984
161 1 16.6337 38.802 10.2933
162 1 16.6383 35.6467 13.4548
163 1 18.2094 37.2129 15.0522
164 1 16.6381 35.6463 16.6377
165 1 18.2256 37.2062 18.2253
166 1 16.6272 35.632 19.7876
167 1 18.1985 37.226 21.3929
168 1 16.6266 35.6415 22.9644
169 1 18.2014 37.2367 24.559
170 1 16.5956 35.6664 26.15
171 1 18.1801 37.251 27.7341
172 1 16.5675 35.6781 29.3341
173 1 18.1748 37.2498 30.9071
174 1 16.6028 35.6641 32.4907
175 1 18.1871 37.2387 34.066
176 1 16.6093 35.6483 35.6616
177 1 18.1926 37.2232 37.2233
178 1 18.2171 40.3894 11.8691
179 1 16.6228 38.8043 13.4522
180 1 18.2188 40.3894 15.0382
181 1 16.6275 38.7886 16.6166
182 1 18.2109 40.3846 18.2078
183 1 16.6315 38.7897 19.8182
184 1 18.2246 40.3824 21.3748
185 1 16.6196 38.796 22.9675
186 1 18.2114 40.3952 24.5681
187 1 16.6172 38.8197 26.1344
188 1 18.2006 40.3925 27.7228
189 1 16.601 38.8199 29.3076
190 1 18.1984 40.4079 30.8964
191 1 16.6004 38.8177 32.4892
192 1 18.1986 40.3974 34.0697
193 1 16.622 38.8174 35.6393
194 1 18.1951 40.3913 37.227
195 1 22.9716 32.4634 10.2675
196 1 19.7987 29.3186 10.2728
197 1 21.3717 30.9177 11.8397
198 1 19.7731 29.3469 13.4211
199 1 21.341 30.9479 14.9955
200 1 19.7911 29.336 16.6065
201 1 21.346 30.9301 18.1602
202 1 19.849 29.2898 19.8073
203 1 21.3448 30.9189 21.4092
204 1 19.8531 29.2988 22.9933
205 1 21.2815 31.0058 24.6782
206 1 21.244 31.0518 27.8622
207 1 19.6974 29.3775 29.4106
208 1 21.3248 30.9473 30.9378
209 1 19.7548 29.3156 32.5169
210 1 21.3452 30.9026 34.0879
211 1 19.7627 29.3096 35.6505
212 1 21.3641 30.8843 37.2235
213 1 19.7872 32.4891 10.2738
214 1 21.3903 34.0796 11.8556
215 1 19.7999 32.4868 13.439
216 1 19.7849 35.6345 13.4449
217 1 19.7835 32.4869 16.62
218 1 21.3834 34.0482 18.2294
219 1 19.8047 32.4671 19.8084
220 1 21.3938 34.0366 21.3793
221 1 19.7642 32.5116 22.976
222 1 21.319 34.0885 24.5591
223 1 19.7027 32.5601 26.2149
224 1 21.2906 34.1463 27.8024
225 1 19.7038 32.555 29.3933
226 1 21.3411 34.0866 30.9359
227 1 19.7539 32.5004 32.5037
228 1 21.3403 34.0896 34.0806
229 1 19.7669 32.4895 35.6619
230 1 21.3454 34.0542 37.2346
231 1 19.81 35.6443 10.2858
232 1 21.3776 37.2304 11.8672
233 1 18.2026 37.2171 11.8769
234 1 21.3894 37.2314 15.0365
235 1 19.8047 35.6455 16.6416
236 1 21.3906 37.2016 18.2194
237 1 19.805 35.6519 19.79
238 1 21.3873 37.2301 21.3899
239 1 19.7794 35.6541 22.9721
240 1 21.3695 37.2196 24.5586
241 1 19.7676 35.6796 26.1499
242 1 21.3658 37.2441 27.7358
243 1 19.7426 35.7015 29.3311
244 1 21.3668 37.2595 30.9064
245 1 19.7652 35.6752 32.5208
246 1 21.3621 37.2302 34.0732
247 1 19.7848 35.6492 35.6559
248 1 21.3584 37.2357 37.2295
249 1 19.8051 38.8009 10.2845
250 1 21.3803 40.3746 11.8762
251 1 19.8005 38.8144 13.4629
252 1 21.3803 40.3753 15.0313
253 1 19.7983 38.7964 16.621
254 1 21.383 40.3839 18.2217
255 1 19.7991 38.7924 19.8054
256 1 21.3846 40.3693 21.3827
257 1 19.7963 38.7927 22.9668
258 1 21.3791 40.3984 24.5533
259 1 19.7816 38.8202 26.1434
260 1 21.3657 40.4018 27.7234
261 1 19.7631 38.8378 29.3106
262 1 21.3719 40.3951 30.8956
263 1 19.7665 38.8343 32.4844
264 1 21.358 40.4092 34.0548
265 1 19.7778 38.8122 35.6416
266 1 21.3593 40.3898 37.2291
267 1 22.9319 29.367 13.3969
268 1 27.7393 30.9279 11.8255
269 1 22.9166 29.3954 16.5051
270 1 24.5578 30.8339 21.4347
271 1 24.1089 30.9658 24.951
272 1 22.6809 29.3803 23.1453
273 1 24.4573 30.9645 27.7718
274 1 26.1222 32.5055 29.3464
275 1 24.5021 30.9265 30.9179
276 1 22.9341 29.309 32.4903
277 1 24.5151 30.8877 34.0692
278 1 22.9406 29.308 35.6381
279 1 24.528 30.8905 37.225
280 1 26.1328 32.4839 10.241
281 1 24.5416 34.0906 11.8555
282 1 22.96 32.514 13.4345
283 1 22.9742 32.4869 16.6206
284 1 21.3786 34.0796 15.0384
285 1 24.5605 34.013 18.2201
286 1 22.9545 32.4787 23.0006
287 1 24.5499 34.0027 21.3865
288 1 24.5447 34.0635 24.5804
289 1 22.8239 32.6941 26.2762
290 1 24.5496 34.0923 27.7565
291 1 22.8958 32.5405 29.3811
292 1 24.5318 34.0981 30.9293
293 1 22.9342 32.4973 32.5075
294 1 24.5429 34.0729 34.0678
295 1 22.934 32.4835 35.6645
296 1 24.5284 34.0526 37.2358
297 1 22.9642 35.6561 10.2793
298 1 24.548 37.2323 11.8614
299 1 22.9696 35.6408 13.4512
300 1 24.563 37.2213 15.0438
301 1 22.9761 35.6451 16.6289
302 1 24.5647 37.2033 18.2263
303 1 22.9763 35.6175 19.7838
304 1 24.5353 37.1928 21.3744
305 1 22.9561 35.6287 22.9859
306 1 24.5447 37.2073 24.5565
307 1 22.9408 35.6017 26.1704
308 1 24.5358 37.2292 27.7141
309 1 22.9553 35.687 29.33
310 1 24.5213 37.234 30.8918
311 1 22.9526 35.6645 32.49
312 1 24.5286 37.2362 34.0735
313 1 22.9387 35.6555 35.6443
314 1 24.5236 37.232 37.2134
315 1 22.9538 38.7986 10.2992
316 1 24.5419 40.3945 11.8721
317 1 22.9656 38.8236 13.4445
318 1 24.5391 40.3851 15.0663
319 1 22.969 38.8042 16.6375
320 1 24.5606 40.3815 18.201
321 1 22.968 38.7866 19.8063
322 1 24.5471 40.3697 21.3721
323 1 22.9596 38.7963 22.9576
324 1 24.5347 40.3774 24.5573
325 1 22.9493 38.8013 26.1364
326 1 24.5348 40.4082 27.7073
327 1 22.9511 38.8199 29.3115
328 1 24.5183 40.394 30.902
329 1 22.9497 38.8346 32.4707
330 1 24.5421 40.3963 34.0679
331 1 22.9391 38.8099 35.6735
332 1 24.5359 40.3822 37.2257
333 1 24.5483 30.9199 11.8371
334 1 26.1156 32.5295 13.3936
335 1 24.53 30.9494 14.986
336 1 27.7422 31.0308 14.9403
337 1 27.7284 30.8909 18.123
338 1 27.9362 30.8626 24.574
339 2 25.7583 29.9083 23.6769
340 1 27.7678 30.9859 27.8066
341 1 26.1036 29.383 29.2936
342 1 27.7019 30.9032 30.8943
343 1 26.0981 29.3023 32.4685
344 1 27.696 30.8938 34.076
345 1 26.1211 29.3015 35.6341
346 1 27.6902 30.8822 37.2201
347 1 27.7159 34.0921 11.8311
348 1 24.5319 34.0816 15.0239
349 1 27.732 34.0375 15.0051
350 1 26.1285 32.4775 16.601
351 1 27.7235 34.031 18.1881
352 1 26.1445 32.4123 19.814
353 1 27.7314 34.0235 21.3901
354 1 26.1703 32.4589 23.0142
355 1 27.7264 34.0451 24.5657
356 1 26.1645 29.5051 26.3593
357 1 26.1305 32.3854 26.1181
358 1 27.7002 34.0657 27.7228
359 1 27.6843 34.0739 30.9057
360 1 26.1102 32.4839 32.483
361 1 27.692 34.0666 34.0711
362 1 26.1017 32.4938 35.6538
363 1 27.6971 34.0568 37.2308
364 1 26.1371 35.6559 10.2593
365 1 27.7118 37.2445 11.8589
366 1 26.1399 35.6729 13.4401
367 1 27.7386 37.2242 15.0404
368 1 26.1432 35.6326 16.6134
369 1 27.719 37.1904 18.2033
370 1 26.1205 35.6141 19.7916
371 1 27.7205 37.2001 21.3667
372 1 26.1292 35.6233 22.9708
373 1 27.7055 37.2047 24.5543
374 1 26.1127 35.6272 26.1519
375 1 27.6962 37.2275 27.7177
376 1 26.1244 35.66 29.3233
377 1 27.6914 37.2389 30.8873
378 1 26.1117 35.6506 32.4903
379 1 27.6896 37.237 34.0632
380 1 26.1027 35.6432 35.6447
381 1 27.7004 37.2045 37.2276
382 1 26.1338 38.8121 10.2911
383 1 27.7203 40.3925 11.8711
384 1 26.1401 38.8019 13.4501
385 1 27.7149 40.3933 15.0375
386 1 26.1315 38.7937 16.6283
387 1 27.7036 40.3752 18.2215
388 1 26.1295 38.791 19.7988
389 1 27.7123 40.3844 21.3753
390 1 26.135 38.7882 22.9726
391 1 27.6934 40.3888 24.5321
392 1 26.122 38.7979 26.1404
393 1 27.6936 40.3817 27.73
394 1 26.1175 38.8253 29.304
395 1 27.7045 40.4081 30.899
396 1 26.1084 38.8115 32.4846
397 1 27.6878 40.3941 34.0552
398 1 26.1044 38.8174 35.6384
399 1 27.6923 40.404 37.2304
400 1 22.9898 32.4117 19.8077
401 1 29.2643 29.2986 32.4903
402 1 29.2769 29.3067 35.6355
403 1 29.3093 32.5039 10.2391
404 1 29.2756 32.4711 32.5012
405 1 29.2792 32.4751 35.6455
406 1 29.2684 35.6638 29.3261
407 1 29.2877 35.6531 35.6444
408 1 29.291 38.8108 13.4412
409 1 29.2998 38.797 16.6329
410 1 29.2866 38.7994 22.9736
411 1 29.2782 38.813 26.1204
412 1 29.2748 38.8067 29.3013
413 1 29.2829 38.8136 32.4809
414 1 29.2851 38.8163 35.6403
415 1 29.3991 29.4361 13.4293
416 1 24.6048 30.8322 18.1404
417 1 29.3149 29.3232 10.2637
418 1 29.2805 35.6644 32.4795
419 1 29.3041 35.6674 26.1448
420 1 29.3177 32.4927 29.3395
421 1 29.2956 35.6202 16.6159
422 1 29.2973 38.7895 19.7916
423 1 29.3071 32.563 13.3667
424 1 29.293 38.8297 10.2805
425 1 27.7455 30.7942 21.4214
426 1 22.9799 29.3166 10.2875
427 1 29.3132 32.4616 16.566
428 1 16.6549 29.2886 19.817
429 1 29.3012 32.4696 19.7705
430 1 26.1901 29.1937 19.7527
431 1 16.6062 29.3116 26.1529
432 1 29.3078 29.3378 29.3396
433 1 22.6073 29.4226 26.4579
434 1 22.9164 29.5091 19.7902
435 1 19.7458 29.3734 26.26
436 1 29.3169 32.5096 22.9589
437 1 29.4342 29.5622 16.354
438 1 29.3077 35.6674 10.2724
439 1 26.1607 29.315 10.28
440 1 22.8775 29.3923 29.3215
441 1 29.3035 35.6097 19.7758
442 1 26.2088 29.3893 16.3704
443 1 29.3023 35.6569 13.4273
444 1 26.1462 29.3896 13.4267
445 1 29.2898 35.6299 22.9503
446 1 29.3622 29.3559 26.2671
447 1 29.3354 32.5452 26.1982
448 1 29.5214 29.6231 19.6517
449 1 29.6104 29.3481 22.9196
450 1 15.0643 30.8831 21.3976
451 1 15.0549 40.3823 18.2088
452 1 15.0581 40.373 15.0558
453 1 15.0564 34.0575 18.213
454 1 15.0559 40.3743 11.8786
455 1 15.0686 30.8857 18.2234
456 1 15.0449 34.0405 11.8857
457 1 15.0522 34.031 15.0496
458 1 15.0476 37.2141 15.0437
459 1 15.044 37.2061 11.8768
460 1 15.0441 37.2229 18.2168
461 1 15.0575 40.3818 21.3702
462 1 15.0456 30.8897 24.5593
463 1 15.0581 30.884 15.0504
464 1 15.0444 34.0574 21.3926
465 1 15.0276 40.3856 27.7254
466 1 15.017 34.061 24.5476
467 1 15.0327 37.2289 24.5585
468 1 15.0578 30.8751 11.8806
469 1 30.977 31.0639 21.3997
470 1 30.8694 30.9461 24.6002
471 1 30.9028 30.9341 27.7949
472 1 30.8779 30.8957 30.9191
473 1 30.8571 30.8942 34.0575
474 1 30.8493 30.8843 37.2148
475 1 30.9135 34.0976 11.8053
476 1 34.072 34.1243 18.1957
477 1 30.9012 34.012 21.3744
478 1 30.8746 34.0969 24.5603
479 1 30.8821 34.0851 27.7434
480 1 30.8821 34.0812 30.9159
481 1 30.8663 34.0611 34.0722
482 1 30.8596 34.0511 37.2304
483 1 30.8813 37.2458 11.8451
484 1 30.8947 37.2287 15.0201
485 1 30.8867 37.2153 18.1837
486 1 30.8794 37.2075 21.3704
487 1 30.8679 37.2325 24.5583
488 1 30.8692 37.24 27.7263
489 1 30.8675 37.2385 30.8958
490 1 30.8676 37.2307 34.0618
491 1 30.857 37.2363 37.2363
492 1 30.8816 40.3879 11.8564
493 1 30.8798 40.3969 15.0481
494 1 30.881 40.3841 18.212
495 1 30.8657 40.3916 21.3844
496 1 30.8457 40.4071 24.5407
497 1 30.8487 40.4057 27.7215
498 1 30.8449 40.402 30.8866
499 1 30.8559 40.3848 34.0542
500 1 30.8573 40.3994 37.2182
501 1 34.1213 30.9682 11.7689
502 1 31.0076 31.1178 14.9169
503 1 32.6957 29.6479 16.4717
504 1 34.2538 31.0167 18.1674
505 1 32.6731 29.6228 19.7349
506 1 34.1136 30.9802 21.4385
507 1 32.4406 29.3586 22.9961
508 1 34.0503 30.9169 24.5717
509 1 32.5131 29.3548 26.1867
510 1 34.0634 30.9183 27.7602
511 1 32.4847 29.3294 29.3195
512 1 34.0395 30.8845 30.8945
513 1 32.445 29.3058 32.487
514 1 34.0399 30.8874 34.0581
515 1 32.4511 29.2867 35.6356
516 1 34.0163 30.8921 37.2167
517 1 34.0889 34.1151 11.8108
518 1 32.5673 32.5746 13.3484
519 1 34.091 34.1268 14.9884
520 1 32.5964 32.5313 16.5364
521 1 35.7111 32.562 16.573
522 1 32.5587 32.5113 19.7871
523 1 34.0558 34.0966 21.3856
524 1 32.4893 32.5045 23.018
525 1 34.0609 34.0899 24.5743
526 1 32.4769 32.5163 26.1713
527 1 34.0406 34.0807 27.7341
528 1 32.469 32.4894 29.3226
529 1 34.0316 34.0818 30.9138
530 1 32.4434 32.4923 32.4834
531 1 34.028 34.0687 34.0533
532 1 32.4453 32.4668 35.642
533 1 34.0194 34.0511 37.2111
534 1 32.4869 32.5198 10.2069
535 1 32.4706 35.6792 10.2555
536 1 34.0571 37.2544 11.8504
537 1 32.4671 35.67 13.4276
538 1 34.0554 37.2659 15.0183
539 1 32.4697 35.659 16.6063
540 1 34.0579 37.2491 18.2123
541 1 32.4735 35.6407 19.776
542 1 34.0444 37.2558 21.3791
543 1 32.4649 35.655 22.9591
544 1 34.0406 37.2566 24.5512
545 1 32.4616 35.6716 26.1523
546 1 34.0348 37.2371 27.7249
547 1 32.4484 35.674 29.3068
548 1 34.0406 37.2449 30.8952
549 1 32.4495 35.6541 32.4885
550 1 34.0275 37.2323 34.066
551 1 32.4369 35.6445 35.627
552 1 34.0305 37.2328 37.2228
553 1 32.4609 38.8299 10.2669
554 1 34.0514 40.4208 11.8448
555 1 32.4498 38.8267 13.4331
556 1 34.0515 40.4102 15.0204
557 1 32.4498 38.8245 16.6148
558 1 34.0317 40.4129 18.2038
559 1 32.4498 38.8061 19.7941
560 1 34.025 40.4022 21.3701
561 1 32.4617 38.8063 22.956
562 1 34.0274 40.3989 24.5502
563 1 32.4503 38.8197 26.1315
564 1 34.0255 40.4158 27.7258
565 1 32.4509 38.8236 29.3013
566 1 34.034 40.3949 30.8817
567 1 32.4311 38.8259 32.4765
568 1 34.0227 40.3971 34.0624
569 1 32.4407 38.8148 35.6431
570 1 34.0318 40.3859 37.2029
571 1 37.2115 30.9184 11.8245
572 1 38.7635 29.3208 13.4545
573 1 37.1362 30.9122 15.0063
574 1 35.5895 29.3173 16.5922
575 1 37.139 30.9154 18.2108
576 1 35.5669 29.3299 19.791
577 1 37.2053 30.9018 21.3899
578 1 35.6147 29.3011 22.9696
579 1 37.2033 30.8925 24.5575
580 1 35.6378 29.311 26.148
581 1 37.202 30.8913 27.7259
582 1 35.6151 29.3112 29.2994
583 1 37.1987 30.8879 30.8979
584 1 35.6234 29.3105 32.4726
585 1 37.1971 30.885 34.0559
586 1 35.6115 29.3052 35.6364
587 1 37.1886 30.8926 37.2121
588 1 35.6602 32.5112 10.2247
589 1 37.2193 34.0991 11.8277
590 1 35.6967 32.5539 13.3625
591 1 37.232 34.1023 15.0097
592 1 34.2375 31.0418 14.8972
593 1 37.2295 34.112 18.2006
594 1 35.6671 32.5353 19.8207
595 1 37.2177 34.0867 21.3921
596 1 35.6657 32.5229 23.0119
597 1 37.2245 34.0803 24.5608
598 1 35.6336 32.5013 26.1599
599 1 37.2026 34.0712 27.7312
600 1 35.6261 32.4883 29.3222
601 1 37.194 34.064 30.8969
602 1 35.6263 32.48 32.4639
603 1 37.1992 34.0621 34.0586
604 1 35.6079 32.4707 35.6521
605 1 37.1978 34.0526 37.2117
606 1 35.6521 35.6825 10.2405
607 1 37.2286 37.2562 11.8502
608 1 35.6433 35.696 13.4056
609 1 37.2196 37.265 15.0203
610 1 35.6492 35.684 16.604
611 1 37.2043 37.2425 18.2122
612 1 35.6484 35.6822 19.7971
613 1 37.2058 37.253 21.3759
614 1 35.6165 35.6635 22.9859
615 1 37.1875 37.2491 24.5485
616 1 35.6258 35.666 26.1446
617 1 37.1946 37.2371 27.7348
618 1 35.612 35.6618 29.3154
619 1 37.1831 37.2544 30.8935
620 1 35.6135 35.6392 32.4808
621 1 37.1841 37.2277 34.0481
622 1 35.5957 35.6471 35.6418
623 1 37.1963 37.2276 37.232
624 1 35.6388 38.8358 10.2671
625 1 37.2007 40.4148 11.8587
626 1 35.649 38.844 13.4406
627 1 37.2091 40.4071 15.0317
628 1 35.6216 38.8285 16.6196
629 1 37.1984 40.4015 18.2116
630 1 35.6274 38.8258 19.7941
631 1 37.2017 40.3975 21.3822
632 1 35.6086 38.8256 22.9727
633 1 37.2001 40.3992 24.5549
634 1 35.6103 38.823 26.125
635 1 37.1986 40.3986 27.7123
636 1 35.6155 38.8302 29.3218
637 1 37.1836 40.407 30.8864
638 1 35.6048 38.8192 32.4702
639 1 37.1884 40.3962 34.045
640 1 35.6116 38.8141 35.6383
641 1 37.1819 40.3902 37.2294
642 1 35.5806 29.3017 13.381
643 1 40.3375 30.9019 15.043
644 1 38.7369 29.3211 16.6174
645 1 40.3374 30.9005 18.1986
646 1 38.7462 29.3239 19.7884
647 1 40.3536 30.905 21.368
648 1 38.7547 29.3079 22.9558
649 1 40.3527 30.9011 24.5521
650 1 38.7746 29.3186 26.1291
651 1 40.3584 30.8952 27.7265
652 1 38.7829 29.3095 29.301
653 1 40.3536 30.896 30.8938
654 1 38.7685 29.2975 32.4766
655 1 40.3538 30.8863 34.0461
656 1 38.7807 29.3073 35.6422
657 1 40.3652 30.8852 37.2199
658 1 38.808 32.4839 10.2694
659 1 40.3771 34.0695 11.8626
660 1 38.7917 32.4995 13.4386
661 1 40.3802 34.0722 15.0254
662 1 38.7765 32.4941 16.6177
663 1 40.3752 34.0701 18.1989
664 1 38.7771 32.4814 19.7864
665 1 40.3711 34.0736 21.3785
666 1 38.7749 32.4806 22.9635
667 1 40.3573 34.0678 24.561
668 1 38.7731 32.4822 26.1378
669 1 40.3452 34.0565 27.7168
670 1 38.7822 32.4741 29.3051
671 1 40.3593 34.0633 30.8845
672 1 38.7751 32.4807 32.4714
673 1 40.3366 34.0553 34.056
674 1 38.7813 32.4833 35.6308
675 1 40.3621 34.0625 37.2091
676 1 38.8029 35.6578 10.2565
677 1 40.3775 37.244 11.8522
678 1 38.8151 35.6702 13.4381
679 1 40.3721 37.2364 15.0389
680 1 38.7984 35.6706 16.6185
681 1 40.3673 37.2508 18.2107
682 1 38.7755 35.6639 19.798
683 1 40.3712 37.2366 21.369
684 1 38.7835 35.6578 22.9707
685 1 40.3739 37.242 24.5522
686 1 38.7657 35.669 26.1575
687 1 40.3456 37.2472 27.7315
688 1 38.76 35.6618 29.3039
689 1 40.3602 37.24 30.9009
690 1 38.7767 35.6353 32.4868
691 1 40.3574 37.2426 34.0617
692 1 38.7679 35.6361 35.6374
693 1 40.3457 37.2281 37.2112
694 1 38.7903 38.8297 10.2778
695 1 40.3664 40.4022 11.8661
696 1 38.7943 38.8251 13.4409
697 1 40.3643 40.3959 15.0339
698 1 38.7915 38.8284 16.6285
699 1 40.3698 40.3975 18.2078
700 1 38.7703 38.8341 19.7866
701 1 40.3651 40.4033 21.3682
702 1 38.7771 38.8306 22.9652
703 1 40.3412 40.4076 24.5524
704 1 38.7778 38.8252 26.1406
705 1 40.3547 40.4167 27.7131
706 1 38.7644 38.8235 29.3014
707 1 40.3493 40.4031 30.8926
708 1 38.7705 38.809 32.4836
709 1 40.3528 40.3947 34.0524
710 1 38.7812 38.819 35.6373
711 1 40.34 40.3822 37.2286
712 1 32.6381 29.426 13.342
713 1 40.3815 30.9051 11.8637
714 1 30.9193 34.0026 18.1751
715 1 38.7852 29.3075 10.2711
716 1 30.9855 31.1 18.0912
717 1 30.9365 34.0276 15.0081
718 1 35.6479 29.3046 10.2463
719 1 30.9302 30.9445 11.7964
720 1 32.491 29.3363 10.2276
721 1 11.8711 15.0327 11.8602
722 1 11.8665 15.026 15.0346
723 1 11.8753 15.0311 18.2166
724 1 11.8756 15.0398 21.3816
725 1 10.2969 13.4593 22.958
726 1 11.8774 15.045 24.5537
727 1 10.2927 13.4486 26.125
728 1 11.8569 15.0437 27.7151
729 1 10.2806 13.453 29.2957
730 1 11.8621 15.0326 30.8838
731 1 10.2874 13.4561 32.4688
732 1 11.8655 15.0323 34.0437
733 1 10.3014 13.4497 35.6265
734 1 11.8708 15.0385 37.2285
735 1 10.2868 16.6146 10.2856
736 1 11.8737 18.2032 11.8902
737 1 10.2908 16.6204 13.4638
738 1 11.8803 18.1987 15.035
739 1 10.2963 16.6295 16.629
740 1 11.8811 18.2125 18.2123
741 1 10.2901 16.6221 19.79
742 1 11.8677 18.203 21.3968
743 1 10.2725 16.6172 22.9629
744 1 11.8648 18.2124 24.5433
745 1 10.286 16.6223 26.1325
746 1 11.8635 18.2025 27.719
747 1 10.2877 16.6205 29.3072
748 1 11.8552 18.2114 30.8891
749 1 10.2731 16.6253 32.469
750 1 11.8543 18.2014 34.0694
751 1 10.2852 16.6349 35.641
752 1 11.866 18.1995 37.2214
753 1 10.2988 19.7994 10.2926
754 1 11.8809 21.3654 11.8703
755 1 10.3081 19.802 13.4493
756 1 11.8941 21.361 15.045
757 1 10.3033 19.7907 16.6322
758 1 11.9024 21.3726 18.2193
759 1 10.3075 19.7889 19.7903
760 1 11.8777 21.3796 21.3942
761 1 10.2969 19.7934 22.9674
762 1 11.8959 21.3771 24.544
763 1 10.2827 19.8085 26.1276
764 1 11.8705 21.3795 27.7284
765 1 10.28 19.7967 29.3019
766 1 11.8533 21.3779 30.881
767 1 10.2755 19.7867 32.4703
768 1 11.8512 21.3798 34.0762
769 1 10.2825 19.7939 35.6376
770 1 11.8595 21.3759 37.2244
771 1 10.3122 22.9625 10.295
772 1 11.8881 24.543 11.8803
773 1 10.3114 22.9547 13.4575
774 1 11.895 24.5327 15.0409
775 1 10.3278 22.9552 16.6326
776 1 11.8996 24.547 18.2157
777 1 10.3165 22.9455 19.7977
778 1 11.903 24.5349 21.3808
779 1 10.3181 22.9532 22.9588
780 1 11.8976 24.5362 24.5496
781 1 10.3009 22.9719 26.1383
782 1 11.8795 24.5473 27.7253
783 1 10.2885 22.9561 29.3008
784 1 11.8641 24.5496 30.9005
785 1 10.268 22.9609 32.4827
786 1 11.8565 24.5407 34.0697
787 1 10.2767 22.9537 35.6364
788 1 11.8669 24.5415 37.2276
789 1 10.323 26.1222 10.3018
790 1 11.8862 27.7048 11.8827
791 1 10.3277 26.1205 13.463
792 1 11.8989 27.7069 15.0491
793 1 10.3157 26.1224 16.6446
794 1 11.9011 27.7114 18.2242
795 1 10.3101 26.118 19.7915
796 1 11.9102 27.7095 21.3745
797 1 10.3126 26.1342 22.9596
798 1 11.8965 27.7033 24.5558
799 1 10.3211 26.1244 26.1242
800 1 11.8775 27.7171 27.7214
801 1 10.2811 26.1332 29.3094
802 1 11.8517 27.7165 30.8862
803 1 10.2887 26.1321 32.4727
804 1 11.8569 27.7135 34.0516
805 1 10.2757 26.136 35.6589
806 1 11.8657 27.7261 37.2241
807 1 13.4496 13.4574 26.1309
808 1 13.4578 13.447 29.2936
809 1 13.457 13.4519 32.464
810 1 13.4435 13.452 35.6582
811 1 13.447 16.6104 10.2756
812 1 13.4454 16.6069 13.4569
813 1 13.4455 16.5998 16.6358
814 1 13.4482 16.615 19.8032
815 1 13.4507 16.6341 22.9756
816 1 13.4506 16.6253 26.1415
817 1 13.4283 16.6158 29.3125
818 1 13.4323 16.6136 32.4637
819 1 13.4352 16.6189 35.6387
820 1 13.4369 19.7808 10.2864
821 1 13.4581 19.7775 13.4453
822 1 13.4608 19.7784 16.6256
823 1 13.4691 19.782 19.8122
824 1 13.4636 19.7935 22.9675
825 1 13.4472 19.8012 26.141
826 1 13.4295 19.7888 29.3207
827 1 13.4436 19.7822 32.4799
828 1 13.4363 19.792 35.6404
829 1 13.4714 22.9514 10.2813
830 1 13.489 22.9555 13.4619
831 1 13.4976 22.95 16.6165
832 1 13.4945 22.9602 19.8106
833 1 13.481 22.9571 22.9691
834 1 13.4785 22.9713 26.153
835 1 13.4507 22.9634 29.3136
836 1 13.4396 22.9608 32.4759
837 1 13.4247 22.9547 35.65
838 1 13.4628 26.1283 10.2786
839 1 13.4553 26.1297 13.4573
840 1 13.4797 26.1152 16.6343
841 1 13.4881 26.1272 19.8111
842 1 13.4953 26.1205 22.9704
843 1 13.4813 26.124 26.1429
844 1 13.4408 26.1301 29.3164
845 1 13.4433 26.1349 32.494
846 1 13.4342 26.1483 35.6636
847 1 10.2966 13.4519 19.8102
848 1 13.4392 13.4503 22.9744
849 1 10.292 13.4503 16.6371
850 1 13.449 13.4382 13.4546
851 1 10.2865 13.449 13.4592
852 1 13.4449 13.4516 16.6396
853 1 10.2876 13.4562 10.2817
854 1 13.4465 13.4404 10.2796
855 1 13.45 13.448 19.8054
856 1 15.0153 18.1741 15.0264
857 1 15.0112 27.7324 30.921
858 1 15.0046 24.5428 30.905
859 1 15.0148 21.3705 30.9157
860 1 15.0167 18.1957 30.9063
861 1 15.0216 21.3678 34.0692
862 1 15.0222 18.1832 11.8603
863 1 15.0268 21.3669 27.7287
864 1 15.0309 18.2051 34.0719
865 1 15.0299 27.7176 37.2387
866 1 15.0081 18.1914 27.728
867 1 15.023 14.9975 15.0409
868 1 15.0264 15.0018 11.8574
869 1 15.0235 24.5433 34.0711
870 1 15.0155 27.7149 34.0849
871 1 15.0385 15.0233 24.5562
872 1 15.0297 18.1978 21.3928
873 1 15.0321 15.0102 18.2146
874 1 15.0242 18.1764 18.2235
875 1 15.0281 15.024 30.888
876 1 15.0276 21.3832 37.2426
877 1 15.0176 18.212 37.238
878 1 15.0269 15.0411 34.0621
879 1 15.0292 24.5455 37.2373
880 1 15.0149 27.7266 27.7274
881 1 15.0255 15.0234 21.3887
882 1 15.0391 21.3569 11.8584
883 1 15.0092 15.0343 27.7219
884 1 18.196 14.9848 11.8523
885 1 18.1836 14.9794 15.0374
886 1 18.1958 15.0178 18.217
887 1 18.2032 15.0233 21.385
888 1 18.1922 15.0374 24.5393
889 1 16.614 13.4459 26.1279
890 1 18.1972 15.0311 27.7255
891 1 16.6173 13.4367 29.3129
892 1 18.165 15.0074 30.9038
893 1 16.6035 13.45 32.4601
894 1 18.1881 15.0443 34.0666
895 1 16.6153 13.4633 35.6439
896 1 18.2022 15.0323 37.2268
897 1 16.5943 16.5763 10.2649
898 1 18.1601 18.1201 11.8285
899 1 16.5835 16.5646 13.4398
900 1 18.1348 18.0996 15.0583
901 1 16.5892 16.5649 16.6497
902 1 18.1835 18.139 18.2277
903 1 16.617 16.5924 19.8114
904 1 18.2017 18.1925 21.3975
905 1 16.6151 16.5988 22.9786
906 1 18.185 18.179 24.5661
907 1 16.6115 16.5903 26.1516
908 1 18.1672 18.1765 27.7629
909 1 16.5974 16.6143 29.3081
910 1 18.1711 18.1908 30.9226
911 1 16.589 16.6063 32.5016
912 1 18.1877 18.1879 34.0889
913 1 16.6134 16.6176 35.6355
914 1 18.1943 18.2193 37.2278
915 1 16.6005 19.7606 10.2564
916 1 18.1551 21.3382 11.8403
917 1 16.636 19.6967 13.4112
918 1 17.9985 21.266 14.9995
919 1 16.5554 19.7097 16.6281
920 1 18.1208 21.3101 18.175
921 1 16.6058 19.7589 19.819
922 1 18.1767 21.3206 21.4344
923 1 16.6001 19.7707 22.9922
924 1 18.1741 21.3158 24.5831
925 1 16.5953 19.7505 26.1541
926 1 18.1383 21.3146 27.7911
927 1 16.5709 19.7611 29.352
928 1 18.1527 21.3483 30.955
929 1 16.5834 19.7837 32.4947
930 1 18.1773 21.3717 34.062
931 1 16.6106 19.7804 35.6725
932 1 18.1986 21.3734 37.2478
933 1 16.6136 22.9591 10.2731
934 1 19.5562 22.9297 13.5007
935 1 16.6596 22.9628 13.4318
936 1 18.1108 24.6303 15.0108
937 1 16.64 22.9586 16.6198
938 1 18.2482 24.5312 18.1876
939 1 16.708 22.9382 19.8111
940 1 18.2868 24.5318 21.3862
941 1 16.6536 22.9621 22.9809
942 1 18.2482 24.5679 24.5861
943 1 16.6707 22.955 26.1662
944 1 18.1275 24.5369 27.813
945 1 16.5726 22.9382 29.3524
946 1 18.1504 24.5273 30.958
947 1 16.5798 22.96 32.5076
948 1 18.1772 24.5386 34.094
949 1 16.6011 22.9633 35.6623
950 1 18.1862 24.5619 37.2376
951 1 19.7801 26.155 10.2699
952 1 16.6264 26.1322 10.2788
953 1 18.1821 27.7423 11.843
954 1 16.613 26.1648 13.444
955 1 18.179 27.7348 15.0357
956 1 16.636 26.1568 16.6419
957 1 18.2537 27.717 18.2093
958 1 16.6887 26.1123 19.8117
959 1 18.3005 27.6909 21.393
960 1 16.6846 26.1225 22.9834
961 1 18.2863 27.7474 24.5896
962 1 16.674 26.1608 26.1565
963 1 18.114 27.7666 27.7924
964 1 16.5699 26.1414 29.359
965 1 18.1473 27.75 30.9393
966 1 16.5961 26.1303 32.5177
967 1 18.1824 27.7249 34.0872
968 1 16.6075 26.1335 35.6483
969 1 18.1941 27.7244 37.2289
970 1 21.3483 14.9964 11.8521
971 1 21.3677 14.9809 15.033
972 1 21.3687 15.0293 18.213
973 1 21.3692 15.0497 21.3803
974 1 21.3694 15.0334 24.5495
975 1 19.7838 13.4465 26.1353
976 1 21.3513 15.0157 27.7342
977 1 19.7644 13.4292 29.3226
978 1 21.3592 15.0308 30.9028
979 1 19.7738 13.4336 32.4894
980 1 21.3589 15.0333 34.0768
981 1 19.7749 13.4512 35.6391
982 1 21.3717 15.0425 37.2228
983 1 19.7772 16.5726 10.2674
984 1 21.3146 18.1541 11.8459
985 1 19.7351 16.5464 13.4439
986 1 21.3103 18.1291 14.9924
987 1 19.7535 16.5816 16.6411
988 1 21.3368 18.1947 18.2106
989 1 19.7792 16.6226 19.79
990 1 21.3691 18.263 21.3571
991 1 19.7817 16.6145 22.9924
992 1 21.3373 18.1583 24.5803
993 1 19.7504 16.5877 26.1573
994 1 21.3189 18.1465 27.7838
995 1 19.7713 16.595 29.3362
996 1 21.3232 18.1622 30.9368
997 1 19.776 16.6009 32.499
998 1 21.352 18.1886 34.0734
999 1 19.7755 16.6217 35.6518
1000 1 21.3624 18.2157 37.2396
1001 1 19.7732 19.7539 10.2581
1002 1 20.9842 21.2335 12.1292
1003 1 19.5616 19.6412 13.4923
1004 1 21.2168 21.2613 14.9211
1005 1 19.6974 19.7052 16.5897
1006 1 21.266 21.3258 18.0794
1007 1 19.7737 19.8233 19.7977
1008 1 21.3565 21.4174 21.4082
1009 1 19.7683 19.7816 23.0005
1010 1 21.3226 21.3442 24.7031
1011 1 19.7331 19.7322 26.1922
1012 1 21.2326 21.2783 27.847
1013 1 19.7236 19.7239 29.3716
1014 1 21.3308 21.3539 30.9473
1015 1 19.7622 19.7823 32.5088
1016 1 21.3452 21.3821 34.0769
1017 1 19.7654 19.7884 35.6652
1018 1 21.373 21.3674 37.2409
1019 1 21.3057 24.5391 11.9497
1020 1 19.7329 22.9441 10.2981
1021 1 22.8591 22.865 13.4681
1022 1 21.2635 24.5089 14.8585
1023 1 19.7335 26.1657 13.4158
1024 1 19.5742 22.8342 16.4242
1025 1 21.025 24.1536 18.0075
1026 1 19.593 22.7681 19.7377
1027 1 21.144 24.3338 21.2348
1028 1 19.7934 22.9146 23.0639
1029 1 21.1752 24.5501 24.9179
1030 1 19.596 22.9005 26.2602
1031 1 21.1991 24.5548 27.8236
1032 1 19.7154 22.9347 29.3886
1033 1 21.3108 24.5494 30.9295
1034 1 19.7705 22.9592 32.5116
1035 1 21.3466 24.5499 34.0633
1036 1 19.7905 22.9676 35.6634
1037 1 21.3555 24.5462 37.2229
1038 1 18.1778 24.5615 11.8386
1039 1 21.3032 27.8077 14.9385
1040 1 19.8609 26.1237 16.5823
1041 1 21.4712 27.7949 18.1746
1042 1 19.8676 26.0949 19.7151
1043 1 21.4491 27.6724 21.3357
1044 1 19.8982 26.1118 22.9999
1045 1 21.1409 27.7719 24.7982
1046 1 19.6014 26.1833 26.2692
1047 1 21.1857 27.7335 27.9743
1048 1 19.6851 26.1335 29.4069
1049 1 21.3088 27.7334 30.8814
1050 1 19.7553 26.1442 32.4966
1051 1 21.3379 27.7235 34.0675
1052 1 19.7811 26.1366 35.6648
1053 1 21.3569 27.7047 37.2217
1054 1 24.5394 15.0088 11.848
1055 1 24.5263 14.9992 15.0277
1056 1 24.528 15.0269 18.2055
1057 1 24.5341 15.0634 21.3845
1058 1 24.5298 15.0518 24.574
1059 1 22.9487 13.4434 26.1438
1060 1 24.5279 15.0148 27.7382
1061 1 22.9459 13.4351 29.3119
1062 1 24.5284 15.0153 30.9135
1063 1 22.9456 13.4412 32.4794
1064 1 24.529 15.0301 34.0621
1065 1 22.9581 13.4597 35.6484
1066 1 24.5373 15.0416 37.2245
1067 1 22.9417 16.5931 10.2637
1068 1 24.5166 18.1545 11.8297
1069 1 22.9225 16.5825 13.4188
1070 1 24.4989 18.1343 14.9695
1071 1 22.9135 16.5608 16.5943
1072 1 24.4805 18.188 18.1623
1073 1 22.9403 16.6431 19.7919
1074 1 24.4635 18.2347 21.4132
1075 1 22.9244 16.642 22.9924
1076 1 24.4847 18.2269 24.6313
1077 1 22.9447 16.6035 26.1599
1078 1 24.5122 18.1912 27.7813
1079 1 22.9268 16.5839 29.34
1080 1 24.5122 18.1796 30.923
1081 1 22.9358 16.6077 32.5034
1082 1 24.5365 18.1976 34.0696
1083 1 22.9495 16.6119 35.6447
1084 1 24.5331 18.2211 37.2313
1085 1 22.9277 19.739 10.2646
1086 1 24.5945 21.3315 11.8382
1087 1 22.8773 19.7185 13.3807
1088 1 26.1643 22.912 16.1659
1089 1 22.8397 19.7137 16.5117
1090 1 22.9701 19.932 19.7518
1091 1 24.512 21.4814 21.9192
1092 2 25.0037 24.0636 22.652
1093 1 22.8605 19.7971 23.0316
1094 1 24.2256 21.4713 24.7536
1095 1 22.8946 19.7457 26.2575
1096 1 22.8516 22.9269 29.3234
1097 1 22.8969 19.7298 29.3721
1098 1 24.5116 21.3545 30.8578
1099 1 22.9343 19.7966 32.5019
1100 1 24.5068 21.3879 34.0545
1101 1 22.9526 19.802 35.65
1102 1 24.5338 21.385 37.2249
1103 1 24.5145 24.5139 11.9535
1104 1 22.8833 26.1498 13.4438
1105 1 24.4919 24.526 14.8243
1106 1 24.4781 21.2664 14.9203
1107 1 22.815 22.9242 16.3349
1108 2 26.9037 23.4724 18.5972
1109 1 22.8338 22.7321 19.5874
1110 2 26.1377 26.2424 21.2607
1111 1 22.6238 23.0822 23.2215
1112 1 24.3452 24.3593 25.1324
1113 1 22.773 22.866 26.4443
1114 1 26.0703 22.7479 26.4561
1115 1 24.4693 24.4993 27.922
1116 1 24.5119 24.5406 30.8387
1117 1 22.936 22.9392 32.49
1118 1 24.5167 24.551 34.0422
1119 1 22.9457 22.9664 35.6329
1120 1 24.5293 24.5588 37.2145
1121 1 22.4573 22.4375 10.7882
1122 1 24.543 27.7537 11.93
1123 1 24.5043 24.5417 17.5194
1124 1 22.5774 25.5906 19.093
1125 2 24.8717 24.2959 20.1133
1126 2 24.2421 27.3612 19.7883
1127 2 23.3524 25.6977 21.5735
1128 2 22.953 26.2361 23.8256
1129 1 22.8112 26.1769 26.4362
1130 1 24.4532 27.8469 27.9128
1131 1 22.8708 26.1419 29.3347
1132 1 24.5121 27.7513 30.8421
1133 1 22.941 26.1527 32.4604
1134 1 24.5242 27.7269 34.0411
1135 1 22.9448 26.1388 35.6378
1136 1 24.5317 27.7196 37.2216
1137 1 27.7082 15.007 11.8522
1138 1 27.7049 15.0002 15.0214
1139 1 27.7054 15.0259 18.2039
1140 1 27.7044 15.1214 21.3907
1141 1 27.7127 15.0708 24.5541
1142 1 26.1102 13.4589 26.1481
1143 1 27.7166 15.0379 27.7279
1144 1 26.1298 13.4453 29.3035
1145 1 27.7063 15.0138 30.891
1146 1 26.1264 13.4573 32.4711
1147 1 27.6994 15.0498 34.0595
1148 1 26.1119 13.4652 35.631
1149 1 27.6981 15.0433 37.2277
1150 1 26.1223 16.6015 10.2625
1151 1 27.7096 18.1799 11.804
1152 1 26.1039 16.5759 13.4145
1153 1 27.7085 18.1537 14.9908
1154 1 26.1085 16.5979 16.5845
1155 1 27.721 18.1313 18.1076
1156 1 26.0796 16.6396 19.7702
1157 1 27.7146 18.0577 21.3981
1158 1 26.0982 16.6805 23.0193
1159 1 27.7156 18.1752 24.6304
1160 1 26.0958 16.6328 26.1746
1161 1 27.664 18.1694 27.7848
1162 1 26.1188 16.5958 29.3408
1163 1 27.7066 18.1831 30.9263
1164 1 26.1248 16.6123 32.4935
1165 1 27.7087 18.2151 34.0821
1166 1 26.1214 16.6382 35.6509
1167 1 27.6988 18.214 37.2308
1168 1 26.1411 19.7571 10.2458
1169 1 29.3181 19.7336 13.3808
1170 1 26.1162 19.7232 13.3928
1171 1 26.1124 19.6766 16.5164
1172 1 27.6951 20.9847 18.1942
1173 1 24.4535 21.3902 17.7912
1174 1 26.1486 19.6351 23.0473
1175 1 28.0204 20.9872 24.6781
1176 1 26.0797 19.8519 26.1768
1177 1 27.751 21.2833 27.8135
1178 1 26.1254 19.7241 29.3755
1179 1 27.6946 21.3626 30.9165
1180 1 26.0947 19.7853 32.48
1181 1 27.6996 21.3856 34.0612
1182 1 26.1156 19.7941 35.6421
1183 1 27.7046 21.384 37.2203
1184 1 26.2013 22.9749 10.2843
1185 1 27.7132 21.332 11.8129
1186 1 26.1781 26.1452 13.3285
1187 1 26.1405 22.8942 13.4007
1188 1 27.7776 20.8784 21.3967
1189 1 27.5217 24.4869 25.1087
1190 2 27.9155 25.1497 22.8143
1191 1 24.4408 21.279 27.9232
1192 1 29.2808 22.8793 26.1868
1193 1 27.6929 24.4944 27.822
1194 1 26.1222 22.9208 29.3153
1195 1 27.6943 24.5316 30.8876
1196 1 26.0959 22.9649 32.4629
1197 1 27.6938 24.5524 34.0369
1198 1 26.1011 22.9649 35.627
1199 1 27.6848 24.5529 37.2166
1200 1 27.7673 24.545 11.9346
1201 1 26.1237 19.4169 19.7776
1202 2 25.5024 21.7142 19.8728
1203 1 25.7284 26.2985 23.8615
1204 1 26.0027 26.184 26.4701
1205 1 29.3093 26.1031 26.3379
1206 1 26.108 26.1642 29.3283
1207 1 27.6773 27.7267 30.879
1208 1 26.079 26.1425 32.4421
1209 1 27.6791 27.7221 34.0476
1210 1 26.0995 26.1447 35.6377
1211 1 27.6871 27.7136 37.2072
1212 1 29.2793 13.4552 26.1394
1213 1 29.2897 13.4443 29.3032
1214 1 29.2934 13.4569 32.4696
1215 1 29.2961 13.4452 35.6504
1216 1 29.3053 16.6077 10.2646
1217 1 29.3001 16.5795 13.4189
1218 1 29.307 16.5775 16.5736
1219 1 29.3208 16.6488 23.0152
1220 1 29.3147 16.6463 26.1843
1221 1 29.2985 16.5943 29.3334
1222 1 29.2893 16.6198 32.4961
1223 1 29.2876 19.7742 10.2372
1224 1 29.3462 19.737 16.5396
1225 1 29.3789 19.5377 22.9842
1226 1 29.3147 19.7452 29.3625
1227 1 29.2937 19.7809 32.506
1228 1 29.2846 19.7944 35.6393
1229 1 27.724 21.2218 14.9358
1230 1 26.5277 22.4288 23.7183
1231 1 29.2267 22.7688 22.9555
1232 1 29.2768 22.9736 32.4783
1233 1 29.2839 22.9749 35.6309
1234 1 27.779 27.7772 11.9108
1235 1 26.2954 26.1301 16.0979
1236 1 29.2732 26.133 35.6268
1237 2 26.3786 26.1378 18.7705
1238 1 22.7686 26.102 16.3088
1239 1 29.2871 16.6268 35.6335
1240 1 21.357 27.7467 11.8391
1241 1 29.4026 19.5919 26.2557
1242 1 29.2882 22.6457 19.7785
1243 1 24.5762 27.6682 17.5868
1244 1 29.3291 16.655 19.7696
1245 1 27.877 24.4821 14.8068
1246 1 29.2839 13.4795 22.9584
1247 1 29.2777 26.1427 32.466
1248 1 29.3558 19.5468 19.7601
1249 1 26.1313 13.4973 22.9634
1250 1 27.7108 27.7709 27.7813
1251 1 26.1498 26.1487 10.4358
1252 1 22.9482 13.4729 22.9569
1253 1 29.2921 13.4778 19.8031
1254 1 26.1322 13.4822 19.817
1255 1 22.9538 13.4618 19.7964
1256 1 29.2487 22.5963 16.5244
1257 1 19.7936 13.4443 22.9653
1258 1 29.3172 22.9247 29.3397
1259 1 16.6022 13.4253 10.2776
1260 1 22.9488 13.4405 16.6135
1261 1 22.9364 13.4356 10.2815
1262 1 16.6192 13.4399 19.8156
1263 1 26.1355 13.4367 10.275
1264 1 16.6268 13.4462 22.9621
1265 1 29.285 13.4411 13.4437
1266 1 19.795 13.4496 19.8075
1267 1 22.9465 13.419 13.4511
1268 1 16.6083 13.4152 16.64
1269 1 19.7717 13.4306 10.2752
1270 1 19.7837 13.4129 13.4497
1271 1 19.7826 13.4066 16.6249
1272 1 29.2923 13.4343 10.2855
1273 1 29.2905 13.4265 16.6163
1274 1 26.1106 13.4388 16.6209
1275 1 16.6122 13.4134 13.4534
1276 1 22.9662 26.1745 10.3111
1277 1 26.1258 13.4319 13.4599
1278 2 27.067 23.2915 21.2993
1279 1 29.3053 26.1264 29.2811
1280 1 24.5112 27.7556 14.8329
1281 2 28.4396 25.1274 20.2049
1282 1 29.351 22.8569 13.3795
1283 2 28.3967 24.9536 17.427
1284 1 27.7125 27.7018 24.9727
1285 1 24.3523 28.0641 25.0795
1286 1 27.8126 27.843 14.8006
1287 1 29.3193 22.9619 10.2532
1288 1 29.4828 26.1807 13.4546
1289 1 28.3704 27.6247 20.6377
1290 1 29.3148 26.1527 10.2849
1291 1 27.9597 28.0764 17.9502
1292 1 29.6119 26.636 16.2946
1293 2 24.4602 28.1075 22.2439
1294 2 27.1531 28.3429 22.612
1295 1 15.1099 21.353 15.0265
1296 1 15.0992 24.5499 21.39
1297 1 15.0926 24.5413 24.5514
1298 1 29.8331 26.6634 22.8232
1299 1 15.0805 27.6989 21.393
1300 1 15.0761 27.7245 24.5647
1301 1 15.068 24.5164 18.2298
1302 1 15.0585 27.7116 18.2308
1303 1 15.059 21.36 21.3934
1304 1 15.0515 24.5401 15.0434
1305 1 15.0645 21.3688 18.2325
1306 1 15.0444 27.7154 15.0427
1307 1 15.0402 27.7304 11.8618
1308 1 15.0422 21.3824 24.5772
1309 1 15.013 18.2093 24.5639
1310 1 15.0292 15.0341 37.2372
1311 1 15.0379 24.5518 27.7325
1312 1 15.0374 24.5324 11.868
1313 1 30.8685 15.0185 11.8439
1314 1 30.8845 15.0138 15.0231
1315 1 30.8803 15.0095 18.1822
1316 1 30.8732 15.0283 21.3753
1317 1 30.8715 15.0282 24.5717
1318 1 30.8862 15.0179 27.7334
1319 1 30.8732 15.0184 30.888
1320 1 30.8753 15.0414 34.0687
1321 1 30.8757 15.0421 37.2178
1322 1 32.477 19.769 10.253
1323 1 30.8967 18.1551 14.9863
1324 1 30.9411 18.1349 18.1387
1325 1 30.9884 18.1044 21.3706
1326 1 30.9478 18.1482 24.6186
1327 1 30.9398 18.1622 27.7843
1328 1 30.8798 18.1977 30.9381
1329 1 30.8751 18.2205 34.0548
1330 1 30.8532 18.2207 37.2351
1331 1 30.9003 24.5314 11.8548
1332 1 30.9057 21.3055 14.9869
1333 1 32.466 22.8851 16.582
1334 1 30.8469 21.2944 24.5739
1335 1 30.8883 21.3219 27.7597
1336 1 30.8758 21.3633 30.9007
1337 1 30.8651 21.385 34.0646
1338 1 30.865 21.3968 37.2349
1339 1 34.0386 24.5482 11.8491
1340 1 30.7869 24.4923 21.3416
1341 1 30.7126 24.5546 24.5351
1342 1 30.8991 24.4986 27.7577
1343 1 30.8623 24.5332 30.8771
1344 1 30.8513 24.5586 34.0393
1345 1 30.8661 24.5648 37.2174
1346 1 30.9338 27.7457 24.7906
1347 1 30.9314 27.731 27.7073
1348 1 30.8566 27.7182 34.0587
1349 1 30.8673 27.7255 37.2156
1350 1 34.0356 15.0194 11.8663
1351 1 34.0497 15.0179 15.0163
1352 1 34.054 15.0209 18.1928
1353 1 34.0577 15.0179 21.3825
1354 1 34.0617 15.0153 24.5386
1355 1 32.4632 13.4423 26.126
1356 1 34.0637 15.0186 27.7264
1357 1 32.4672 13.4506 29.311
1358 1 34.0577 15.0252 30.9
1359 1 32.4606 13.4492 32.4797
1360 1 34.0346 15.0396 34.0536
1361 1 32.4492 13.4623 35.6401
1362 1 34.041 15.0437 37.217
1363 1 32.4534 16.6056 10.2674
1364 1 34.0516 18.1922 11.8537
1365 1 32.4735 16.6112 13.4204
1366 1 34.0609 18.1855 15.0191
1367 1 32.4905 16.5858 16.595
1368 1 34.0643 18.1858 18.1879
1369 1 32.4925 16.5888 19.7695
1370 1 34.0809 18.1671 21.3693
1371 1 32.4965 16.5946 22.9748
1372 1 34.0695 18.185 24.5625
1373 1 32.4929 16.5996 26.1515
1374 1 34.0641 18.1891 27.7365
1375 1 32.5036 16.5866 29.3363
1376 1 34.0457 18.2038 30.8959
1377 1 32.4748 16.6189 32.4877
1378 1 34.0371 18.2115 34.0559
1379 1 32.4514 16.6199 35.6463
1380 1 34.0369 18.2186 37.2153
1381 1 37.2142 21.3859 11.8509
1382 1 32.4893 19.7633 13.404
1383 1 34.0697 21.3675 15.0134
1384 1 32.4949 19.7393 16.5975
1385 1 35.6163 22.9592 16.5824
1386 1 34.0514 21.3463 18.203
1387 1 34.0418 21.3623 21.3948
1388 1 32.4895 19.7471 22.9854
1389 1 34.0179 21.3776 24.5516
1390 1 32.4867 19.7493 26.1564
1391 1 34.0427 21.3915 27.7079
1392 1 32.4883 19.7783 29.3349
1393 1 34.0518 21.3873 30.898
1394 1 32.4501 19.7879 32.488
1395 1 34.0406 21.3859 34.0565
1396 1 32.455 19.8067 35.6475
1397 1 34.0339 21.3912 37.223
1398 1 35.6194 22.9629 10.2685
1399 1 32.457 26.1252 10.2704
1400 1 32.4569 22.9457 13.4283
1401 1 34.0195 24.5131 18.1577
1402 1 32.4646 22.8766 19.8385
1403 1 34.0161 24.5287 21.4019
1404 1 32.3822 22.9503 22.9701
1405 1 33.9854 24.5476 24.5452
1406 1 32.4151 22.9569 26.1116
1407 1 34.0296 24.5279 27.7129
1408 1 32.4557 22.9514 29.2968
1409 1 34.0404 24.5483 30.9012
1410 1 32.4514 22.9647 32.4853
1411 1 34.0301 24.5509 34.0466
1412 1 32.4438 22.9656 35.6458
1413 1 34.0283 24.5533 37.2179
1414 1 32.4653 22.9672 10.2574
1415 1 40.3549 24.5652 11.8676
1416 1 33.9924 24.5505 15.0352
1417 1 32.5293 26.0046 19.7293
1418 1 32.4214 26.1882 22.9518
1419 1 34.0427 27.7222 24.5579
1420 1 32.4541 26.1037 26.1461
1421 1 34.0505 27.7125 27.721
1422 1 32.4516 26.1257 29.303
1423 1 34.0398 27.72 30.8952
1424 1 32.4482 26.1414 32.472
1425 1 34.0235 27.7193 34.0408
1426 1 32.45 26.1453 35.6382
1427 1 34.0202 27.7309 37.2231
1428 1 37.2152 15.034 11.8568
1429 1 37.2257 15.014 15.0256
1430 1 37.2328 15.0412 18.1987
1431 1 37.2106 15.0342 21.3642
1432 1 37.2137 15.0283 24.5509
1433 1 35.6367 13.4507 26.1357
1434 1 37.212 15.0508 27.7177
1435 1 35.6299 13.4438 29.3019
1436 1 37.2163 15.0539 30.8903
1437 1 35.6151 13.4538 32.46
1438 1 37.2041 15.0482 34.0509
1439 1 35.6107 13.4661 35.6433
1440 1 37.2014 15.055 37.2093
1441 1 35.6398 16.6137 10.2647
1442 1 37.1993 18.1915 11.8709
1443 1 35.6367 16.621 13.4281
1444 1 37.2112 18.2109 15.0228
1445 1 35.6314 16.6174 16.6077
1446 1 37.2182 18.2169 18.212
1447 1 35.6375 16.6083 19.7715
1448 1 37.2217 18.1992 21.3752
1449 1 35.632 16.6082 22.9559
1450 1 37.2244 18.2163 24.5275
1451 1 35.643 16.6044 26.139
1452 1 37.2177 18.2142 27.7235
1453 1 35.6349 16.6218 29.3078
1454 1 37.213 18.2161 30.8885
1455 1 35.6295 16.6298 32.4745
1456 1 37.2102 18.2157 34.0468
1457 1 35.6235 16.6329 35.6441
1458 1 37.2036 18.2146 37.2144
1459 1 35.6205 19.7885 10.2772
1460 1 38.7763 22.9788 10.2831
1461 1 35.6461 19.7863 13.4353
1462 1 37.2104 21.3904 15.0219
1463 1 35.6442 19.7779 16.6078
1464 1 37.2213 21.3753 18.2035
1465 1 35.6431 19.7753 19.789
1466 1 37.1888 21.3834 21.3791
1467 1 35.6429 19.7908 22.9599
1468 1 37.1889 21.3714 24.5217
1469 1 35.6328 19.7982 26.135
1470 1 37.1999 21.3757 27.717
1471 1 35.6301 19.8003 29.3078
1472 1 37.1984 21.375 30.8727
1473 1 35.6168 19.791 32.4811
1474 1 37.2082 21.3906 34.0486
1475 1 35.6225 19.793 35.6277
1476 1 37.2095 21.3778 37.2203
1477 1 38.7872 26.147 10.2711
1478 1 35.6171 22.9782 13.4445
1479 1 38.7579 26.1504 13.4554
1480 1 37.1748 24.5597 15.0354
1481 1 35.5799 26.1404 16.6182
1482 1 35.6094 22.9566 19.8071
1483 1 37.1836 24.543 21.3767
1484 1 35.5969 22.9515 22.9517
1485 1 37.181 24.5525 24.5368
1486 1 35.6044 22.9562 26.1298
1487 1 37.2044 24.5439 27.7174
1488 1 35.6174 22.9636 29.301
1489 1 37.1929 24.5555 30.8782
1490 1 35.6222 22.9619 32.4843
1491 1 37.1929 24.5486 34.0474
1492 1 35.6142 22.9797 35.6302
1493 1 37.1968 24.5531 37.214
1494 1 33.9725 27.7275 15.0123
1495 1 35.593 26.1432 13.439
1496 1 37.1585 27.7368 18.189
1497 1 35.5749 26.1351 19.7633
1498 1 37.1624 27.7276 21.3686
1499 1 35.575 26.1283 22.9448
1500 1 37.1863 27.7236 24.5509
1501 1 35.6176 26.1263 26.1258
1502 1 37.1977 27.7229 27.7141
1503 1 35.6154 26.1264 29.3087
1504 1 37.1978 27.7264 30.8865
1505 1 35.6134 26.1474 32.4783
1506 1 37.1894 27.7309 34.0554
1507 1 35.6142 26.1411 35.6401
1508 1 37.2085 27.7237 37.2258
1509 1 40.3819 15.0407 11.8671
1510 1 40.3603 15.0549 15.0397
1511 1 40.3816 15.0522 18.1923
1512 1 40.372 15.0544 21.3631
1513 1 38.8012 13.4592 22.9578
1514 1 40.3795 15.0393 24.5361
1515 1 38.7842 13.4751 26.1202
1516 1 40.3752 15.052 27.7143
1517 1 38.7936 13.4562 29.2936
1518 1 40.3655 15.0361 30.8794
1519 1 38.7983 13.4636 32.452
1520 1 40.3762 15.0524 34.0375
1521 1 38.7862 13.4702 35.6241
1522 1 40.3589 15.0446 37.2186
1523 1 38.7858 16.623 10.2678
1524 1 40.3759 18.2176 11.8629
1525 1 38.7963 16.6273 13.4526
1526 1 40.3765 18.2236 15.0338
1527 1 38.792 16.6252 16.6149
1528 1 40.3792 18.2177 18.1998
1529 1 38.8058 16.61 19.7772
1530 1 40.3597 18.2205 21.3754
1531 1 38.799 16.6275 22.9629
1532 1 40.3669 18.219 24.5412
1533 1 38.7896 16.6192 26.1274
1534 1 40.3853 18.2113 27.7143
1535 1 38.7848 16.6255 29.2841
1536 1 40.3736 18.2165 30.8798
1537 1 38.7859 16.6344 32.4638
1538 1 40.3727 18.2121 34.0445
1539 1 38.784 16.6273 35.6247
1540 1 40.3709 18.2151 37.2006
1541 1 38.7996 19.7963 10.279
1542 1 40.3548 21.3901 11.8628
1543 1 38.7776 19.7915 13.4516
1544 1 38.7675 22.9708 16.6248
1545 1 38.7834 19.7975 16.6117
1546 1 40.3541 21.3888 18.2089
1547 1 38.7821 19.797 19.7892
1548 1 40.3794 21.3959 21.3622
1549 1 38.7765 19.7902 22.9673
1550 1 40.362 21.3923 24.5473
1551 1 38.7865 19.8079 26.1281
1552 1 40.3658 21.3876 27.7164
1553 1 38.7822 19.8002 29.2883
1554 1 40.3702 21.3936 30.878
1555 1 38.7843 19.7904 32.462
1556 1 40.3633 21.3858 34.045
1557 1 38.7737 19.8035 35.6312
1558 1 40.3602 21.3817 37.2132
1559 1 38.7786 22.9786 13.4438
1560 1 38.7488 26.1501 16.6128
1561 1 37.1828 24.5663 18.1997
1562 1 40.3566 24.5663 18.2172
1563 1 38.7664 22.9752 19.7746
1564 1 40.3465 24.5712 21.3816
1565 1 38.7605 22.9666 22.9589
1566 1 40.3497 24.5607 24.5375
1567 1 38.7725 22.9746 26.1246
1568 1 40.3398 24.5567 27.7208
1569 1 38.787 22.967 29.2908
1570 1 40.3697 24.5412 30.8836
1571 1 38.7869 22.9749 32.4782
1572 1 40.3725 24.5453 34.0462
1573 1 38.7839 22.9752 35.6287
1574 1 40.3662 24.5494 37.2151
1575 1 40.3513 24.5751 15.0239
1576 1 40.3636 27.7191 11.8585
1577 1 37.2031 24.553 11.8595
1578 1 40.3373 27.7393 18.1982
1579 1 38.7586 26.1383 19.793
1580 1 40.3356 27.7368 21.3691
1581 1 38.7698 26.1392 22.9477
1582 1 40.3481 27.7224 24.5453
1583 1 38.7706 26.1329 26.1113
1584 1 40.3577 27.7115 27.7042
1585 1 38.7796 26.1388 29.2986
1586 1 40.3656 27.7094 30.8916
1587 1 38.7781 26.1329 32.4643
1588 1 40.3718 27.7253 34.0491
1589 1 38.7843 26.1356 35.6348
1590 1 40.3506 27.7224 37.2179
1591 1 40.3622 21.3954 15.0336
1592 1 35.6232 13.4566 22.9564
1593 1 34.0602 21.375 11.8487
1594 1 35.6235 26.1289 10.2695
1595 1 30.8725 27.7238 30.9012
1596 1 38.7871 13.4646 19.7808
1597 1 30.9281 21.283 18.1777
1598 1 32.485 19.7283 19.7819
1599 1 30.7553 24.4622 15.0655
1600 1 30.9095 21.3417 11.8163
1601 1 40.3373 27.7415 15.0485
1602 1 30.8913 21.2857 21.3909
1603 1 38.7923 13.4463 13.4527
1604 1 32.3753 26.1069 13.4488
1605 1 32.452 13.4357 19.7902
1606 1 31.1701 27.9076 21.0802
1607 1 35.6372 13.4428 19.7871
1608 1 32.4665 13.4476 22.9594
1609 1 30.9043 24.2389 18.1801
1610 1 35.6333 13.4434 16.6149
1611 1 33.9566 27.7528 18.1773
1612 1 35.6235 13.4477 13.4445
1613 1 30.896 18.1752 11.835
1614 1 32.4661 13.4364 16.6143
1615 1 38.7957 13.4576 16.6175
1616 1 33.9856 27.7347 21.3588
1617 1 38.7855 13.4478 10.2895
1618 1 35.6417 13.4515 10.2784
1619 1 32.4494 13.4452 10.2766
1620 1 32.4652 13.4327 13.4538
1621 1 37.1925 27.7288 11.8508
1622 1 37.1739 27.7359 15.0211
1623 1 32.3414 26.1013 16.6603
1624 1 30.9539 27.781 11.8303
1625 1 34.0481 27.7118 11.8278
1626 1 31.1432 27.9544 14.8704
1627 1 31.1978 28.3241 17.9597
1628 2 30.0138 26.5745 18.9891
1629 1 10.2869 10.2869 10.2869
1630 1 11.8684 11.8675 11.8744
1631 1 10.288 10.2839 13.4478
1632 1 11.8633 11.862 15.0483
1633 1 10.2742 10.286 16.6294
1634 1 11.8667 11.8698 18.21
1635 1 10.2896 10.2869 19.7861
1636 1 11.8631 11.878 21.3885
1637 1 10.2955 10.2869 22.9497
1638 1 11.8688 11.8641 24.5547
1639 1 10.2858 10.2847 26.1373
1640 1 11.8714 11.87 27.712
1641 1 10.2949 10.2837 29.2987
1642 1 11.8701 11.8751 30.8857
1643 1 10.3071 10.2847 32.4672
1644 1 11.8683 11.8602 34.055
1645 1 10.2841 10.2816 35.622
1646 1 11.8646 11.8715 37.2033
1647 1 13.4566 10.276 10.287
1648 1 13.4561 10.2683 13.4589
1649 1 13.4531 10.2796 16.6207
1650 1 13.4495 10.2782 19.7914
1651 1 13.4583 10.286 22.9534
1652 1 13.4386 10.2781 26.1235
1653 1 13.4433 10.2771 29.2946
1654 1 13.4533 10.2826 32.457
1655 1 13.4514 10.2885 35.6359
1656 1 15.0361 11.8647 27.7062
1657 1 15.0387 11.8666 11.8765
1658 1 15.0346 11.864 24.5588
1659 1 15.0246 11.8808 30.9012
1660 1 15.0207 11.8566 18.2057
1661 1 16.6109 10.2609 10.2823
1662 1 18.1993 11.8399 11.8611
1663 1 16.6099 10.2712 13.4482
1664 1 18.1975 11.8368 15.0465
1665 1 16.6189 10.2782 16.6304
1666 1 18.1991 11.849 18.2172
1667 1 16.6252 10.2801 19.7926
1668 1 18.2076 11.8632 21.3895
1669 1 16.6236 10.2875 22.9717
1670 1 18.2048 11.8656 24.5503
1671 1 16.626 10.281 26.1216
1672 1 18.2078 11.8574 27.7209
1673 1 16.6275 10.2846 29.2927
1674 1 18.1928 11.8719 30.8731
1675 1 16.6198 10.284 32.4715
1676 1 18.2001 11.871 34.0718
1677 1 16.6354 10.2657 35.6413
1678 1 18.2054 11.8572 37.216
1679 1 19.7875 10.2801 10.2708
1680 1 21.3706 11.8417 11.8576
1681 1 19.7832 10.2533 13.4505
1682 1 21.3592 11.8577 15.0555
1683 1 19.7978 10.2835 16.6338
1684 1 21.3655 11.8623 18.2146
1685 1 19.7869 10.2824 19.7905
1686 1 21.3797 11.8752 21.3894
1687 1 19.7848 10.2906 22.9642
1688 1 21.3788 11.8622 24.5368
1689 1 19.7899 10.2817 26.1422
1690 1 21.3619 11.8497 27.7107
1691 1 19.7818 10.2843 29.3031
1692 1 21.3689 11.8743 30.8907
1693 1 19.7853 10.2904 32.4706
1694 1 21.3633 11.8726 34.0638
1695 1 19.7811 10.2878 35.6234
1696 1 21.368 11.8769 37.2289
1697 1 22.9529 10.2741 10.2771
1698 1 24.5327 11.8471 11.8574
1699 1 22.9629 10.276 13.4576
1700 1 24.5408 11.8567 15.0369
1701 1 22.9445 10.2672 16.6374
1702 1 24.5304 11.8673 18.2132
1703 1 22.9627 10.2825 19.8003
1704 1 24.5461 11.8919 21.3877
1705 1 22.962 10.2903 22.967
1706 1 24.5318 11.8828 24.5418
1707 1 22.9474 10.2768 26.1262
1708 1 24.54 11.8651 27.7117
1709 1 22.9513 10.296 29.3023
1710 1 24.5337 11.8629 30.8784
1711 1 22.9554 10.2865 32.4762
1712 1 24.5411 11.8713 34.0579
1713 1 22.9602 10.288 35.6334
1714 1 24.5369 11.8717 37.2158
1715 1 26.1206 10.2798 10.2792
1716 1 27.6987 11.8561 11.8527
1717 1 26.1124 10.2694 13.4575
1718 1 27.7105 11.8526 15.0418
1719 1 26.1342 10.2791 16.6243
1720 1 27.713 11.8639 18.2095
1721 1 26.1263 10.2884 19.8014
1722 1 27.6869 11.8988 21.3881
1723 1 26.1212 10.3052 22.9638
1724 1 27.7191 11.8758 24.5427
1725 1 26.1128 10.3019 26.1207
1726 1 27.713 11.8804 27.7207
1727 1 26.107 10.2867 29.2972
1728 1 27.7135 11.87 30.8746
1729 1 26.1138 10.2956 32.4701
1730 1 27.7086 11.8674 34.0639
1731 1 26.1154 10.2991 35.6291
1732 1 27.7109 11.8645 37.2114
1733 1 29.29 10.2915 10.268
1734 1 29.2881 10.2942 13.4482
1735 1 29.2905 10.2797 16.6329
1736 1 29.2844 10.2964 19.7867
1737 1 29.2945 10.3041 22.9673
1738 1 29.3025 10.2955 26.13
1739 1 29.2795 10.2914 29.2866
1740 1 29.2776 10.2874 32.4731
1741 1 29.2803 10.2946 35.6294
1742 1 15.0316 11.8702 34.0524
1743 1 15.0252 11.8579 21.3771
1744 1 15.0414 11.8802 37.2128
1745 1 15.0462 11.8488 15.0377
1746 1 30.8761 11.8575 11.8473
1747 1 30.8755 11.8487 15.0264
1748 1 30.8602 11.8734 18.2067
1749 1 30.8789 11.8704 21.3759
1750 1 30.8682 11.8667 24.5446
1751 1 30.8673 11.8676 27.7201
1752 1 30.8846 11.8583 30.8903
1753 1 30.8641 11.8819 34.0499
1754 1 30.8667 11.8893 37.2147
1755 1 32.4581 10.293 10.2717
1756 1 34.0386 11.865 11.8608
1757 1 32.4509 10.2823 13.4549
1758 1 34.0541 11.8624 15.0242
1759 1 32.4641 10.2838 16.6146
1760 1 34.0405 11.8567 18.2076
1761 1 32.4628 10.2933 19.7889
1762 1 34.0406 11.8681 21.3672
1763 1 32.4565 10.294 22.9568
1764 1 34.0455 11.8581 24.5463
1765 1 32.4535 10.2932 26.1146
1766 1 34.045 11.8605 27.7217
1767 1 32.4563 10.2783 29.2866
1768 1 34.0329 11.8672 30.8968
1769 1 32.4462 10.3082 32.4634
1770 1 34.0449 11.8734 34.0441
1771 1 32.452 10.2966 35.624
1772 1 34.0381 11.8769 37.2176
1773 1 35.6255 10.2918 10.2716
1774 1 37.2152 11.8716 11.8668
1775 1 35.6239 10.2852 13.4451
1776 1 37.2112 11.873 15.0237
1777 1 35.6262 10.2981 16.6202
1778 1 37.2066 11.8705 18.2038
1779 1 35.6203 10.2892 19.7882
1780 1 37.2209 11.8746 21.3672
1781 1 35.6324 10.2883 22.9566
1782 1 37.2121 11.8693 24.5377
1783 1 35.6258 10.2946 26.1262
1784 1 37.2044 11.8743 27.709
1785 1 35.6214 10.307 29.2856
1786 1 37.2069 11.8774 30.8847
1787 1 35.6312 10.2874 32.4724
1788 1 37.2061 11.8769 34.0466
1789 1 35.623 10.2951 35.6353
1790 1 37.1983 11.887 37.2162
1791 1 38.7898 10.2954 10.2739
1792 1 40.3605 11.8755 11.8724
1793 1 38.7967 10.2846 13.4419
1794 1 40.3703 11.8818 15.0343
1795 1 38.7861 10.2887 16.615
1796 1 40.3743 11.8732 18.204
1797 1 38.7948 10.2889 19.7837
1798 1 40.3637 11.8731 21.3689
1799 1 38.7913 10.2916 22.9468
1800 1 40.3759 11.8759 24.5346
1801 1 38.786 10.2981 26.1214
1802 1 40.3697 11.868 27.7122
1803 1 38.8024 10.2981 29.2901
1804 1 40.3621 11.8835 30.8673
1805 1 38.7721 10.3067 32.4592
1806 1 40.3758 11.8818 34.0463
1807 1 38.7825 10.2954 35.6273
1808 1 40.3619 11.8893 37.2099
1809 1 0.7913 0.7913 0.7913
1810 1 2.3739 2.3739 2.3739
1811 1 0.7913 0.7913 3.9565
1812 1 2.3739 2.3739 5.5391
1813 1 0.7913 0.7913 7.1217
1814 1 2.3739 2.3739 8.7043
1815 1 0.7913 0.7913 10.2869
1816 1 2.3739 2.3739 11.8695
1817 1 0.7913 0.7913 13.4521
1818 1 2.3739 2.3739 15.0347
1819 1 0.7913 0.7913 16.6173
1820 1 2.3739 2.3739 18.1999
1821 1 0.7913 0.7913 19.7825
1822 1 2.3739 2.3739 21.3651
1823 1 0.7913 0.7913 22.9477
1824 1 2.3739 2.3739 24.5303
1825 1 0.7913 0.7913 26.1129
1826 1 2.3739 2.3739 27.6955
1827 1 0.7913 0.7913 29.2781
1828 1 2.3739 2.3739 30.8607
1829 1 0.7913 0.7913 32.4433
1830 1 2.3739 2.3739 34.0259
1831 1 0.7913 0.7913 35.6085
1832 1 2.3739 2.3739 37.1911
1833 1 0.7913 0.7913 38.7737
1834 1 2.3739 2.3739 40.3563
1835 1 0.7913 0.7913 41.9389
1836 1 2.3739 2.3739 43.5215
1837 1 0.7913 0.7913 45.1041
1838 1 2.3739 2.3739 46.6867
1839 1 0.7913 0.7913 48.2693
1840 1 2.3739 2.3739 49.8519
1841 1 0.7913 3.9565 0.7913
1842 1 2.3739 5.5391 2.3739
1843 1 0.7913 3.9565 3.9565
1844 1 2.3739 5.5391 5.5391
1845 1 0.7913 3.9565 7.1217
1846 1 2.3739 5.5391 8.7043
1847 1 0.7913 3.9565 10.2869
1848 1 2.3739 5.5391 11.8695
1849 1 0.7913 3.9565 13.4521
1850 1 2.3739 5.5391 15.0347
1851 1 0.7913 3.9565 16.6173
1852 1 2.3739 5.5391 18.1999
1853 1 0.7913 3.9565 19.7825
1854 1 2.3739 5.5391 21.3651
1855 1 0.7913 3.9565 22.9477
1856 1 2.3739 5.5391 24.5303
1857 1 0.7913 3.9565 26.1129
1858 1 2.3739 5.5391 27.6955
1859 1 0.7913 3.9565 29.2781
1860 1 2.3739 5.5391 30.8607
1861 1 0.7913 3.9565 32.4433
1862 1 2.3739 5.5391 34.0259
1863 1 0.7913 3.9565 35.6085
1864 1 2.3739 5.5391 37.1911
1865 1 0.7913 3.9565 38.7737
1866 1 2.3739 5.5391 40.3563
1867 1 0.7913 3.9565 41.9389
1868 1 2.3739 5.5391 43.5215
1869 1 0.7913 3.9565 45.1041
1870 1 2.3739 5.5391 46.6867
1871 1 0.7913 3.9565 48.2693
1872 1 2.3739 5.5391 49.8519
1873 1 0.7913 7.1217 0.7913
1874 1 2.3739 8.7043 2.3739
1875 1 0.7913 7.1217 3.9565
1876 1 2.3739 8.7043 5.5391
1877 1 0.7913 7.1217 7.1217
1878 1 2.3739 8.7043 8.7043
1879 1 0.7913 7.1217 10.2869
1880 1 2.3739 8.7043 11.8695
1881 1 0.7913 7.1217 13.4521
1882 1 2.3739 8.7043 15.0347
1883 1 0.7913 7.1217 16.6173
1884 1 2.3739 8.7043 18.1999
1885 1 0.7913 7.1217 19.7825
1886 1 2.3739 8.7043 21.3651
1887 1 0.7913 7.1217 22.9477
1888 1 2.3739 8.7043 24.5303
1889 1 0.7913 7.1217 26.1129
1890 1 2.3739 8.7043 27.6955
1891 1 0.7913 7.1217 29.2781
1892 1 2.3739 8.7043 30.8607
1893 1 0.7913 7.1217 32.4433
1894 1 2.3739 8.7043 34.0259
1895 1 0.7913 7.1217 35.6085
1896 1 2.3739 8.7043 37.1911
1897 1 0.7913 7.1217 38.7737
1898 1 2.3739 8.7043 40.3563
1899 1 0.7913 7.1217 41.9389
1900 1 2.3739 8.7043 43.5215
1901 1 0.7913 7.1217 45.1041
1902 1 2.3739 8.7043 46.6867
1903 1 0.7913 7.1217 48.2693
1904 1 2.3739 8.7043 49.8519
1905 1 0.7913 10.2869 0.7913
1906 1 2.3739 11.8695 2.3739
1907 1 0.7913 10.2869 3.9565
1908 1 2.3739 11.8695 5.5391
1909 1 0.7913 10.2869 7.1217
1910 1 2.3739 11.8695 8.7043
1911 1 0.7913 10.2869 10.2869
1912 1 2.3739 11.8695 11.8695
1913 1 0.7913 10.2869 13.4521
1914 1 2.3739 11.8695 15.0347
1915 1 0.7913 10.2869 16.6173
1916 1 2.3739 11.8695 18.1999
1917 1 0.7913 10.2869 19.7825
1918 1 2.3739 11.8695 21.3651
1919 1 0.7913 10.2869 22.9477
1920 1 2.3739 11.8695 24.5303
1921 1 0.7913 10.2869 26.1129
1922 1 2.3739 11.8695 27.6955
1923 1 0.7913 10.2869 29.2781
1924 1 2.3739 11.8695 30.8607
1925 1 0.7913 10.2869 32.4433
1926 1 2.3739 11.8695 34.0259
1927 1 0.7913 10.2869 35.6085
1928 1 2.3739 11.8695 37.1911
1929 1 0.7913 10.2869 38.7737
1930 1 2.3739 11.8695 40.3563
1931 1 0.7913 10.2869 41.9389
1932 1 2.3739 11.8695 43.5215
1933 1 0.7913 10.2869 45.1041
1934 1 2.3739 11.8695 46.6867
1935 1 0.7913 10.2869 48.2693
1936 1 2.3739 11.8695 49.8519
1937 1 0.7913 13.4521 0.7913
1938 1 2.3739 15.0347 2.3739
1939 1 0.7913 13.4521 3.9565
1940 1 2.3739 15.0347 5.5391
1941 1 0.7913 13.4521 7.1217
1942 1 2.3739 15.0347 8.7043
1943 1 0.7913 13.4521 10.2869
1944 1 2.3739 15.0347 11.8695
1945 1 0.7913 13.4521 13.4521
1946 1 2.3739 15.0347 15.0347
1947 1 0.7913 13.4521 16.6173
1948 1 2.3739 15.0347 18.1999
1949 1 0.7913 13.4521 19.7825
1950 1 2.3739 15.0347 21.3651
1951 1 0.7913 13.4521 22.9477
1952 1 2.3739 15.0347 24.5303
1953 1 0.7913 13.4521 26.1129
1954 1 2.3739 15.0347 27.6955
1955 1 0.7913 13.4521 29.2781
1956 1 2.3739 15.0347 30.8607
1957 1 0.7913 13.4521 32.4433
1958 1 2.3739 15.0347 34.0259
1959 1 0.7913 13.4521 35.6085
1960 1 2.3739 15.0347 37.1911
1961 1 0.7913 13.4521 38.7737
1962 1 2.3739 15.0347 40.3563
1963 1 0.7913 13.4521 41.9389
1964 1 2.3739 15.0347 43.5215
1965 1 0.7913 13.4521 45.1041
1966 1 2.3739 15.0347 46.6867
1967 1 0.7913 13.4521 48.2693
1968 1 2.3739 15.0347 49.8519
1969 1 0.7913 16.6173 0.7913
1970 1 2.3739 18.1999 2.3739
1971 1 0.7913 16.6173 3.9565
1972 1 2.3739 18.1999 5.5391
1973 1 0.7913 16.6173 7.1217
1974 1 2.3739 18.1999 8.7043
1975 1 0.7913 16.6173 10.2869
1976 1 2.3739 18.1999 11.8695
1977 1 0.7913 16.6173 13.4521
1978 1 2.3739 18.1999 15.0347
1979 1 0.7913 16.6173 16.6173
1980 1 2.3739 18.1999 18.1999
1981 1 0.7913 16.6173 19.7825
1982 1 2.3739 18.1999 21.3651
1983 1 0.7913 16.6173 22.9477
1984 1 2.3739 18.1999 24.5303
1985 1 0.7913 16.6173 26.1129
1986 1 2.3739 18.1999 27.6955
1987 1 0.7913 16.6173 29.2781
1988 1 2.3739 18.1999 30.8607
1989 1 0.7913 16.6173 32.4433
1990 1 2.3739 18.1999 34.0259
1991 1 0.7913 16.6173 35.6085
1992 1 2.3739 18.1999 37.1911
1993 1 0.7913 16.6173 38.7737
1994 1 2.3739 18.1999 40.3563
1995 1 0.7913 16.6173 41.9389
1996 1 2.3739 18.1999 43.5215
1997 1 0.7913 16.6173 45.1041
1998 1 2.3739 18.1999 46.6867
1999 1 0.7913 16.6173 48.2693
2000 1 2.3739 18.1999 49.8519
2001 1 0.7913 19.7825 0.7913
2002 1 2.3739 21.3651 2.3739
2003 1 0.7913 19.7825 3.9565
2004 1 2.3739 21.3651 5.5391
2005 1 0.7913 19.7825 7.1217
2006 1 2.3739 21.3651 8.7043
2007 1 0.7913 19.7825 10.2869
2008 1 2.3739 21.3651 11.8695
2009 1 0.7913 19.7825 13.4521
2010 1 2.3739 21.3651 15.0347
2011 1 0.7913 19.7825 16.6173
2012 1 2.3739 21.3651 18.1999
2013 1 0.7913 19.7825 19.7825
2014 1 2.3739 21.3651 21.3651
2015 1 0.7913 19.7825 22.9477
2016 1 2.3739 21.3651 24.5303
2017 1 0.7913 19.7825 26.1129
2018 1 2.3739 21.3651 27.6955
2019 1 0.7913 19.7825 29.2781
2020 1 2.3739 21.3651 30.8607
2021 1 0.7913 19.7825 32.4433
2022 1 2.3739 21.3651 34.0259
2023 1 0.7913 19.7825 35.6085
2024 1 2.3739 21.3651 37.1911
2025 1 0.7913 19.7825 38.7737
2026 1 2.3739 21.3651 40.3563
2027 1 0.7913 19.7825 41.9389
2028 1 2.3739 21.3651 43.5215
2029 1 0.7913 19.7825 45.1041
2030 1 2.3739 21.3651 46.6867
2031 1 0.7913 19.7825 48.2693
2032 1 2.3739 21.3651 49.8519
2033 1 0.7913 22.9477 0.7913
2034 1 2.3739 24.5303 2.3739
2035 1 0.7913 22.9477 3.9565
2036 1 2.3739 24.5303 5.5391
2037 1 0.7913 22.9477 7.1217
2038 1 2.3739 24.5303 8.7043
2039 1 0.7913 22.9477 10.2869
2040 1 2.3739 24.5303 11.8695
2041 1 0.7913 22.9477 13.4521
2042 1 2.3739 24.5303 15.0347
2043 1 0.7913 22.9477 16.6173
2044 1 2.3739 24.5303 18.1999
2045 1 0.7913 22.9477 19.7825
2046 1 2.3739 24.5303 21.3651
2047 1 0.7913 22.9477 22.9477
2048 1 2.3739 24.5303 24.5303
2049 1 0.7913 22.9477 26.1129
2050 1 2.3739 24.5303 27.6955
2051 1 0.7913 22.9477 29.2781
2052 1 2.3739 24.5303 30.8607
2053 1 0.7913 22.9477 32.4433
2054 1 2.3739 24.5303 34.0259
2055 1 0.7913 22.9477 35.6085
2056 1 2.3739 24.5303 37.1911
2057 1 0.7913 22.9477 38.7737
2058 1 2.3739 24.5303 40.3563
2059 1 0.7913 22.9477 41.9389
2060 1 2.3739 24.5303 43.5215
2061 1 0.7913 22.9477 45.1041
2062 1 2.3739 24.5303 46.6867
2063 1 0.7913 22.9477 48.2693
2064 1 2.3739 24.5303 49.8519
2065 1 0.7913 26.1129 0.7913
2066 1 2.3739 27.6955 2.3739
2067 1 0.7913 26.1129 3.9565
2068 1 2.3739 27.6955 5.5391
2069 1 0.7913 26.1129 7.1217
2070 1 2.3739 27.6955 8.7043
2071 1 0.7913 26.1129 10.2869
2072 1 2.3739 27.6955 11.8695
2073 1 0.7913 26.1129 13.4521
2074 1 2.3739 27.6955 15.0347
2075 1 0.7913 26.1129 16.6173
2076 1 2.3739 27.6955 18.1999
2077 1 0.7913 26.1129 19.7825
2078 1 2.3739 27.6955 21.3651
2079 1 0.7913 26.1129 22.9477
2080 1 2.3739 27.6955 24.5303
2081 1 0.7913 26.1129 26.1129
2082 1 2.3739 27.6955 27.6955
2083 1 0.7913 26.1129 29.2781
2084 1 2.3739 27.6955 30.8607
2085 1 0.7913 26.1129 32.4433
2086 1 2.3739 27.6955 34.0259
2087 1 0.7913 26.1129 35.6085
2088 1 2.3739 27.6955 37.1911
2089 1 0.7913 26.1129 38.7737
2090 1 2.3739 27.6955 40.3563
2091 1 0.7913 26.1129 41.9389
2092 1 2.3739 27.6955 43.5215
2093 1 0.7913 26.1129 45.1041
2094 1 2.3739 27.6955 46.6867
2095 1 0.7913 26.1129 48.2693
2096 1 2.3739 27.6955 49.8519
2097 1 0.7913 29.2781 0.7913
2098 1 2.3739 30.8607 2.3739
2099 1 0.7913 29.2781 3.9565
2100 1 2.3739 30.8607 5.5391
2101 1 0.7913 29.2781 7.1217
2102 1 2.3739 30.8607 8.7043
2103 1 0.7913 29.2781 10.2869
2104 1 2.3739 30.8607 11.8695
2105 1 0.7913 29.2781 13.4521
2106 1 2.3739 30.8607 15.0347
2107 1 0.7913 29.2781 16.6173
2108 1 2.3739 30.8607 18.1999
2109 1 0.7913 29.2781 19.7825
2110 1 2.3739 30.8607 21.3651
2111 1 0.7913 29.2781 22.9477
2112 1 2.3739 30.8607 24.5303
2113 1 0.7913 29.2781 26.1129
2114 1 2.3739 30.8607 27.6955
2115 1 0.7913 29.2781 29.2781
2116 1 2.3739 30.8607 30.8607
2117 1 0.7913 29.2781 32.4433
2118 1 2.3739 30.8607 34.0259
2119 1 0.7913 29.2781 35.6085
2120 1 2.3739 30.8607 37.1911
2121 1 0.7913 29.2781 38.7737
2122 1 2.3739 30.8607 40.3563
2123 1 0.7913 29.2781 41.9389
2124 1 2.3739 30.8607 43.5215
2125 1 0.7913 29.2781 45.1041
2126 1 2.3739 30.8607 46.6867
2127 1 0.7913 29.2781 48.2693
2128 1 2.3739 30.8607 49.8519
2129 1 0.7913 32.4433 0.7913
2130 1 2.3739 34.0259 2.3739
2131 1 0.7913 32.4433 3.9565
2132 1 2.3739 34.0259 5.5391
2133 1 0.7913 32.4433 7.1217
2134 1 2.3739 34.0259 8.7043
2135 1 0.7913 32.4433 10.2869
2136 1 2.3739 34.0259 11.8695
2137 1 0.7913 32.4433 13.4521
2138 1 2.3739 34.0259 15.0347
2139 1 0.7913 32.4433 16.6173
2140 1 2.3739 34.0259 18.1999
2141 1 0.7913 32.4433 19.7825
2142 1 2.3739 34.0259 21.3651
2143 1 0.7913 32.4433 22.9477
2144 1 2.3739 34.0259 24.5303
2145 1 0.7913 32.4433 26.1129
2146 1 2.3739 34.0259 27.6955
2147 1 0.7913 32.4433 29.2781
2148 1 2.3739 34.0259 30.8607
2149 1 0.7913 32.4433 32.4433
2150 1 2.3739 34.0259 34.0259
2151 1 0.7913 32.4433 35.6085
2152 1 2.3739 34.0259 37.1911
2153 1 0.7913 32.4433 38.7737
2154 1 2.3739 34.0259 40.3563
2155 1 0.7913 32.4433 41.9389
2156 1 2.3739 34.0259 43.5215
2157 1 0.7913 32.4433 45.1041
2158 1 2.3739 34.0259 46.6867
2159 1 0.7913 32.4433 48.2693
2160 1 2.3739 34.0259 49.8519
2161 1 0.7913 35.6085 0.7913
2162 1 2.3739 37.1911 2.3739
2163 1 0.7913 35.6085 3.9565
2164 1 2.3739 37.1911 5.5391
2165 1 0.7913 35.6085 7.1217
2166 1 2.3739 37.1911 8.7043
2167 1 0.7913 35.6085 10.2869
2168 1 2.3739 37.1911 11.8695
2169 1 0.7913 35.6085 13.4521
2170 1 2.3739 37.1911 15.0347
2171 1 0.7913 35.6085 16.6173
2172 1 2.3739 37.1911 18.1999
2173 1 0.7913 35.6085 19.7825
2174 1 2.3739 37.1911 21.3651
2175 1 0.7913 35.6085 22.9477
2176 1 2.3739 37.1911 24.5303
2177 1 0.7913 35.6085 26.1129
2178 1 2.3739 37.1911 27.6955
2179 1 0.7913 35.6085 29.2781
2180 1 2.3739 37.1911 30.8607
2181 1 0.7913 35.6085 32.4433
2182 1 2.3739 37.1911 34.0259
2183 1 0.7913 35.6085 35.6085
2184 1 2.3739 37.1911 37.1911
2185 1 0.7913 35.6085 38.7737
2186 1 2.3739 37.1911 40.3563
2187 1 0.7913 35.6085 41.9389
2188 1 2.3739 37.1911 43.5215
2189 1 0.7913 35.6085 45.1041
2190 1 2.3739 37.1911 46.6867
2191 1 0.7913 35.6085 48.2693
2192 1 2.3739 37.1911 49.8519
2193 1 0.7913 38.7737 0.7913
2194 1 2.3739 40.3563 2.3739
2195 1 0.7913 38.7737 3.9565
2196 1 2.3739 40.3563 5.5391
2197 1 0.7913 38.7737 7.1217
2198 1 2.3739 40.3563 8.7043
2199 1 0.7913 38.7737 10.2869
2200 1 2.3739 40.3563 11.8695
2201 1 0.7913 38.7737 13.4521
2202 1 2.3739 40.3563 15.0347
2203 1 0.7913 38.7737 16.6173
2204 1 2.3739 40.3563 18.1999
2205 1 0.7913 38.7737 19.7825
2206 1 2.3739 40.3563 21.3651
2207 1 0.7913 38.7737 22.9477
2208 1 2.3739 40.3563 24.5303
2209 1 0.7913 38.7737 26.1129
2210 1 2.3739 40.3563 27.6955
2211 1 0.7913 38.7737 29.2781
2212 1 2.3739 40.3563 30.8607
2213 1 0.7913 38.7737 32.4433
2214 1 2.3739 40.3563 34.0259
2215 1 0.7913 38.7737 35.6085
2216 1 2.3739 40.3563 37.1911
2217 1 0.7913 38.7737 38.7737
2218 1 2.3739 40.3563 40.3563
2219 1 0.7913 38.7737 41.9389
2220 1 2.3739 40.3563 43.5215
2221 1 0.7913 38.7737 45.1041
2222 1 2.3739 40.3563 46.6867
2223 1 0.7913 38.7737 48.2693
2224 1 2.3739 40.3563 49.8519
2225 1 0.7913 41.9389 0.7913
2226 1 2.3739 43.5215 2.3739
2227 1 0.7913 41.9389 3.9565
2228 1 2.3739 43.5215 5.5391
2229 1 0.7913 41.9389 7.1217
2230 1 2.3739 43.5215 8.7043
2231 1 0.7913 41.9389 10.2869
2232 1 2.3739 43.5215 11.8695
2233 1 0.7913 41.9389 13.4521
2234 1 2.3739 43.5215 15.0347
2235 1 0.7913 41.9389 16.6173
2236 1 2.3739 43.5215 18.1999
2237 1 0.7913 41.9389 19.7825
2238 1 2.3739 43.5215 21.3651
2239 1 0.7913 41.9389 22.9477
2240 1 2.3739 43.5215 24.5303
2241 1 0.7913 41.9389 26.1129
2242 1 2.3739 43.5215 27.6955
2243 1 0.7913 41.9389 29.2781
2244 1 2.3739 43.5215 30.8607
2245 1 0.7913 41.9389 32.4433
2246 1 2.3739 43.5215 34.0259
2247 1 0.7913 41.9389 35.6085
2248 1 2.3739 43.5215 37.1911
2249 1 0.7913 41.9389 38.7737
2250 1 2.3739 43.5215 40.3563
2251 1 0.7913 41.9389 41.9389
2252 1 2.3739 43.5215 43.5215
2253 1 0.7913 41.9389 45.1041
2254 1 2.3739 43.5215 46.6867
2255 1 0.7913 41.9389 48.2693
2256 1 2.3739 43.5215 49.8519
2257 1 0.7913 45.1041 0.7913
2258 1 2.3739 46.6867 2.3739
2259 1 0.7913 45.1041 3.9565
2260 1 2.3739 46.6867 5.5391
2261 1 0.7913 45.1041 7.1217
2262 1 2.3739 46.6867 8.7043
2263 1 0.7913 45.1041 10.2869
2264 1 2.3739 46.6867 11.8695
2265 1 0.7913 45.1041 13.4521
2266 1 2.3739 46.6867 15.0347
2267 1 0.7913 45.1041 16.6173
2268 1 2.3739 46.6867 18.1999
2269 1 0.7913 45.1041 19.7825
2270 1 2.3739 46.6867 21.3651
2271 1 0.7913 45.1041 22.9477
2272 1 2.3739 46.6867 24.5303
2273 1 0.7913 45.1041 26.1129
2274 1 2.3739 46.6867 27.6955
2275 1 0.7913 45.1041 29.2781
2276 1 2.3739 46.6867 30.8607
2277 1 0.7913 45.1041 32.4433
2278 1 2.3739 46.6867 34.0259
2279 1 0.7913 45.1041 35.6085
2280 1 2.3739 46.6867 37.1911
2281 1 0.7913 45.1041 38.7737
2282 1 2.3739 46.6867 40.3563
2283 1 0.7913 45.1041 41.9389
2284 1 2.3739 46.6867 43.5215
2285 1 0.7913 45.1041 45.1041
2286 1 2.3739 46.6867 46.6867
2287 1 0.7913 45.1041 48.2693
2288 1 2.3739 46.6867 49.8519
2289 1 0.7913 48.2693 0.7913
2290 1 2.3739 49.8519 2.3739
2291 1 0.7913 48.2693 3.9565
2292 1 2.3739 49.8519 5.5391
2293 1 0.7913 48.2693 7.1217
2294 1 2.3739 49.8519 8.7043
2295 1 0.7913 48.2693 10.2869
2296 1 2.3739 49.8519 11.8695
2297 1 0.7913 48.2693 13.4521
2298 1 2.3739 49.8519 15.0347
2299 1 0.7913 48.2693 16.6173
2300 1 2.3739 49.8519 18.1999
2301 1 0.7913 48.2693 19.7825
2302 1 2.3739 49.8519 21.3651
2303 1 0.7913 48.2693 22.9477
2304 1 2.3739 49.8519 24.5303
2305 1 0.7913 48.2693 26.1129
2306 1 2.3739 49.8519 27.6955
2307 1 0.7913 48.2693 29.2781
2308 1 2.3739 49.8519 30.8607
2309 1 0.7913 48.2693 32.4433
2310 1 2.3739 49.8519 34.0259
2311 1 0.7913 48.2693 35.6085
2312 1 2.3739 49.8519 37.1911
2313 1 0.7913 48.2693 38.7737
2314 1 2.3739 49.8519 40.3563
2315 1 0.7913 48.2693 41.9389
2316 1 2.3739 49.8519 43.5215
2317 1 0.7913 48.2693 45.1041
2318 1 2.3739 49.8519 46.6867
2319 1 0.7913 48.2693 48.2693
2320 1 2.3739 49.8519 49.8519
2321 1 3.9565 0.7913 0.7913
2322 1 5.5391 2.3739 2.3739
2323 1 3.9565 0.7913 3.9565
2324 1 5.5391 2.3739 5.5391
2325 1 3.9565 0.7913 7.1217
2326 1 5.5391 2.3739 8.7043
2327 1 3.9565 0.7913 10.2869
2328 1 5.5391 2.3739 11.8695
2329 1 3.9565 0.7913 13.4521
2330 1 5.5391 2.3739 15.0347
2331 1 3.9565 0.7913 16.6173
2332 1 5.5391 2.3739 18.1999
2333 1 3.9565 0.7913 19.7825
2334 1 5.5391 2.3739 21.3651
2335 1 3.9565 0.7913 22.9477
2336 1 5.5391 2.3739 24.5303
2337 1 3.9565 0.7913 26.1129
2338 1 5.5391 2.3739 27.6955
2339 1 3.9565 0.7913 29.2781
2340 1 5.5391 2.3739 30.8607
2341 1 3.9565 0.7913 32.4433
2342 1 5.5391 2.3739 34.0259
2343 1 3.9565 0.7913 35.6085
2344 1 5.5391 2.3739 37.1911
2345 1 3.9565 0.7913 38.7737
2346 1 5.5391 2.3739 40.3563
2347 1 3.9565 0.7913 41.9389
2348 1 5.5391 2.3739 43.5215
2349 1 3.9565 0.7913 45.1041
2350 1 5.5391 2.3739 46.6867
2351 1 3.9565 0.7913 48.2693
2352 1 5.5391 2.3739 49.8519
2353 1 3.9565 3.9565 0.7913
2354 1 5.5391 5.5391 2.3739
2355 1 3.9565 3.9565 3.9565
2356 1 5.5391 5.5391 5.5391
2357 1 3.9565 3.9565 7.1217
2358 1 5.5391 5.5391 8.7043
2359 1 3.9565 3.9565 10.2869
2360 1 5.5391 5.5391 11.8695
2361 1 3.9565 3.9565 13.4521
2362 1 5.5391 5.5391 15.0347
2363 1 3.9565 3.9565 16.6173
2364 1 5.5391 5.5391 18.1999
2365 1 3.9565 3.9565 19.7825
2366 1 5.5391 5.5391 21.3651
2367 1 3.9565 3.9565 22.9477
2368 1 5.5391 5.5391 24.5303
2369 1 3.9565 3.9565 26.1129
2370 1 5.5391 5.5391 27.6955
2371 1 3.9565 3.9565 29.2781
2372 1 5.5391 5.5391 30.8607
2373 1 3.9565 3.9565 32.4433
2374 1 5.5391 5.5391 34.0259
2375 1 3.9565 3.9565 35.6085
2376 1 5.5391 5.5391 37.1911
2377 1 3.9565 3.9565 38.7737
2378 1 5.5391 5.5391 40.3563
2379 1 3.9565 3.9565 41.9389
2380 1 5.5391 5.5391 43.5215
2381 1 3.9565 3.9565 45.1041
2382 1 5.5391 5.5391 46.6867
2383 1 3.9565 3.9565 48.2693
2384 1 5.5391 5.5391 49.8519
2385 1 3.9565 7.1217 0.7913
2386 1 5.5391 8.7043 2.3739
2387 1 3.9565 7.1217 3.9565
2388 1 5.5391 8.7043 5.5391
2389 1 3.9565 7.1217 7.1217
2390 1 5.5391 8.7043 8.7043
2391 1 3.9565 7.1217 10.2869
2392 1 5.5391 8.7043 11.8695
2393 1 3.9565 7.1217 13.4521
2394 1 5.5391 8.7043 15.0347
2395 1 3.9565 7.1217 16.6173
2396 1 5.5391 8.7043 18.1999
2397 1 3.9565 7.1217 19.7825
2398 1 5.5391 8.7043 21.3651
2399 1 3.9565 7.1217 22.9477
2400 1 5.5391 8.7043 24.5303
2401 1 3.9565 7.1217 26.1129
2402 1 5.5391 8.7043 27.6955
2403 1 3.9565 7.1217 29.2781
2404 1 5.5391 8.7043 30.8607
2405 1 3.9565 7.1217 32.4433
2406 1 5.5391 8.7043 34.0259
2407 1 3.9565 7.1217 35.6085
2408 1 5.5391 8.7043 37.1911
2409 1 3.9565 7.1217 38.7737
2410 1 5.5391 8.7043 40.3563
2411 1 3.9565 7.1217 41.9389
2412 1 5.5391 8.7043 43.5215
2413 1 3.9565 7.1217 45.1041
2414 1 5.5391 8.7043 46.6867
2415 1 3.9565 7.1217 48.2693
2416 1 5.5391 8.7043 49.8519
2417 1 3.9565 10.2869 0.7913
2418 1 5.5391 11.8695 2.3739
2419 1 3.9565 10.2869 3.9565
2420 1 5.5391 11.8695 5.5391
2421 1 3.9565 10.2869 7.1217
2422 1 5.5391 11.8695 8.7043
2423 1 3.9565 10.2869 10.2869
2424 1 5.5391 11.8695 11.8695
2425 1 3.9565 10.2869 13.4521
2426 1 5.5391 11.8695 15.0347
2427 1 3.9565 10.2869 16.6173
2428 1 5.5391 11.8695 18.1999
2429 1 3.9565 10.2869 19.7825
2430 1 5.5391 11.8695 21.3651
2431 1 3.9565 10.2869 22.9477
2432 1 5.5391 11.8695 24.5303
2433 1 3.9565 10.2869 26.1129
2434 1 5.5391 11.8695 27.6955
2435 1 3.9565 10.2869 29.2781
2436 1 5.5391 11.8695 30.8607
2437 1 3.9565 10.2869 32.4433
2438 1 5.5391 11.8695 34.0259
2439 1 3.9565 10.2869 35.6085
2440 1 5.5391 11.8695 37.1911
2441 1 3.9565 10.2869 38.7737
2442 1 5.5391 11.8695 40.3563
2443 1 3.9565 10.2869 41.9389
2444 1 5.5391 11.8695 43.5215
2445 1 3.9565 10.2869 45.1041
2446 1 5.5391 11.8695 46.6867
2447 1 3.9565 10.2869 48.2693
2448 1 5.5391 11.8695 49.8519
2449 1 3.9565 13.4521 0.7913
2450 1 5.5391 15.0347 2.3739
2451 1 3.9565 13.4521 3.9565
2452 1 5.5391 15.0347 5.5391
2453 1 3.9565 13.4521 7.1217
2454 1 5.5391 15.0347 8.7043
2455 1 3.9565 13.4521 10.2869
2456 1 5.5391 15.0347 11.8695
2457 1 3.9565 13.4521 13.4521
2458 1 5.5391 15.0347 15.0347
2459 1 3.9565 13.4521 16.6173
2460 1 5.5391 15.0347 18.1999
2461 1 3.9565 13.4521 19.7825
2462 1 5.5391 15.0347 21.3651
2463 1 3.9565 13.4521 22.9477
2464 1 5.5391 15.0347 24.5303
2465 1 3.9565 13.4521 26.1129
2466 1 5.5391 15.0347 27.6955
2467 1 3.9565 13.4521 29.2781
2468 1 5.5391 15.0347 30.8607
2469 1 3.9565 13.4521 32.4433
2470 1 5.5391 15.0347 34.0259
2471 1 3.9565 13.4521 35.6085
2472 1 5.5391 15.0347 37.1911
2473 1 3.9565 13.4521 38.7737
2474 1 5.5391 15.0347 40.3563
2475 1 3.9565 13.4521 41.9389
2476 1 5.5391 15.0347 43.5215
2477 1 3.9565 13.4521 45.1041
2478 1 5.5391 15.0347 46.6867
2479 1 3.9565 13.4521 48.2693
2480 1 5.5391 15.0347 49.8519
2481 1 3.9565 16.6173 0.7913
2482 1 5.5391 18.1999 2.3739
2483 1 3.9565 16.6173 3.9565
2484 1 5.5391 18.1999 5.5391
2485 1 3.9565 16.6173 7.1217
2486 1 5.5391 18.1999 8.7043
2487 1 3.9565 16.6173 10.2869
2488 1 5.5391 18.1999 11.8695
2489 1 3.9565 16.6173 13.4521
2490 1 5.5391 18.1999 15.0347
2491 1 3.9565 16.6173 16.6173
2492 1 5.5391 18.1999 18.1999
2493 1 3.9565 16.6173 19.7825
2494 1 5.5391 18.1999 21.3651
2495 1 3.9565 16.6173 22.9477
2496 1 5.5391 18.1999 24.5303
2497 1 3.9565 16.6173 26.1129
2498 1 5.5391 18.1999 27.6955
2499 1 3.9565 16.6173 29.2781
2500 1 5.5391 18.1999 30.8607
2501 1 3.9565 16.6173 32.4433
2502 1 5.5391 18.1999 34.0259
2503 1 3.9565 16.6173 35.6085
2504 1 5.5391 18.1999 37.1911
2505 1 3.9565 16.6173 38.7737
2506 1 5.5391 18.1999 40.3563
2507 1 3.9565 16.6173 41.9389
2508 1 5.5391 18.1999 43.5215
2509 1 3.9565 16.6173 45.1041
2510 1 5.5391 18.1999 46.6867
2511 1 3.9565 16.6173 48.2693
2512 1 5.5391 18.1999 49.8519
2513 1 3.9565 19.7825 0.7913
2514 1 5.5391 21.3651 2.3739
2515 1 3.9565 19.7825 3.9565
2516 1 5.5391 21.3651 5.5391
2517 1 3.9565 19.7825 7.1217
2518 1 5.5391 21.3651 8.7043
2519 1 3.9565 19.7825 10.2869
2520 1 5.5391 21.3651 11.8695
2521 1 3.9565 19.7825 13.4521
2522 1 5.5391 21.3651 15.0347
2523 1 3.9565 19.7825 16.6173
2524 1 5.5391 21.3651 18.1999
2525 1 3.9565 19.7825 19.7825
2526 1 5.5391 21.3651 21.3651
2527 1 3.9565 19.7825 22.9477
2528 1 5.5391 21.3651 24.5303
2529 1 3.9565 19.7825 26.1129
2530 1 5.5391 21.3651 27.6955
2531 1 3.9565 19.7825 29.2781
2532 1 5.5391 21.3651 30.8607
2533 1 3.9565 19.7825 32.4433
2534 1 5.5391 21.3651 34.0259
2535 1 3.9565 19.7825 35.6085
2536 1 5.5391 21.3651 37.1911
2537 1 3.9565 19.7825 38.7737
2538 1 5.5391 21.3651 40.3563
2539 1 3.9565 19.7825 41.9389
2540 1 5.5391 21.3651 43.5215
2541 1 3.9565 19.7825 45.1041
2542 1 5.5391 21.3651 46.6867
2543 1 3.9565 19.7825 48.2693
2544 1 5.5391 21.3651 49.8519
2545 1 3.9565 22.9477 0.7913
2546 1 5.5391 24.5303 2.3739
2547 1 3.9565 22.9477 3.9565
2548 1 5.5391 24.5303 5.5391
2549 1 3.9565 22.9477 7.1217
2550 1 5.5391 24.5303 8.7043
2551 1 3.9565 22.9477 10.2869
2552 1 5.5391 24.5303 11.8695
2553 1 3.9565 22.9477 13.4521
2554 1 5.5391 24.5303 15.0347
2555 1 3.9565 22.9477 16.6173
2556 1 5.5391 24.5303 18.1999
2557 1 3.9565 22.9477 19.7825
2558 1 5.5391 24.5303 21.3651
2559 1 3.9565 22.9477 22.9477
2560 1 5.5391 24.5303 24.5303
2561 1 3.9565 22.9477 26.1129
2562 1 5.5391 24.5303 27.6955
2563 1 3.9565 22.9477 29.2781
2564 1 5.5391 24.5303 30.8607
2565 1 3.9565 22.9477 32.4433
2566 1 5.5391 24.5303 34.0259
2567 1 3.9565 22.9477 35.6085
2568 1 5.5391 24.5303 37.1911
2569 1 3.9565 22.9477 38.7737
2570 1 5.5391 24.5303 40.3563
2571 1 3.9565 22.9477 41.9389
2572 1 5.5391 24.5303 43.5215
2573 1 3.9565 22.9477 45.1041
2574 1 5.5391 24.5303 46.6867
2575 1 3.9565 22.9477 48.2693
2576 1 5.5391 24.5303 49.8519
2577 1 3.9565 26.1129 0.7913
2578 1 5.5391 27.6955 2.3739
2579 1 3.9565 26.1129 3.9565
2580 1 5.5391 27.6955 5.5391
2581 1 3.9565 26.1129 7.1217
2582 1 5.5391 27.6955 8.7043
2583 1 3.9565 26.1129 10.2869
2584 1 5.5391 27.6955 11.8695
2585 1 3.9565 26.1129 13.4521
2586 1 5.5391 27.6955 15.0347
2587 1 3.9565 26.1129 16.6173
2588 1 5.5391 27.6955 18.1999
2589 1 3.9565 26.1129 19.7825
2590 1 5.5391 27.6955 21.3651
2591 1 3.9565 26.1129 22.9477
2592 1 5.5391 27.6955 24.5303
2593 1 3.9565 26.1129 26.1129
2594 1 5.5391 27.6955 27.6955
2595 1 3.9565 26.1129 29.2781
2596 1 5.5391 27.6955 30.8607
2597 1 3.9565 26.1129 32.4433
2598 1 5.5391 27.6955 34.0259
2599 1 3.9565 26.1129 35.6085
2600 1 5.5391 27.6955 37.1911
2601 1 3.9565 26.1129 38.7737
2602 1 5.5391 27.6955 40.3563
2603 1 3.9565 26.1129 41.9389
2604 1 5.5391 27.6955 43.5215
2605 1 3.9565 26.1129 45.1041
2606 1 5.5391 27.6955 46.6867
2607 1 3.9565 26.1129 48.2693
2608 1 5.5391 27.6955 49.8519
2609 1 3.9565 29.2781 0.7913
2610 1 5.5391 30.8607 2.3739
2611 1 3.9565 29.2781 3.9565
2612 1 5.5391 30.8607 5.5391
2613 1 3.9565 29.2781 7.1217
2614 1 5.5391 30.8607 8.7043
2615 1 3.9565 29.2781 10.2869
2616 1 5.5391 30.8607 11.8695
2617 1 3.9565 29.2781 13.4521
2618 1 5.5391 30.8607 15.0347
2619 1 3.9565 29.2781 16.6173
2620 1 5.5391 30.8607 18.1999
2621 1 3.9565 29.2781 19.7825
2622 1 5.5391 30.8607 21.3651
2623 1 3.9565 29.2781 22.9477
2624 1 5.5391 30.8607 24.5303
2625 1 3.9565 29.2781 26.1129
2626 1 5.5391 30.8607 27.6955
2627 1 3.9565 29.2781 29.2781
2628 1 5.5391 30.8607 30.8607
2629 1 3.9565 29.2781 32.4433
2630 1 5.5391 30.8607 34.0259
2631 1 3.9565 29.2781 35.6085
2632 1 5.5391 30.8607 37.1911
2633 1 3.9565 29.2781 38.7737
2634 1 5.5391 30.8607 40.3563
2635 1 3.9565 29.2781 41.9389
2636 1 5.5391 30.8607 43.5215
2637 1 3.9565 29.2781 45.1041
2638 1 5.5391 30.8607 46.6867
2639 1 3.9565 29.2781 48.2693
2640 1 5.5391 30.8607 49.8519
2641 1 3.9565 32.4433 0.7913
2642 1 5.5391 34.0259 2.3739
2643 1 3.9565 32.4433 3.9565
2644 1 5.5391 34.0259 5.5391
2645 1 3.9565 32.4433 7.1217
2646 1 5.5391 34.0259 8.7043
2647 1 3.9565 32.4433 10.2869
2648 1 5.5391 34.0259 11.8695
2649 1 3.9565 32.4433 13.4521
2650 1 5.5391 34.0259 15.0347
2651 1 3.9565 32.4433 16.6173
2652 1 5.5391 34.0259 18.1999
2653 1 3.9565 32.4433 19.7825
2654 1 5.5391 34.0259 21.3651
2655 1 3.9565 32.4433 22.9477
2656 1 5.5391 34.0259 24.5303
2657 1 3.9565 32.4433 26.1129
2658 1 5.5391 34.0259 27.6955
2659 1 3.9565 32.4433 29.2781
2660 1 5.5391 34.0259 30.8607
2661 1 3.9565 32.4433 32.4433
2662 1 5.5391 34.0259 34.0259
2663 1 3.9565 32.4433 35.6085
2664 1 5.5391 34.0259 37.1911
2665 1 3.9565 32.4433 38.7737
2666 1 5.5391 34.0259 40.3563
2667 1 3.9565 32.4433 41.9389
2668 1 5.5391 34.0259 43.5215
2669 1 3.9565 32.4433 45.1041
2670 1 5.5391 34.0259 46.6867
2671 1 3.9565 32.4433 48.2693
2672 1 5.5391 34.0259 49.8519
2673 1 3.9565 35.6085 0.7913
2674 1 5.5391 37.1911 2.3739
2675 1 3.9565 35.6085 3.9565
2676 1 5.5391 37.1911 5.5391
2677 1 3.9565 35.6085 7.1217
2678 1 5.5391 37.1911 8.7043
2679 1 3.9565 35.6085 10.2869
2680 1 5.5391 37.1911 11.8695
2681 1 3.9565 35.6085 13.4521
2682 1 5.5391 37.1911 15.0347
2683 1 3.9565 35.6085 16.6173
2684 1 5.5391 37.1911 18.1999
2685 1 3.9565 35.6085 19.7825
2686 1 5.5391 37.1911 21.3651
2687 1 3.9565 35.6085 22.9477
2688 1 5.5391 37.1911 24.5303
2689 1 3.9565 35.6085 26.1129
2690 1 5.5391 37.1911 27.6955
2691 1 3.9565 35.6085 29.2781
2692 1 5.5391 37.1911 30.8607
2693 1 3.9565 35.6085 32.4433
2694 1 5.5391 37.1911 34.0259
2695 1 3.9565 35.6085 35.6085
2696 1 5.5391 37.1911 37.1911
2697 1 3.9565 35.6085 38.7737
2698 1 5.5391 37.1911 40.3563
2699 1 3.9565 35.6085 41.9389
2700 1 5.5391 37.1911 43.5215
2701 1 3.9565 35.6085 45.1041
2702 1 5.5391 37.1911 46.6867
2703 1 3.9565 35.6085 48.2693
2704 1 5.5391 37.1911 49.8519
2705 1 3.9565 38.7737 0.7913
2706 1 5.5391 40.3563 2.3739
2707 1 3.9565 38.7737 3.9565
2708 1 5.5391 40.3563 5.5391
2709 1 3.9565 38.7737 7.1217
2710 1 5.5391 40.3563 8.7043
2711 1 3.9565 38.7737 10.2869
2712 1 5.5391 40.3563 11.8695
2713 1 3.9565 38.7737 13.4521
2714 1 5.5391 40.3563 15.0347
2715 1 3.9565 38.7737 16.6173
2716 1 5.5391 40.3563 18.1999
2717 1 3.9565 38.7737 19.7825
2718 1 5.5391 40.3563 21.3651
2719 1 3.9565 38.7737 22.9477
2720 1 5.5391 40.3563 24.5303
2721 1 3.9565 38.7737 26.1129
2722 1 5.5391 40.3563 27.6955
2723 1 3.9565 38.7737 29.2781
2724 1 5.5391 40.3563 30.8607
2725 1 3.9565 38.7737 32.4433
2726 1 5.5391 40.3563 34.0259
2727 1 3.9565 38.7737 35.6085
2728 1 5.5391 40.3563 37.1911
2729 1 3.9565 38.7737 38.7737
2730 1 5.5391 40.3563 40.3563
2731 1 3.9565 38.7737 41.9389
2732 1 5.5391 40.3563 43.5215
2733 1 3.9565 38.7737 45.1041
2734 1 5.5391 40.3563 46.6867
2735 1 3.9565 38.7737 48.2693
2736 1 5.5391 40.3563 49.8519
2737 1 3.9565 41.9389 0.7913
2738 1 5.5391 43.5215 2.3739
2739 1 3.9565 41.9389 3.9565
2740 1 5.5391 43.5215 5.5391
2741 1 3.9565 41.9389 7.1217
2742 1 5.5391 43.5215 8.7043
2743 1 3.9565 41.9389 10.2869
2744 1 5.5391 43.5215 11.8695
2745 1 3.9565 41.9389 13.4521
2746 1 5.5391 43.5215 15.0347
2747 1 3.9565 41.9389 16.6173
2748 1 5.5391 43.5215 18.1999
2749 1 3.9565 41.9389 19.7825
2750 1 5.5391 43.5215 21.3651
2751 1 3.9565 41.9389 22.9477
2752 1 5.5391 43.5215 24.5303
2753 1 3.9565 41.9389 26.1129
2754 1 5.5391 43.5215 27.6955
2755 1 3.9565 41.9389 29.2781
2756 1 5.5391 43.5215 30.8607
2757 1 3.9565 41.9389 32.4433
2758 1 5.5391 43.5215 34.0259
2759 1 3.9565 41.9389 35.6085
2760 1 5.5391 43.5215 37.1911
2761 1 3.9565 41.9389 38.7737
2762 1 5.5391 43.5215 40.3563
2763 1 3.9565 41.9389 41.9389
2764 1 5.5391 43.5215 43.5215
2765 1 3.9565 41.9389 45.1041
2766 1 5.5391 43.5215 46.6867
2767 1 3.9565 41.9389 48.2693
2768 1 5.5391 43.5215 49.8519
2769 1 3.9565 45.1041 0.7913
2770 1 5.5391 46.6867 2.3739
2771 1 3.9565 45.1041 3.9565
2772 1 5.5391 46.6867 5.5391
2773 1 3.9565 45.1041 7.1217
2774 1 5.5391 46.6867 8.7043
2775 1 3.9565 45.1041 10.2869
2776 1 5.5391 46.6867 11.8695
2777 1 3.9565 45.1041 13.4521
2778 1 5.5391 46.6867 15.0347
2779 1 3.9565 45.1041 16.6173
2780 1 5.5391 46.6867 18.1999
2781 1 3.9565 45.1041 19.7825
2782 1 5.5391 46.6867 21.3651
2783 1 3.9565 45.1041 22.9477
2784 1 5.5391 46.6867 24.5303
2785 1 3.9565 45.1041 26.1129
2786 1 5.5391 46.6867 27.6955
2787 1 3.9565 45.1041 29.2781
2788 1 5.5391 46.6867 30.8607
2789 1 3.9565 45.1041 32.4433
2790 1 5.5391 46.6867 34.0259
2791 1 3.9565 45.1041 35.6085
2792 1 5.5391 46.6867 37.1911
2793 1 3.9565 45.1041 38.7737
2794 1 5.5391 46.6867 40.3563
2795 1 3.9565 45.1041 41.9389
2796 1 5.5391 46.6867 43.5215
2797 1 3.9565 45.1041 45.1041
2798 1 5.5391 46.6867 46.6867
2799 1 3.9565 45.1041 48.2693
2800 1 5.5391 46.6867 49.8519
2801 1 3.9565 48.2693 0.7913
2802 1 5.5391 49.8519 2.3739
2803 1 3.9565 48.2693 3.9565
2804 1 5.5391 49.8519 5.5391
2805 1 3.9565 48.2693 7.1217
2806 1 5.5391 49.8519 8.7043
2807 1 3.9565 48.2693 10.2869
2808 1 5.5391 49.8519 11.8695
2809 1 3.9565 48.2693 13.4521
2810 1 5.5391 49.8519 15.0347
2811 1 3.9565 48.2693 16.6173
2812 1 5.5391 49.8519 18.1999
2813 1 3.9565 48.2693 19.7825
2814 1 5.5391 49.8519 21.3651
2815 1 3.9565 48.2693 22.9477
2816 1 5.5391 49.8519 24.5303
2817 1 3.9565 48.2693 26.1129
2818 1 5.5391 49.8519 27.6955
2819 1 3.9565 48.2693 29.2781
2820 1 5.5391 49.8519 30.8607
2821 1 3.9565 48.2693 32.4433
2822 1 5.5391 49.8519 34.0259
2823 1 3.9565 48.2693 35.6085
2824 1 5.5391 49.8519 37.1911
2825 1 3.9565 48.2693 38.7737
2826 1 5.5391 49.8519 40.3563
2827 1 3.9565 48.2693 41.9389
2828 1 5.5391 49.8519 43.5215
2829 1 3.9565 48.2693 45.1041
2830 1 5.5391 49.8519 46.6867
2831 1 3.9565 48.2693 48.2693
2832 1 5.5391 49.8519 49.8519
2833 1 7.1217 0.7913 0.7913
2834 1 8.7043 2.3739 2.3739
2835 1 7.1217 0.7913 3.9565
2836 1 8.7043 2.3739 5.5391
2837 1 7.1217 0.7913 7.1217
2838 1 8.7043 2.3739 8.7043
2839 1 7.1217 0.7913 10.2869
2840 1 8.7043 2.3739 11.8695
2841 1 7.1217 0.7913 13.4521
2842 1 8.7043 2.3739 15.0347
2843 1 7.1217 0.7913 16.6173
2844 1 8.7043 2.3739 18.1999
2845 1 7.1217 0.7913 19.7825
2846 1 8.7043 2.3739 21.3651
2847 1 7.1217 0.7913 22.9477
2848 1 8.7043 2.3739 24.5303
2849 1 7.1217 0.7913 26.1129
2850 1 8.7043 2.3739 27.6955
2851 1 7.1217 0.7913 29.2781
2852 1 8.7043 2.3739 30.8607
2853 1 7.1217 0.7913 32.4433
2854 1 8.7043 2.3739 34.0259
2855 1 7.1217 0.7913 35.6085
2856 1 8.7043 2.3739 37.1911
2857 1 7.1217 0.7913 38.7737
2858 1 8.7043 2.3739 40.3563
2859 1 7.1217 0.7913 41.9389
2860 1 8.7043 2.3739 43.5215
2861 1 7.1217 0.7913 45.1041
2862 1 8.7043 2.3739 46.6867
2863 1 7.1217 0.7913 48.2693
2864 1 8.7043 2.3739 49.8519
2865 1 7.1217 3.9565 0.7913
2866 1 8.7043 5.5391 2.3739
2867 1 7.1217 3.9565 3.9565
2868 1 8.7043 5.5391 5.5391
2869 1 7.1217 3.9565 7.1217
2870 1 8.7043 5.5391 8.7043
2871 1 7.1217 3.9565 10.2869
2872 1 8.7043 5.5391 11.8695
2873 1 7.1217 3.9565 13.4521
2874 1 8.7043 5.5391 15.0347
2875 1 7.1217 3.9565 16.6173
2876 1 8.7043 5.5391 18.1999
2877 1 7.1217 3.9565 19.7825
2878 1 8.7043 5.5391 21.3651
2879 1 7.1217 3.9565 22.9477
2880 1 8.7043 5.5391 24.5303
2881 1 7.1217 3.9565 26.1129
2882 1 8.7043 5.5391 27.6955
2883 1 7.1217 3.9565 29.2781
2884 1 8.7043 5.5391 30.8607
2885 1 7.1217 3.9565 32.4433
2886 1 8.7043 5.5391 34.0259
2887 1 7.1217 3.9565 35.6085
2888 1 8.7043 5.5391 37.1911
2889 1 7.1217 3.9565 38.7737
2890 1 8.7043 5.5391 40.3563
2891 1 7.1217 3.9565 41.9389
2892 1 8.7043 5.5391 43.5215
2893 1 7.1217 3.9565 45.1041
2894 1 8.7043 5.5391 46.6867
2895 1 7.1217 3.9565 48.2693
2896 1 8.7043 5.5391 49.8519
2897 1 7.1217 7.1217 0.7913
2898 1 8.7043 8.7043 2.3739
2899 1 7.1217 7.1217 3.9565
2900 1 8.7043 8.7043 5.5391
2901 1 7.1217 7.1217 7.1217
2902 1 8.7043 8.7043 8.7043
2903 1 7.1217 7.1217 10.2869
2904 1 8.7043 8.7043 11.8695
2905 1 7.1217 7.1217 13.4521
2906 1 8.7043 8.7043 15.0347
2907 1 7.1217 7.1217 16.6173
2908 1 8.7043 8.7043 18.1999
2909 1 7.1217 7.1217 19.7825
2910 1 8.7043 8.7043 21.3651
2911 1 7.1217 7.1217 22.9477
2912 1 8.7043 8.7043 24.5303
2913 1 7.1217 7.1217 26.1129
2914 1 8.7043 8.7043 27.6955
2915 1 7.1217 7.1217 29.2781
2916 1 8.7043 8.7043 30.8607
2917 1 7.1217 7.1217 32.4433
2918 1 8.7043 8.7043 34.0259
2919 1 7.1217 7.1217 35.6085
2920 1 8.7043 8.7043 37.1911
2921 1 7.1217 7.1217 38.7737
2922 1 8.7043 8.7043 40.3563
2923 1 7.1217 7.1217 41.9389
2924 1 8.7043 8.7043 43.5215
2925 1 7.1217 7.1217 45.1041
2926 1 8.7043 8.7043 46.6867
2927 1 7.1217 7.1217 48.2693
2928 1 8.7043 8.7043 49.8519
2929 1 7.1217 10.2869 0.7913
2930 1 8.7043 11.8695 2.3739
2931 1 7.1217 10.2869 3.9565
2932 1 8.7043 11.8695 5.5391
2933 1 7.1217 10.2869 7.1217
2934 1 8.7043 11.8695 8.7043
2935 1 7.1217 10.2869 10.2869
2936 1 8.7043 11.8695 11.8695
2937 1 7.1217 10.2869 13.4521
2938 1 8.7043 11.8695 15.0347
2939 1 7.1217 10.2869 16.6173
2940 1 8.7043 11.8695 18.1999
2941 1 7.1217 10.2869 19.7825
2942 1 8.7043 11.8695 21.3651
2943 1 7.1217 10.2869 22.9477
2944 1 8.7043 11.8695 24.5303
2945 1 7.1217 10.2869 26.1129
2946 1 8.7043 11.8695 27.6955
2947 1 7.1217 10.2869 29.2781
2948 1 8.7043 11.8695 30.8607
2949 1 7.1217 10.2869 32.4433
2950 1 8.7043 11.8695 34.0259
2951 1 7.1217 10.2869 35.6085
2952 1 8.7043 11.8695 37.1911
2953 1 7.1217 10.2869 38.7737
2954 1 8.7043 11.8695 40.3563
2955 1 7.1217 10.2869 41.9389
2956 1 8.7043 11.8695 43.5215
2957 1 7.1217 10.2869 45.1041
2958 1 8.7043 11.8695 46.6867
2959 1 7.1217 10.2869 48.2693
2960 1 8.7043 11.8695 49.8519
2961 1 7.1217 13.4521 0.7913
2962 1 8.7043 15.0347 2.3739
2963 1 7.1217 13.4521 3.9565
2964 1 8.7043 15.0347 5.5391
2965 1 7.1217 13.4521 7.1217
2966 1 8.7043 15.0347 8.7043
2967 1 7.1217 13.4521 10.2869
2968 1 8.7043 15.0347 11.8695
2969 1 7.1217 13.4521 13.4521
2970 1 8.7043 15.0347 15.0347
2971 1 7.1217 13.4521 16.6173
2972 1 8.7043 15.0347 18.1999
2973 1 7.1217 13.4521 19.7825
2974 1 8.7043 15.0347 21.3651
2975 1 7.1217 13.4521 22.9477
2976 1 8.7043 15.0347 24.5303
2977 1 7.1217 13.4521 26.1129
2978 1 8.7043 15.0347 27.6955
2979 1 7.1217 13.4521 29.2781
2980 1 8.7043 15.0347 30.8607
2981 1 7.1217 13.4521 32.4433
2982 1 8.7043 15.0347 34.0259
2983 1 7.1217 13.4521 35.6085
2984 1 8.7043 15.0347 37.1911
2985 1 7.1217 13.4521 38.7737
2986 1 8.7043 15.0347 40.3563
2987 1 7.1217 13.4521 41.9389
2988 1 8.7043 15.0347 43.5215
2989 1 7.1217 13.4521 45.1041
2990 1 8.7043 15.0347 46.6867
2991 1 7.1217 13.4521 48.2693
2992 1 8.7043 15.0347 49.8519
2993 1 7.1217 16.6173 0.7913
2994 1 8.7043 18.1999 2.3739
2995 1 7.1217 16.6173 3.9565
2996 1 8.7043 18.1999 5.5391
2997 1 7.1217 16.6173 7.1217
2998 1 8.7043 18.1999 8.7043
2999 1 7.1217 16.6173 10.2869
3000 1 8.7043 18.1999 11.8695
3001 1 7.1217 16.6173 13.4521
3002 1 8.7043 18.1999 15.0347
3003 1 7.1217 16.6173 16.6173
3004 1 8.7043 18.1999 18.1999
3005 1 7.1217 16.6173 19.7825
3006 1 8.7043 18.1999 21.3651
3007 1 7.1217 16.6173 22.9477
3008 1 8.7043 18.1999 24.5303
3009 1 7.1217 16.6173 26.1129
3010 1 8.7043 18.1999 27.6955
3011 1 7.1217 16.6173 29.2781
3012 1 8.7043 18.1999 30.8607
3013 1 7.1217 16.6173 32.4433
3014 1 8.7043 18.1999 34.0259
3015 1 7.1217 16.6173 35.6085
3016 1 8.7043 18.1999 37.1911
3017 1 7.1217 16.6173 38.7737
3018 1 8.7043 18.1999 40.3563
3019 1 7.1217 16.6173 41.9389
3020 1 8.7043 18.1999 43.5215
3021 1 7.1217 16.6173 45.1041
3022 1 8.7043 18.1999 46.6867
3023 1 7.1217 16.6173 48.2693
3024 1 8.7043 18.1999 49.8519
3025 1 7.1217 19.7825 0.7913
3026 1 8.7043 21.3651 2.3739
3027 1 7.1217 19.7825 3.9565
3028 1 8.7043 21.3651 5.5391
3029 1 7.1217 19.7825 7.1217
3030 1 8.7043 21.3651 8.7043
3031 1 7.1217 19.7825 10.2869
3032 1 8.7043 21.3651 11.8695
3033 1 7.1217 19.7825 13.4521
3034 1 8.7043 21.3651 15.0347
3035 1 7.1217 19.7825 16.6173
3036 1 8.7043 21.3651 18.1999
3037 1 7.1217 19.7825 19.7825
3038 1 8.7043 21.3651 21.3651
3039 1 7.1217 19.7825 22.9477
3040 1 8.7043 21.3651 24.5303
3041 1 7.1217 19.7825 26.1129
3042 1 8.7043 21.3651 27.6955
3043 1 7.1217 19.7825 29.2781
3044 1 8.7043 21.3651 30.8607
3045 1 7.1217 19.7825 32.4433
3046 1 8.7043 21.3651 34.0259
3047 1 7.1217 19.7825 35.6085
3048 1 8.7043 21.3651 37.1911
3049 1 7.1217 19.7825 38.7737
3050 1 8.7043 21.3651 40.3563
3051 1 7.1217 19.7825 41.9389
3052 1 8.7043 21.3651 43.5215
3053 1 7.1217 19.7825 45.1041
3054 1 8.7043 21.3651 46.6867
3055 1 7.1217 19.7825 48.2693
3056 1 8.7043 21.3651 49.8519
3057 1 7.1217 22.9477 0.7913
3058 1 8.7043 24.5303 2.3739
3059 1 7.1217 22.9477 3.9565
3060 1 8.7043 24.5303 5.5391
3061 1 7.1217 22.9477 7.1217
3062 1 8.7043 24.5303 8.7043
3063 1 7.1217 22.9477 10.2869
3064 1 8.7043 24.5303 11.8695
3065 1 7.1217 22.9477 13.4521
3066 1 8.7043 24.5303 15.0347
3067 1 7.1217 22.9477 16.6173
3068 1 8.7043 24.5303 18.1999
3069 1 7.1217 22.9477 19.7825
3070 1 8.7043 24.5303 21.3651
3071 1 7.1217 22.9477 22.9477
3072 1 8.7043 24.5303 24.5303
3073 1 7.1217 22.9477 26.1129
3074 1 8.7043 24.5303 27.6955
3075 1 7.1217 22.9477 29.2781
3076 1 8.7043 24.5303 30.8607
3077 1 7.1217 22.9477 32.4433
3078 1 8.7043 24.5303 34.0259
3079 1 7.1217 22.9477 35.6085
3080 1 8.7043 24.5303 37.1911
3081 1 7.1217 22.9477 38.7737
3082 1 8.7043 24.5303 40.3563
3083 1 7.1217 22.9477 41.9389
3084 1 8.7043 24.5303 43.5215
3085 1 7.1217 22.9477 45.1041
3086 1 8.7043 24.5303 46.6867
3087 1 7.1217 22.9477 48.2693
3088 1 8.7043 24.5303 49.8519
3089 1 7.1217 26.1129 0.7913
3090 1 8.7043 27.6955 2.3739
3091 1 7.1217 26.1129 3.9565
3092 1 8.7043 27.6955 5.5391
3093 1 7.1217 26.1129 7.1217
3094 1 8.7043 27.6955 8.7043
3095 1 7.1217 26.1129 10.2869
3096 1 8.7043 27.6955 11.8695
3097 1 7.1217 26.1129 13.4521
3098 1 8.7043 27.6955 15.0347
3099 1 7.1217 26.1129 16.6173
3100 1 8.7043 27.6955 18.1999
3101 1 7.1217 26.1129 19.7825
3102 1 8.7043 27.6955 21.3651
3103 1 7.1217 26.1129 22.9477
3104 1 8.7043 27.6955 24.5303
3105 1 7.1217 26.1129 26.1129
3106 1 8.7043 27.6955 27.6955
3107 1 7.1217 26.1129 29.2781
3108 1 8.7043 27.6955 30.8607
3109 1 7.1217 26.1129 32.4433
3110 1 8.7043 27.6955 34.0259
3111 1 7.1217 26.1129 35.6085
3112 1 8.7043 27.6955 37.1911
3113 1 7.1217 26.1129 38.7737
3114 1 8.7043 27.6955 40.3563
3115 1 7.1217 26.1129 41.9389
3116 1 8.7043 27.6955 43.5215
3117 1 7.1217 26.1129 45.1041
3118 1 8.7043 27.6955 46.6867
3119 1 7.1217 26.1129 48.2693
3120 1 8.7043 27.6955 49.8519
3121 1 7.1217 29.2781 0.7913
3122 1 8.7043 30.8607 2.3739
3123 1 7.1217 29.2781 3.9565
3124 1 8.7043 30.8607 5.5391
3125 1 7.1217 29.2781 7.1217
3126 1 8.7043 30.8607 8.7043
3127 1 7.1217 29.2781 10.2869
3128 1 8.7043 30.8607 11.8695
3129 1 7.1217 29.2781 13.4521
3130 1 8.7043 30.8607 15.0347
3131 1 7.1217 29.2781 16.6173
3132 1 8.7043 30.8607 18.1999
3133 1 7.1217 29.2781 19.7825
3134 1 8.7043 30.8607 21.3651
3135 1 7.1217 29.2781 22.9477
3136 1 8.7043 30.8607 24.5303
3137 1 7.1217 29.2781 26.1129
3138 1 8.7043 30.8607 27.6955
3139 1 7.1217 29.2781 29.2781
3140 1 8.7043 30.8607 30.8607
3141 1 7.1217 29.2781 32.4433
3142 1 8.7043 30.8607 34.0259
3143 1 7.1217 29.2781 35.6085
3144 1 8.7043 30.8607 37.1911
3145 1 7.1217 29.2781 38.7737
3146 1 8.7043 30.8607 40.3563
3147 1 7.1217 29.2781 41.9389
3148 1 8.7043 30.8607 43.5215
3149 1 7.1217 29.2781 45.1041
3150 1 8.7043 30.8607 46.6867
3151 1 7.1217 29.2781 48.2693
3152 1 8.7043 30.8607 49.8519
3153 1 7.1217 32.4433 0.7913
3154 1 8.7043 34.0259 2.3739
3155 1 7.1217 32.4433 3.9565
3156 1 8.7043 34.0259 5.5391
3157 1 7.1217 32.4433 7.1217
3158 1 8.7043 34.0259 8.7043
3159 1 7.1217 32.4433 10.2869
3160 1 8.7043 34.0259 11.8695
3161 1 7.1217 32.4433 13.4521
3162 1 8.7043 34.0259 15.0347
3163 1 7.1217 32.4433 16.6173
3164 1 8.7043 34.0259 18.1999
3165 1 7.1217 32.4433 19.7825
3166 1 8.7043 34.0259 21.3651
3167 1 7.1217 32.4433 22.9477
3168 1 8.7043 34.0259 24.5303
3169 1 7.1217 32.4433 26.1129
3170 1 8.7043 34.0259 27.6955
3171 1 7.1217 32.4433 29.2781
3172 1 8.7043 34.0259 30.8607
3173 1 7.1217 32.4433 32.4433
3174 1 8.7043 34.0259 34.0259
3175 1 7.1217 32.4433 35.6085
3176 1 8.7043 34.0259 37.1911
3177 1 7.1217 32.4433 38.7737
3178 1 8.7043 34.0259 40.3563
3179 1 7.1217 32.4433 41.9389
3180 1 8.7043 34.0259 43.5215
3181 1 7.1217 32.4433 45.1041
3182 1 8.7043 34.0259 46.6867
3183 1 7.1217 32.4433 48.2693
3184 1 8.7043 34.0259 49.8519
3185 1 7.1217 35.6085 0.7913
3186 1 8.7043 37.1911 2.3739
3187 1 7.1217 35.6085 3.9565
3188 1 8.7043 37.1911 5.5391
3189 1 7.1217 35.6085 7.1217
3190 1 8.7043 37.1911 8.7043
3191 1 7.1217 35.6085 10.2869
3192 1 8.7043 37.1911 11.8695
3193 1 7.1217 35.6085 13.4521
3194 1 8.7043 37.1911 15.0347
3195 1 7.1217 35.6085 16.6173
3196 1 8.7043 37.1911 18.1999
3197 1 7.1217 35.6085 19.7825
3198 1 8.7043 37.1911 21.3651
3199 1 7.1217 35.6085 22.9477
3200 1 8.7043 37.1911 24.5303
3201 1 7.1217 35.6085 26.1129
3202 1 8.7043 37.1911 27.6955
3203 1 7.1217 35.6085 29.2781
3204 1 8.7043 37.1911 30.8607
3205 1 7.1217 35.6085 32.4433
3206 1 8.7043 37.1911 34.0259
3207 1 7.1217 35.6085 35.6085
3208 1 8.7043 37.1911 37.1911
3209 1 7.1217 35.6085 38.7737
3210 1 8.7043 37.1911 40.3563
3211 1 7.1217 35.6085 41.9389
3212 1 8.7043 37.1911 43.5215
3213 1 7.1217 35.6085 45.1041
3214 1 8.7043 37.1911 46.6867
3215 1 7.1217 35.6085 48.2693
3216 1 8.7043 37.1911 49.8519
3217 1 7.1217 38.7737 0.7913
3218 1 8.7043 40.3563 2.3739
3219 1 7.1217 38.7737 3.9565
3220 1 8.7043 40.3563 5.5391
3221 1 7.1217 38.7737 7.1217
3222 1 8.7043 40.3563 8.7043
3223 1 7.1217 38.7737 10.2869
3224 1 8.7043 40.3563 11.8695
3225 1 7.1217 38.7737 13.4521
3226 1 8.7043 40.3563 15.0347
3227 1 7.1217 38.7737 16.6173
3228 1 8.7043 40.3563 18.1999
3229 1 7.1217 38.7737 19.7825
3230 1 8.7043 40.3563 21.3651
3231 1 7.1217 38.7737 22.9477
3232 1 8.7043 40.3563 24.5303
3233 1 7.1217 38.7737 26.1129
3234 1 8.7043 40.3563 27.6955
3235 1 7.1217 38.7737 29.2781
3236 1 8.7043 40.3563 30.8607
3237 1 7.1217 38.7737 32.4433
3238 1 8.7043 40.3563 34.0259
3239 1 7.1217 38.7737 35.6085
3240 1 8.7043 40.3563 37.1911
3241 1 7.1217 38.7737 38.7737
3242 1 8.7043 40.3563 40.3563
3243 1 7.1217 38.7737 41.9389
3244 1 8.7043 40.3563 43.5215
3245 1 7.1217 38.7737 45.1041
3246 1 8.7043 40.3563 46.6867
3247 1 7.1217 38.7737 48.2693
3248 1 8.7043 40.3563 49.8519
3249 1 7.1217 41.9389 0.7913
3250 1 8.7043 43.5215 2.3739
3251 1 7.1217 41.9389 3.9565
3252 1 8.7043 43.5215 5.5391
3253 1 7.1217 41.9389 7.1217
3254 1 8.7043 43.5215 8.7043
3255 1 7.1217 41.9389 10.2869
3256 1 8.7043 43.5215 11.8695
3257 1 7.1217 41.9389 13.4521
3258 1 8.7043 43.5215 15.0347
3259 1 7.1217 41.9389 16.6173
3260 1 8.7043 43.5215 18.1999
3261 1 7.1217 41.9389 19.7825
3262 1 8.7043 43.5215 21.3651
3263 1 7.1217 41.9389 22.9477
3264 1 8.7043 43.5215 24.5303
3265 1 7.1217 41.9389 26.1129
3266 1 8.7043 43.5215 27.6955
3267 1 7.1217 41.9389 29.2781
3268 1 8.7043 43.5215 30.8607
3269 1 7.1217 41.9389 32.4433
3270 1 8.7043 43.5215 34.0259
3271 1 7.1217 41.9389 35.6085
3272 1 8.7043 43.5215 37.1911
3273 1 7.1217 41.9389 38.7737
3274 1 8.7043 43.5215 40.3563
3275 1 7.1217 41.9389 41.9389
3276 1 8.7043 43.5215 43.5215
3277 1 7.1217 41.9389 45.1041
3278 1 8.7043 43.5215 46.6867
3279 1 7.1217 41.9389 48.2693
3280 1 8.7043 43.5215 49.8519
3281 1 7.1217 45.1041 0.7913
3282 1 8.7043 46.6867 2.3739
3283 1 7.1217 45.1041 3.9565
3284 1 8.7043 46.6867 5.5391
3285 1 7.1217 45.1041 7.1217
3286 1 8.7043 46.6867 8.7043
3287 1 7.1217 45.1041 10.2869
3288 1 8.7043 46.6867 11.8695
3289 1 7.1217 45.1041 13.4521
3290 1 8.7043 46.6867 15.0347
3291 1 7.1217 45.1041 16.6173
3292 1 8.7043 46.6867 18.1999
3293 1 7.1217 45.1041 19.7825
3294 1 8.7043 46.6867 21.3651
3295 1 7.1217 45.1041 22.9477
3296 1 8.7043 46.6867 24.5303
3297 1 7.1217 45.1041 26.1129
3298 1 8.7043 46.6867 27.6955
3299 1 7.1217 45.1041 29.2781
3300 1 8.7043 46.6867 30.8607
3301 1 7.1217 45.1041 32.4433
3302 1 8.7043 46.6867 34.0259
3303 1 7.1217 45.1041 35.6085
3304 1 8.7043 46.6867 37.1911
3305 1 7.1217 45.1041 38.7737
3306 1 8.7043 46.6867 40.3563
3307 1 7.1217 45.1041 41.9389
3308 1 8.7043 46.6867 43.5215
3309 1 7.1217 45.1041 45.1041
3310 1 8.7043 46.6867 46.6867
3311 1 7.1217 45.1041 48.2693
3312 1 8.7043 46.6867 49.8519
3313 1 7.1217 48.2693 0.7913
3314 1 8.7043 49.8519 2.3739
3315 1 7.1217 48.2693 3.9565
3316 1 8.7043 49.8519 5.5391
3317 1 7.1217 48.2693 7.1217
3318 1 8.7043 49.8519 8.7043
3319 1 7.1217 48.2693 10.2869
3320 1 8.7043 49.8519 11.8695
3321 1 7.1217 48.2693 13.4521
3322 1 8.7043 49.8519 15.0347
3323 1 7.1217 48.2693 16.6173
3324 1 8.7043 49.8519 18.1999
3325 1 7.1217 48.2693 19.7825
3326 1 8.7043 49.8519 21.3651
3327 1 7.1217 48.2693 22.9477
3328 1 8.7043 49.8519 24.5303
3329 1 7.1217 48.2693 26.1129
3330 1 8.7043 49.8519 27.6955
3331 1 7.1217 48.2693 29.2781
3332 1 8.7043 49.8519 30.8607
3333 1 7.1217 48.2693 32.4433
3334 1 8.7043 49.8519 34.0259
3335 1 7.1217 48.2693 35.6085
3336 1 8.7043 49.8519 37.1911
3337 1 7.1217 48.2693 38.7737
3338 1 8.7043 49.8519 40.3563
3339 1 7.1217 48.2693 41.9389
3340 1 8.7043 49.8519 43.5215
3341 1 7.1217 48.2693 45.1041
3342 1 8.7043 49.8519 46.6867
3343 1 7.1217 48.2693 48.2693
3344 1 8.7043 49.8519 49.8519
3345 1 41.9389 0.7913 0.7913
3346 1 43.5215 2.3739 2.3739
3347 1 41.9389 0.7913 3.9565
3348 1 43.5215 2.3739 5.5391
3349 1 41.9389 0.7913 7.1217
3350 1 43.5215 2.3739 8.7043
3351 1 41.9389 0.7913 10.2869
3352 1 43.5215 2.3739 11.8695
3353 1 41.9389 0.7913 13.4521
3354 1 43.5215 2.3739 15.0347
3355 1 41.9389 0.7913 16.6173
3356 1 43.5215 2.3739 18.1999
3357 1 41.9389 0.7913 19.7825
3358 1 43.5215 2.3739 21.3651
3359 1 41.9389 0.7913 22.9477
3360 1 43.5215 2.3739 24.5303
3361 1 41.9389 0.7913 26.1129
3362 1 43.5215 2.3739 27.6955
3363 1 41.9389 0.7913 29.2781
3364 1 43.5215 2.3739 30.8607
3365 1 41.9389 0.7913 32.4433
3366 1 43.5215 2.3739 34.0259
3367 1 41.9389 0.7913 35.6085
3368 1 43.5215 2.3739 37.1911
3369 1 41.9389 0.7913 38.7737
3370 1 43.5215 2.3739 40.3563
3371 1 41.9389 0.7913 41.9389
3372 1 43.5215 2.3739 43.5215
3373 1 41.9389 0.7913 45.1041
3374 1 43.5215 2.3739 46.6867
3375 1 41.9389 0.7913 48.2693
3376 1 43.5215 2.3739 49.8519
3377 1 41.9389 3.9565 0.7913
3378 1 43.5215 5.5391 2.3739
3379 1 41.9389 3.9565 3.9565
3380 1 43.5215 5.5391 5.5391
3381 1 41.9389 3.9565 7.1217
3382 1 43.5215 5.5391 8.7043
3383 1 41.9389 3.9565 10.2869
3384 1 43.5215 5.5391 11.8695
3385 1 41.9389 3.9565 13.4521
3386 1 43.5215 5.5391 15.0347
3387 1 41.9389 3.9565 16.6173
3388 1 43.5215 5.5391 18.1999
3389 1 41.9389 3.9565 19.7825
3390 1 43.5215 5.5391 21.3651
3391 1 41.9389 3.9565 22.9477
3392 1 43.5215 5.5391 24.5303
3393 1 41.9389 3.9565 26.1129
3394 1 43.5215 5.5391 27.6955
3395 1 41.9389 3.9565 29.2781
3396 1 43.5215 5.5391 30.8607
3397 1 41.9389 3.9565 32.4433
3398 1 43.5215 5.5391 34.0259
3399 1 41.9389 3.9565 35.6085
3400 1 43.5215 5.5391 37.1911
3401 1 41.9389 3.9565 38.7737
3402 1 43.5215 5.5391 40.3563
3403 1 41.9389 3.9565 41.9389
3404 1 43.5215 5.5391 43.5215
3405 1 41.9389 3.9565 45.1041
3406 1 43.5215 5.5391 46.6867
3407 1 41.9389 3.9565 48.2693
3408 1 43.5215 5.5391 49.8519
3409 1 41.9389 7.1217 0.7913
3410 1 43.5215 8.7043 2.3739
3411 1 41.9389 7.1217 3.9565
3412 1 43.5215 8.7043 5.5391
3413 1 41.9389 7.1217 7.1217
3414 1 43.5215 8.7043 8.7043
3415 1 41.9389 7.1217 10.2869
3416 1 43.5215 8.7043 11.8695
3417 1 41.9389 7.1217 13.4521
3418 1 43.5215 8.7043 15.0347
3419 1 41.9389 7.1217 16.6173
3420 1 43.5215 8.7043 18.1999
3421 1 41.9389 7.1217 19.7825
3422 1 43.5215 8.7043 21.3651
3423 1 41.9389 7.1217 22.9477
3424 1 43.5215 8.7043 24.5303
3425 1 41.9389 7.1217 26.1129
3426 1 43.5215 8.7043 27.6955
3427 1 41.9389 7.1217 29.2781
3428 1 43.5215 8.7043 30.8607
3429 1 41.9389 7.1217 32.4433
3430 1 43.5215 8.7043 34.0259
3431 1 41.9389 7.1217 35.6085
3432 1 43.5215 8.7043 37.1911
3433 1 41.9389 7.1217 38.7737
3434 1 43.5215 8.7043 40.3563
3435 1 41.9389 7.1217 41.9389
3436 1 43.5215 8.7043 43.5215
3437 1 41.9389 7.1217 45.1041
3438 1 43.5215 8.7043 46.6867
3439 1 41.9389 7.1217 48.2693
3440 1 43.5215 8.7043 49.8519
3441 1 41.9389 10.2869 0.7913
3442 1 43.5215 11.8695 2.3739
3443 1 41.9389 10.2869 3.9565
3444 1 43.5215 11.8695 5.5391
3445 1 41.9389 10.2869 7.1217
3446 1 43.5215 11.8695 8.7043
3447 1 41.9389 10.2869 10.2869
3448 1 43.5215 11.8695 11.8695
3449 1 41.9389 10.2869 13.4521
3450 1 43.5215 11.8695 15.0347
3451 1 41.9389 10.2869 16.6173
3452 1 43.5215 11.8695 18.1999
3453 1 41.9389 10.2869 19.7825
3454 1 43.5215 11.8695 21.3651
3455 1 41.9389 10.2869 22.9477
3456 1 43.5215 11.8695 24.5303
3457 1 41.9389 10.2869 26.1129
3458 1 43.5215 11.8695 27.6955
3459 1 41.9389 10.2869 29.2781
3460 1 43.5215 11.8695 30.8607
3461 1 41.9389 10.2869 32.4433
3462 1 43.5215 11.8695 34.0259
3463 1 41.9389 10.2869 35.6085
3464 1 43.5215 11.8695 37.1911
3465 1 41.9389 10.2869 38.7737
3466 1 43.5215 11.8695 40.3563
3467 1 41.9389 10.2869 41.9389
3468 1 43.5215 11.8695 43.5215
3469 1 41.9389 10.2869 45.1041
3470 1 43.5215 11.8695 46.6867
3471 1 41.9389 10.2869 48.2693
3472 1 43.5215 11.8695 49.8519
3473 1 41.9389 13.4521 0.7913
3474 1 43.5215 15.0347 2.3739
3475 1 41.9389 13.4521 3.9565
3476 1 43.5215 15.0347 5.5391
3477 1 41.9389 13.4521 7.1217
3478 1 43.5215 15.0347 8.7043
3479 1 41.9389 13.4521 10.2869
3480 1 43.5215 15.0347 11.8695
3481 1 41.9389 13.4521 13.4521
3482 1 43.5215 15.0347 15.0347
3483 1 41.9389 13.4521 16.6173
3484 1 43.5215 15.0347 18.1999
3485 1 41.9389 13.4521 19.7825
3486 1 43.5215 15.0347 21.3651
3487 1 41.9389 13.4521 22.9477
3488 1 43.5215 15.0347 24.5303
3489 1 41.9389 13.4521 26.1129
3490 1 43.5215 15.0347 27.6955
3491 1 41.9389 13.4521 29.2781
3492 1 43.5215 15.0347 30.8607
3493 1 41.9389 13.4521 32.4433
3494 1 43.5215 15.0347 34.0259
3495 1 41.9389 13.4521 35.6085
3496 1 43.5215 15.0347 37.1911
3497 1 41.9389 13.4521 38.7737
3498 1 43.5215 15.0347 40.3563
3499 1 41.9389 13.4521 41.9389
3500 1 43.5215 15.0347 43.5215
3501 1 41.9389 13.4521 45.1041
3502 1 43.5215 15.0347 46.6867
3503 1 41.9389 13.4521 48.2693
3504 1 43.5215 15.0347 49.8519
3505 1 41.9389 16.6173 0.7913
3506 1 43.5215 18.1999 2.3739
3507 1 41.9389 16.6173 3.9565
3508 1 43.5215 18.1999 5.5391
3509 1 41.9389 16.6173 7.1217
3510 1 43.5215 18.1999 8.7043
3511 1 41.9389 16.6173 10.2869
3512 1 43.5215 18.1999 11.8695
3513 1 41.9389 16.6173 13.4521
3514 1 43.5215 18.1999 15.0347
3515 1 41.9389 16.6173 16.6173
3516 1 43.5215 18.1999 18.1999
3517 1 41.9389 16.6173 19.7825
3518 1 43.5215 18.1999 21.3651
3519 1 41.9389 16.6173 22.9477
3520 1 43.5215 18.1999 24.5303
3521 1 41.9389 16.6173 26.1129
3522 1 43.5215 18.1999 27.6955
3523 1 41.9389 16.6173 29.2781
3524 1 43.5215 18.1999 30.8607
3525 1 41.9389 16.6173 32.4433
3526 1 43.5215 18.1999 34.0259
3527 1 41.9389 16.6173 35.6085
3528 1 43.5215 18.1999 37.1911
3529 1 41.9389 16.6173 38.7737
3530 1 43.5215 18.1999 40.3563
3531 1 41.9389 16.6173 41.9389
3532 1 43.5215 18.1999 43.5215
3533 1 41.9389 16.6173 45.1041
3534 1 43.5215 18.1999 46.6867
3535 1 41.9389 16.6173 48.2693
3536 1 43.5215 18.1999 49.8519
3537 1 41.9389 19.7825 0.7913
3538 1 43.5215 21.3651 2.3739
3539 1 41.9389 19.7825 3.9565
3540 1 43.5215 21.3651 5.5391
3541 1 41.9389 19.7825 7.1217
3542 1 43.5215 21.3651 8.7043
3543 1 41.9389 19.7825 10.2869
3544 1 43.5215 21.3651 11.8695
3545 1 41.9389 19.7825 13.4521
3546 1 43.5215 21.3651 15.0347
3547 1 41.9389 19.7825 16.6173
3548 1 43.5215 21.3651 18.1999
3549 1 41.9389 19.7825 19.7825
3550 1 43.5215 21.3651 21.3651
3551 1 41.9389 19.7825 22.9477
3552 1 43.5215 21.3651 24.5303
3553 1 41.9389 19.7825 26.1129
3554 1 43.5215 21.3651 27.6955
3555 1 41.9389 19.7825 29.2781
3556 1 43.5215 21.3651 30.8607
3557 1 41.9389 19.7825 32.4433
3558 1 43.5215 21.3651 34.0259
3559 1 41.9389 19.7825 35.6085
3560 1 43.5215 21.3651 37.1911
3561 1 41.9389 19.7825 38.7737
3562 1 43.5215 21.3651 40.3563
3563 1 41.9389 19.7825 41.9389
3564 1 43.5215 21.3651 43.5215
3565 1 41.9389 19.7825 45.1041
3566 1 43.5215 21.3651 46.6867
3567 1 41.9389 19.7825 48.2693
3568 1 43.5215 21.3651 49.8519
3569 1 41.9389 22.9477 0.7913
3570 1 43.5215 24.5303 2.3739
3571 1 41.9389 22.9477 3.9565
3572 1 43.5215 24.5303 5.5391
3573 1 41.9389 22.9477 7.1217
3574 1 43.5215 24.5303 8.7043
3575 1 41.9389 22.9477 10.2869
3576 1 43.5215 24.5303 11.8695
3577 1 41.9389 22.9477 13.4521
3578 1 43.5215 24.5303 15.0347
3579 1 41.9389 22.9477 16.6173
3580 1 43.5215 24.5303 18.1999
3581 1 41.9389 22.9477 19.7825
3582 1 43.5215 24.5303 21.3651
3583 1 41.9389 22.9477 22.9477
3584 1 43.5215 24.5303 24.5303
3585 1 41.9389 22.9477 26.1129
3586 1 43.5215 24.5303 27.6955
3587 1 41.9389 22.9477 29.2781
3588 1 43.5215 24.5303 30.8607
3589 1 41.9389 22.9477 32.4433
3590 1 43.5215 24.5303 34.0259
3591 1 41.9389 22.9477 35.6085
3592 1 43.5215 24.5303 37.1911
3593 1 41.9389 22.9477 38.7737
3594 1 43.5215 24.5303 40.3563
3595 1 41.9389 22.9477 41.9389
3596 1 43.5215 24.5303 43.5215
3597 1 41.9389 22.9477 45.1041
3598 1 43.5215 24.5303 46.6867
3599 1 41.9389 22.9477 48.2693
3600 1 43.5215 24.5303 49.8519
3601 1 41.9389 26.1129 0.7913
3602 1 43.5215 27.6955 2.3739
3603 1 41.9389 26.1129 3.9565
3604 1 43.5215 27.6955 5.5391
3605 1 41.9389 26.1129 7.1217
3606 1 43.5215 27.6955 8.7043
3607 1 41.9389 26.1129 10.2869
3608 1 43.5215 27.6955 11.8695
3609 1 41.9389 26.1129 13.4521
3610 1 43.5215 27.6955 15.0347
3611 1 41.9389 26.1129 16.6173
3612 1 43.5215 27.6955 18.1999
3613 1 41.9389 26.1129 19.7825
3614 1 43.5215 27.6955 21.3651
3615 1 41.9389 26.1129 22.9477
3616 1 43.5215 27.6955 24.5303
3617 1 41.9389 26.1129 26.1129
3618 1 43.5215 27.6955 27.6955
3619 1 41.9389 26.1129 29.2781
3620 1 43.5215 27.6955 30.8607
3621 1 41.9389 26.1129 32.4433
3622 1 43.5215 27.6955 34.0259
3623 1 41.9389 26.1129 35.6085
3624 1 43.5215 27.6955 37.1911
3625 1 41.9389 26.1129 38.7737
3626 1 43.5215 27.6955 40.3563
3627 1 41.9389 26.1129 41.9389
3628 1 43.5215 27.6955 43.5215
3629 1 41.9389 26.1129 45.1041
3630 1 43.5215 27.6955 46.6867
3631 1 41.9389 26.1129 48.2693
3632 1 43.5215 27.6955 49.8519
3633 1 41.9389 29.2781 0.7913
3634 1 43.5215 30.8607 2.3739
3635 1 41.9389 29.2781 3.9565
3636 1 43.5215 30.8607 5.5391
3637 1 41.9389 29.2781 7.1217
3638 1 43.5215 30.8607 8.7043
3639 1 41.9389 29.2781 10.2869
3640 1 43.5215 30.8607 11.8695
3641 1 41.9389 29.2781 13.4521
3642 1 43.5215 30.8607 15.0347
3643 1 41.9389 29.2781 16.6173
3644 1 43.5215 30.8607 18.1999
3645 1 41.9389 29.2781 19.7825
3646 1 43.5215 30.8607 21.3651
3647 1 41.9389 29.2781 22.9477
3648 1 43.5215 30.8607 24.5303
3649 1 41.9389 29.2781 26.1129
3650 1 43.5215 30.8607 27.6955
3651 1 41.9389 29.2781 29.2781
3652 1 43.5215 30.8607 30.8607
3653 1 41.9389 29.2781 32.4433
3654 1 43.5215 30.8607 34.0259
3655 1 41.9389 29.2781 35.6085
3656 1 43.5215 30.8607 37.1911
3657 1 41.9389 29.2781 38.7737
3658 1 43.5215 30.8607 40.3563
3659 1 41.9389 29.2781 41.9389
3660 1 43.5215 30.8607 43.5215
3661 1 41.9389 29.2781 45.1041
3662 1 43.5215 30.8607 46.6867
3663 1 41.9389 29.2781 48.2693
3664 1 43.5215 30.8607 49.8519
3665 1 41.9389 32.4433 0.7913
3666 1 43.5215 34.0259 2.3739
3667 1 41.9389 32.4433 3.9565
3668 1 43.5215 34.0259 5.5391
3669 1 41.9389 32.4433 7.1217
3670 1 43.5215 34.0259 8.7043
3671 1 41.9389 32.4433 10.2869
3672 1 43.5215 34.0259 11.8695
3673 1 41.9389 32.4433 13.4521
3674 1 43.5215 34.0259 15.0347
3675 1 41.9389 32.4433 16.6173
3676 1 43.5215 34.0259 18.1999
3677 1 41.9389 32.4433 19.7825
3678 1 43.5215 34.0259 21.3651
3679 1 41.9389 32.4433 22.9477
3680 1 43.5215 34.0259 24.5303
3681 1 41.9389 32.4433 26.1129
3682 1 43.5215 34.0259 27.6955
3683 1 41.9389 32.4433 29.2781
3684 1 43.5215 34.0259 30.8607
3685 1 41.9389 32.4433 32.4433
3686 1 43.5215 34.0259 34.0259
3687 1 41.9389 32.4433 35.6085
3688 1 43.5215 34.0259 37.1911
3689 1 41.9389 32.4433 38.7737
3690 1 43.5215 34.0259 40.3563
3691 1 41.9389 32.4433 41.9389
3692 1 43.5215 34.0259 43.5215
3693 1 41.9389 32.4433 45.1041
3694 1 43.5215 34.0259 46.6867
3695 1 41.9389 32.4433 48.2693
3696 1 43.5215 34.0259 49.8519
3697 1 41.9389 35.6085 0.7913
3698 1 43.5215 37.1911 2.3739
3699 1 41.9389 35.6085 3.9565
3700 1 43.5215 37.1911 5.5391
3701 1 41.9389 35.6085 7.1217
3702 1 43.5215 37.1911 8.7043
3703 1 41.9389 35.6085 10.2869
3704 1 43.5215 37.1911 11.8695
3705 1 41.9389 35.6085 13.4521
3706 1 43.5215 37.1911 15.0347
3707 1 41.9389 35.6085 16.6173
3708 1 43.5215 37.1911 18.1999
3709 1 41.9389 35.6085 19.7825
3710 1 43.5215 37.1911 21.3651
3711 1 41.9389 35.6085 22.9477
3712 1 43.5215 37.1911 24.5303
3713 1 41.9389 35.6085 26.1129
3714 1 43.5215 37.1911 27.6955
3715 1 41.9389 35.6085 29.2781
3716 1 43.5215 37.1911 30.8607
3717 1 41.9389 35.6085 32.4433
3718 1 43.5215 37.1911 34.0259
3719 1 41.9389 35.6085 35.6085
3720 1 43.5215 37.1911 37.1911
3721 1 41.9389 35.6085 38.7737
3722 1 43.5215 37.1911 40.3563
3723 1 41.9389 35.6085 41.9389
3724 1 43.5215 37.1911 43.5215
3725 1 41.9389 35.6085 45.1041
3726 1 43.5215 37.1911 46.6867
3727 1 41.9389 35.6085 48.2693
3728 1 43.5215 37.1911 49.8519
3729 1 41.9389 38.7737 0.7913
3730 1 43.5215 40.3563 2.3739
3731 1 41.9389 38.7737 3.9565
3732 1 43.5215 40.3563 5.5391
3733 1 41.9389 38.7737 7.1217
3734 1 43.5215 40.3563 8.7043
3735 1 41.9389 38.7737 10.2869
3736 1 43.5215 40.3563 11.8695
3737 1 41.9389 38.7737 13.4521
3738 1 43.5215 40.3563 15.0347
3739 1 41.9389 38.7737 16.6173
3740 1 43.5215 40.3563 18.1999
3741 1 41.9389 38.7737 19.7825
3742 1 43.5215 40.3563 21.3651
3743 1 41.9389 38.7737 22.9477
3744 1 43.5215 40.3563 24.5303
3745 1 41.9389 38.7737 26.1129
3746 1 43.5215 40.3563 27.6955
3747 1 41.9389 38.7737 29.2781
3748 1 43.5215 40.3563 30.8607
3749 1 41.9389 38.7737 32.4433
3750 1 43.5215 40.3563 34.0259
3751 1 41.9389 38.7737 35.6085
3752 1 43.5215 40.3563 37.1911
3753 1 41.9389 38.7737 38.7737
3754 1 43.5215 40.3563 40.3563
3755 1 41.9389 38.7737 41.9389
3756 1 43.5215 40.3563 43.5215
3757 1 41.9389 38.7737 45.1041
3758 1 43.5215 40.3563 46.6867
3759 1 41.9389 38.7737 48.2693
3760 1 43.5215 40.3563 49.8519
3761 1 41.9389 41.9389 0.7913
3762 1 43.5215 43.5215 2.3739
3763 1 41.9389 41.9389 3.9565
3764 1 43.5215 43.5215 5.5391
3765 1 41.9389 41.9389 7.1217
3766 1 43.5215 43.5215 8.7043
3767 1 41.9389 41.9389 10.2869
3768 1 43.5215 43.5215 11.8695
3769 1 41.9389 41.9389 13.4521
3770 1 43.5215 43.5215 15.0347
3771 1 41.9389 41.9389 16.6173
3772 1 43.5215 43.5215 18.1999
3773 1 41.9389 41.9389 19.7825
3774 1 43.5215 43.5215 21.3651
3775 1 41.9389 41.9389 22.9477
3776 1 43.5215 43.5215 24.5303
3777 1 41.9389 41.9389 26.1129
3778 1 43.5215 43.5215 27.6955
3779 1 41.9389 41.9389 29.2781
3780 1 43.5215 43.5215 30.8607
3781 1 41.9389 41.9389 32.4433
3782 1 43.5215 43.5215 34.0259
3783 1 41.9389 41.9389 35.6085
3784 1 43.5215 43.5215 37.1911
3785 1 41.9389 41.9389 38.7737
3786 1 43.5215 43.5215 40.3563
3787 1 41.9389 41.9389 41.9389
3788 1 43.5215 43.5215 43.5215
3789 1 41.9389 41.9389 45.1041
3790 1 43.5215 43.5215 46.6867
3791 1 41.9389 41.9389 48.2693
3792 1 43.5215 43.5215 49.8519
3793 1 41.9389 45.1041 0.7913
3794 1 43.5215 46.6867 2.3739
3795 1 41.9389 45.1041 3.9565
3796 1 43.5215 46.6867 5.5391
3797 1 41.9389 45.1041 7.1217
3798 1 43.5215 46.6867 8.7043
3799 1 41.9389 45.1041 10.2869
3800 1 43.5215 46.6867 11.8695
3801 1 41.9389 45.1041 13.4521
3802 1 43.5215 46.6867 15.0347
3803 1 41.9389 45.1041 16.6173
3804 1 43.5215 46.6867 18.1999
3805 1 41.9389 45.1041 19.7825
3806 1 43.5215 46.6867 21.3651
3807 1 41.9389 45.1041 22.9477
3808 1 43.5215 46.6867 24.5303
3809 1 41.9389 45.1041 26.1129
3810 1 43.5215 46.6867 27.6955
3811 1 41.9389 45.1041 29.2781
3812 1 43.5215 46.6867 30.8607
3813 1 41.9389 45.1041 32.4433
3814 1 43.5215 46.6867 34.0259
3815 1 41.9389 45.1041 35.6085
3816 1 43.5215 46.6867 37.1911
3817 1 41.9389 45.1041 38.7737
3818 1 43.5215 46.6867 40.3563
3819 1 41.9389 45.1041 41.9389
3820 1 43.5215 46.6867 43.5215
3821 1 41.9389 45.1041 45.1041
3822 1 43.5215 46.6867 46.6867
3823 1 41.9389 45.1041 48.2693
3824 1 43.5215 46.6867 49.8519
3825 1 41.9389 48.2693 0.7913
3826 1 43.5215 49.8519 2.3739
3827 1 41.9389 48.2693 3.9565
3828 1 43.5215 49.8519 5.5391
3829 1 41.9389 48.2693 7.1217
3830 1 43.5215 49.8519 8.7043
3831 1 41.9389 48.2693 10.2869
3832 1 43.5215 49.8519 11.8695
3833 1 41.9389 48.2693 13.4521
3834 1 43.5215 49.8519 15.0347
3835 1 41.9389 48.2693 16.6173
3836 1 43.5215 49.8519 18.1999
3837 1 41.9389 48.2693 19.7825
3838 1 43.5215 49.8519 21.3651
3839 1 41.9389 48.2693 22.9477
3840 1 43.5215 49.8519 24.5303
3841 1 41.9389 48.2693 26.1129
3842 1 43.5215 49.8519 27.6955
3843 1 41.9389 48.2693 29.2781
3844 1 43.5215 49.8519 30.8607
3845 1 41.9389 48.2693 32.4433
3846 1 43.5215 49.8519 34.0259
3847 1 41.9389 48.2693 35.6085
3848 1 43.5215 49.8519 37.1911
3849 1 41.9389 48.2693 38.7737
3850 1 43.5215 49.8519 40.3563
3851 1 41.9389 48.2693 41.9389
3852 1 43.5215 49.8519 43.5215
3853 1 41.9389 48.2693 45.1041
3854 1 43.5215 49.8519 46.6867
3855 1 41.9389 48.2693 48.2693
3856 1 43.5215 49.8519 49.8519
3857 1 45.1041 0.7913 0.7913
3858 1 46.6867 2.3739 2.3739
3859 1 45.1041 0.7913 3.9565
3860 1 46.6867 2.3739 5.5391
3861 1 45.1041 0.7913 7.1217
3862 1 46.6867 2.3739 8.7043
3863 1 45.1041 0.7913 10.2869
3864 1 46.6867 2.3739 11.8695
3865 1 45.1041 0.7913 13.4521
3866 1 46.6867 2.3739 15.0347
3867 1 45.1041 0.7913 16.6173
3868 1 46.6867 2.3739 18.1999
3869 1 45.1041 0.7913 19.7825
3870 1 46.6867 2.3739 21.3651
3871 1 45.1041 0.7913 22.9477
3872 1 46.6867 2.3739 24.5303
3873 1 45.1041 0.7913 26.1129
3874 1 46.6867 2.3739 27.6955
3875 1 45.1041 0.7913 29.2781
3876 1 46.6867 2.3739 30.8607
3877 1 45.1041 0.7913 32.4433
3878 1 46.6867 2.3739 34.0259
3879 1 45.1041 0.7913 35.6085
3880 1 46.6867 2.3739 37.1911
3881 1 45.1041 0.7913 38.7737
3882 1 46.6867 2.3739 40.3563
3883 1 45.1041 0.7913 41.9389
3884 1 46.6867 2.3739 43.5215
3885 1 45.1041 0.7913 45.1041
3886 1 46.6867 2.3739 46.6867
3887 1 45.1041 0.7913 48.2693
3888 1 46.6867 2.3739 49.8519
3889 1 45.1041 3.9565 0.7913
3890 1 46.6867 5.5391 2.3739
3891 1 45.1041 3.9565 3.9565
3892 1 46.6867 5.5391 5.5391
3893 1 45.1041 3.9565 7.1217
3894 1 46.6867 5.5391 8.7043
3895 1 45.1041 3.9565 10.2869
3896 1 46.6867 5.5391 11.8695
3897 1 45.1041 3.9565 13.4521
3898 1 46.6867 5.5391 15.0347
3899 1 45.1041 3.9565 16.6173
3900 1 46.6867 5.5391 18.1999
3901 1 45.1041 3.9565 19.7825
3902 1 46.6867 5.5391 21.3651
3903 1 45.1041 3.9565 22.9477
3904 1 46.6867 5.5391 24.5303
3905 1 45.1041 3.9565 26.1129
3906 1 46.6867 5.5391 27.6955
3907 1 45.1041 3.9565 29.2781
3908 1 46.6867 5.5391 30.8607
3909 1 45.1041 3.9565 32.4433
3910 1 46.6867 5.5391 34.0259
3911 1 45.1041 3.9565 35.6085
3912 1 46.6867 5.5391 37.1911
3913 1 45.1041 3.9565 38.7737
3914 1 46.6867 5.5391 40.3563
3915 1 45.1041 3.9565 41.9389
3916 1 46.6867 5.5391 43.5215
3917 1 45.1041 3.9565 45.1041
3918 1 46.6867 5.5391 46.6867
3919 1 45.1041 3.9565 48.2693
3920 1 46.6867 5.5391 49.8519
3921 1 45.1041 7.1217 0.7913
3922 1 46.6867 8.7043 2.3739
3923 1 45.1041 7.1217 3.9565
3924 1 46.6867 8.7043 5.5391
3925 1 45.1041 7.1217 7.1217
3926 1 46.6867 8.7043 8.7043
3927 1 45.1041 7.1217 10.2869
3928 1 46.6867 8.7043 11.8695
3929 1 45.1041 7.1217 13.4521
3930 1 46.6867 8.7043 15.0347
3931 1 45.1041 7.1217 16.6173
3932 1 46.6867 8.7043 18.1999
3933 1 45.1041 7.1217 19.7825
3934 1 46.6867 8.7043 21.3651
3935 1 45.1041 7.1217 22.9477
3936 1 46.6867 8.7043 24.5303
3937 1 45.1041 7.1217 26.1129
3938 1 46.6867 8.7043 27.6955
3939 1 45.1041 7.1217 29.2781
3940 1 46.6867 8.7043 30.8607
3941 1 45.1041 7.1217 32.4433
3942 1 46.6867 8.7043 34.0259
3943 1 45.1041 7.1217 35.6085
3944 1 46.6867 8.7043 37.1911
3945 1 45.1041 7.1217 38.7737
3946 1 46.6867 8.7043 40.3563
3947 1 45.1041 7.1217 41.9389
3948 1 46.6867 8.7043 43.5215
3949 1 45.1041 7.1217 45.1041
3950 1 46.6867 8.7043 46.6867
3951 1 45.1041 7.1217 48.2693
3952 1 46.6867 8.7043 49.8519
3953 1 45.1041 10.2869 0.7913
3954 1 46.6867 11.8695 2.3739
3955 1 45.1041 10.2869 3.9565
3956 1 46.6867 11.8695 5.5391
3957 1 45.1041 10.2869 7.1217
3958 1 46.6867 11.8695 8.7043
3959 1 45.1041 10.2869 10.2869
3960 1 46.6867 11.8695 11.8695
3961 1 45.1041 10.2869 13.4521
3962 1 46.6867 11.8695 15.0347
3963 1 45.1041 10.2869 16.6173
3964 1 46.6867 11.8695 18.1999
3965 1 45.1041 10.2869 19.7825
3966 1 46.6867 11.8695 21.3651
3967 1 45.1041 10.2869 22.9477
3968 1 46.6867 11.8695 24.5303
3969 1 45.1041 10.2869 26.1129
3970 1 46.6867 11.8695 27.6955
3971 1 45.1041 10.2869 29.2781
3972 1 46.6867 11.8695 30.8607
3973 1 45.1041 10.2869 32.4433
3974 1 46.6867 11.8695 34.0259
3975 1 45.1041 10.2869 35.6085
3976 1 46.6867 11.8695 37.1911
3977 1 45.1041 10.2869 38.7737
3978 1 46.6867 11.8695 40.3563
3979 1 45.1041 10.2869 41.9389
3980 1 46.6867 11.8695 43.5215
3981 1 45.1041 10.2869 45.1041
3982 1 46.6867 11.8695 46.6867
3983 1 45.1041 10.2869 48.2693
3984 1 46.6867 11.8695 49.8519
3985 1 45.1041 13.4521 0.7913
3986 1 46.6867 15.0347 2.3739
3987 1 45.1041 13.4521 3.9565
3988 1 46.6867 15.0347 5.5391
3989 1 45.1041 13.4521 7.1217
3990 1 46.6867 15.0347 8.7043
3991 1 45.1041 13.4521 10.2869
3992 1 46.6867 15.0347 11.8695
3993 1 45.1041 13.4521 13.4521
3994 1 46.6867 15.0347 15.0347
3995 1 45.1041 13.4521 16.6173
3996 1 46.6867 15.0347 18.1999
3997 1 45.1041 13.4521 19.7825
3998 1 46.6867 15.0347 21.3651
3999 1 45.1041 13.4521 22.9477
4000 1 46.6867 15.0347 24.5303
4001 1 45.1041 13.4521 26.1129
4002 1 46.6867 15.0347 27.6955
4003 1 45.1041 13.4521 29.2781
4004 1 46.6867 15.0347 30.8607
4005 1 45.1041 13.4521 32.4433
4006 1 46.6867 15.0347 34.0259
4007 1 45.1041 13.4521 35.6085
4008 1 46.6867 15.0347 37.1911
4009 1 45.1041 13.4521 38.7737
4010 1 46.6867 15.0347 40.3563
4011 1 45.1041 13.4521 41.9389
4012 1 46.6867 15.0347 43.5215
4013 1 45.1041 13.4521 45.1041
4014 1 46.6867 15.0347 46.6867
4015 1 45.1041 13.4521 48.2693
4016 1 46.6867 15.0347 49.8519
4017 1 45.1041 16.6173 0.7913
4018 1 46.6867 18.1999 2.3739
4019 1 45.1041 16.6173 3.9565
4020 1 46.6867 18.1999 5.5391
4021 1 45.1041 16.6173 7.1217
4022 1 46.6867 18.1999 8.7043
4023 1 45.1041 16.6173 10.2869
4024 1 46.6867 18.1999 11.8695
4025 1 45.1041 16.6173 13.4521
4026 1 46.6867 18.1999 15.0347
4027 1 45.1041 16.6173 16.6173
4028 1 46.6867 18.1999 18.1999
4029 1 45.1041 16.6173 19.7825
4030 1 46.6867 18.1999 21.3651
4031 1 45.1041 16.6173 22.9477
4032 1 46.6867 18.1999 24.5303
4033 1 45.1041 16.6173 26.1129
4034 1 46.6867 18.1999 27.6955
4035 1 45.1041 16.6173 29.2781
4036 1 46.6867 18.1999 30.8607
4037 1 45.1041 16.6173 32.4433
4038 1 46.6867 18.1999 34.0259
4039 1 45.1041 16.6173 35.6085
4040 1 46.6867 18.1999 37.1911
4041 1 45.1041 16.6173 38.7737
4042 1 46.6867 18.1999 40.3563
4043 1 45.1041 16.6173 41.9389
4044 1 46.6867 18.1999 43.5215
4045 1 45.1041 16.6173 45.1041
4046 1 46.6867 18.1999 46.6867
4047 1 45.1041 16.6173 48.2693
4048 1 46.6867 18.1999 49.8519
4049 1 45.1041 19.7825 0.7913
4050 1 46.6867 21.3651 2.3739
4051 1 45.1041 19.7825 3.9565
4052 1 46.6867 21.3651 5.5391
4053 1 45.1041 19.7825 7.1217
4054 1 46.6867 21.3651 8.7043
4055 1 45.1041 19.7825 10.2869
4056 1 46.6867 21.3651 11.8695
4057 1 45.1041 19.7825 13.4521
4058 1 46.6867 21.3651 15.0347
4059 1 45.1041 19.7825 16.6173
4060 1 46.6867 21.3651 18.1999
4061 1 45.1041 19.7825 19.7825
4062 1 46.6867 21.3651 21.3651
4063 1 45.1041 19.7825 22.9477
4064 1 46.6867 21.3651 24.5303
4065 1 45.1041 19.7825 26.1129
4066 1 46.6867 21.3651 27.6955
4067 1 45.1041 19.7825 29.2781
4068 1 46.6867 21.3651 30.8607
4069 1 45.1041 19.7825 32.4433
4070 1 46.6867 21.3651 34.0259
4071 1 45.1041 19.7825 35.6085
4072 1 46.6867 21.3651 37.1911
4073 1 45.1041 19.7825 38.7737
4074 1 46.6867 21.3651 40.3563
4075 1 45.1041 19.7825 41.9389
4076 1 46.6867 21.3651 43.5215
4077 1 45.1041 19.7825 45.1041
4078 1 46.6867 21.3651 46.6867
4079 1 45.1041 19.7825 48.2693
4080 1 46.6867 21.3651 49.8519
4081 1 45.1041 22.9477 0.7913
4082 1 46.6867 24.5303 2.3739
4083 1 45.1041 22.9477 3.9565
4084 1 46.6867 24.5303 5.5391
4085 1 45.1041 22.9477 7.1217
4086 1 46.6867 24.5303 8.7043
4087 1 45.1041 22.9477 10.2869
4088 1 46.6867 24.5303 11.8695
4089 1 45.1041 22.9477 13.4521
4090 1 46.6867 24.5303 15.0347
4091 1 45.1041 22.9477 16.6173
4092 1 46.6867 24.5303 18.1999
4093 1 45.1041 22.9477 19.7825
4094 1 46.6867 24.5303 21.3651
4095 1 45.1041 22.9477 22.9477
4096 1 46.6867 24.5303 24.5303
4097 1 45.1041 22.9477 26.1129
4098 1 46.6867 24.5303 27.6955
4099 1 45.1041 22.9477 29.2781
4100 1 46.6867 24.5303 30.8607
4101 1 45.1041 22.9477 32.4433
4102 1 46.6867 24.5303 34.0259
4103 1 45.1041 22.9477 35.6085
4104 1 46.6867 24.5303 37.1911
4105 1 45.1041 22.9477 38.7737
4106 1 46.6867 24.5303 40.3563
4107 1 45.1041 22.9477 41.9389
4108 1 46.6867 24.5303 43.5215
4109 1 45.1041 22.9477 45.1041
4110 1 46.6867 24.5303 46.6867
4111 1 45.1041 22.9477 48.2693
4112 1 46.6867 24.5303 49.8519
4113 1 45.1041 26.1129 0.7913
4114 1 46.6867 27.6955 2.3739
4115 1 45.1041 26.1129 3.9565
4116 1 46.6867 27.6955 5.5391
4117 1 45.1041 26.1129 7.1217
4118 1 46.6867 27.6955 8.7043
4119 1 45.1041 26.1129 10.2869
4120 1 46.6867 27.6955 11.8695
4121 1 45.1041 26.1129 13.4521
4122 1 46.6867 27.6955 15.0347
4123 1 45.1041 26.1129 16.6173
4124 1 46.6867 27.6955 18.1999
4125 1 45.1041 26.1129 19.7825
4126 1 46.6867 27.6955 21.3651
4127 1 45.1041 26.1129 22.9477
4128 1 46.6867 27.6955 24.5303
4129 1 45.1041 26.1129 26.1129
4130 1 46.6867 27.6955 27.6955
4131 1 45.1041 26.1129 29.2781
4132 1 46.6867 27.6955 30.8607
4133 1 45.1041 26.1129 32.4433
4134 1 46.6867 27.6955 34.0259
4135 1 45.1041 26.1129 35.6085
4136 1 46.6867 27.6955 37.1911
4137 1 45.1041 26.1129 38.7737
4138 1 46.6867 27.6955 40.3563
4139 1 45.1041 26.1129 41.9389
4140 1 46.6867 27.6955 43.5215
4141 1 45.1041 26.1129 45.1041
4142 1 46.6867 27.6955 46.6867
4143 1 45.1041 26.1129 48.2693
4144 1 46.6867 27.6955 49.8519
4145 1 45.1041 29.2781 0.7913
4146 1 46.6867 30.8607 2.3739
4147 1 45.1041 29.2781 3.9565
4148 1 46.6867 30.8607 5.5391
4149 1 45.1041 29.2781 7.1217
4150 1 46.6867 30.8607 8.7043
4151 1 45.1041 29.2781 10.2869
4152 1 46.6867 30.8607 11.8695
4153 1 45.1041 29.2781 13.4521
4154 1 46.6867 30.8607 15.0347
4155 1 45.1041 29.2781 16.6173
4156 1 46.6867 30.8607 18.1999
4157 1 45.1041 29.2781 19.7825
4158 1 46.6867 30.8607 21.3651
4159 1 45.1041 29.2781 22.9477
4160 1 46.6867 30.8607 24.5303
4161 1 45.1041 29.2781 26.1129
4162 1 46.6867 30.8607 27.6955
4163 1 45.1041 29.2781 29.2781
4164 1 46.6867 30.8607 30.8607
4165 1 45.1041 29.2781 32.4433
4166 1 46.6867 30.8607 34.0259
4167 1 45.1041 29.2781 35.6085
4168 1 46.6867 30.8607 37.1911
4169 1 45.1041 29.2781 38.7737
4170 1 46.6867 30.8607 40.3563
4171 1 45.1041 29.2781 41.9389
4172 1 46.6867 30.8607 43.5215
4173 1 45.1041 29.2781 45.1041
4174 1 46.6867 30.8607 46.6867
4175 1 45.1041 29.2781 48.2693
4176 1 46.6867 30.8607 49.8519
4177 1 45.1041 32.4433 0.7913
4178 1 46.6867 34.0259 2.3739
4179 1 45.1041 32.4433 3.9565
4180 1 46.6867 34.0259 5.5391
4181 1 45.1041 32.4433 7.1217
4182 1 46.6867 34.0259 8.7043
4183 1 45.1041 32.4433 10.2869
4184 1 46.6867 34.0259 11.8695
4185 1 45.1041 32.4433 13.4521
4186 1 46.6867 34.0259 15.0347
4187 1 45.1041 32.4433 16.6173
4188 1 46.6867 34.0259 18.1999
4189 1 45.1041 32.4433 19.7825
4190 1 46.6867 34.0259 21.3651
4191 1 45.1041 32.4433 22.9477
4192 1 46.6867 34.0259 24.5303
4193 1 45.1041 32.4433 26.1129
4194 1 46.6867 34.0259 27.6955
4195 1 45.1041 32.4433 29.2781
4196 1 46.6867 34.0259 30.8607
4197 1 45.1041 32.4433 32.4433
4198 1 46.6867 34.0259 34.0259
4199 1 45.1041 32.4433 35.6085
4200 1 46.6867 34.0259 37.1911
4201 1 45.1041 32.4433 38.7737
4202 1 46.6867 34.0259 40.3563
4203 1 45.1041 32.4433 41.9389
4204 1 46.6867 34.0259 43.5215
4205 1 45.1041 32.4433 45.1041
4206 1 46.6867 34.0259 46.6867
4207 1 45.1041 32.4433 48.2693
4208 1 46.6867 34.0259 49.8519
4209 1 45.1041 35.6085 0.7913
4210 1 46.6867 37.1911 2.3739
4211 1 45.1041 35.6085 3.9565
4212 1 46.6867 37.1911 5.5391
4213 1 45.1041 35.6085 7.1217
4214 1 46.6867 37.1911 8.7043
4215 1 45.1041 35.6085 10.2869
4216 1 46.6867 37.1911 11.8695
4217 1 45.1041 35.6085 13.4521
4218 1 46.6867 37.1911 15.0347
4219 1 45.1041 35.6085 16.6173
4220 1 46.6867 37.1911 18.1999
4221 1 45.1041 35.6085 19.7825
4222 1 46.6867 37.1911 21.3651
4223 1 45.1041 35.6085 22.9477
4224 1 46.6867 37.1911 24.5303
4225 1 45.1041 35.6085 26.1129
4226 1 46.6867 37.1911 27.6955
4227 1 45.1041 35.6085 29.2781
4228 1 46.6867 37.1911 30.8607
4229 1 45.1041 35.6085 32.4433
4230 1 46.6867 37.1911 34.0259
4231 1 45.1041 35.6085 35.6085
4232 1 46.6867 37.1911 37.1911
4233 1 45.1041 35.6085 38.7737
4234 1 46.6867 37.1911 40.3563
4235 1 45.1041 35.6085 41.9389
4236 1 46.6867 37.1911 43.5215
4237 1 45.1041 35.6085 45.1041
4238 1 46.6867 37.1911 46.6867
4239 1 45.1041 35.6085 48.2693
4240 1 46.6867 37.1911 49.8519
4241 1 45.1041 38.7737 0.7913
4242 1 46.6867 40.3563 2.3739
4243 1 45.1041 38.7737 3.9565
4244 1 46.6867 40.3563 5.5391
4245 1 45.1041 38.7737 7.1217
4246 1 46.6867 40.3563 8.7043
4247 1 45.1041 38.7737 10.2869
4248 1 46.6867 40.3563 11.8695
4249 1 45.1041 38.7737 13.4521
4250 1 46.6867 40.3563 15.0347
4251 1 45.1041 38.7737 16.6173
4252 1 46.6867 40.3563 18.1999
4253 1 45.1041 38.7737 19.7825
4254 1 46.6867 40.3563 21.3651
4255 1 45.1041 38.7737 22.9477
4256 1 46.6867 40.3563 24.5303
4257 1 45.1041 38.7737 26.1129
4258 1 46.6867 40.3563 27.6955
4259 1 45.1041 38.7737 29.2781
4260 1 46.6867 40.3563 30.8607
4261 1 45.1041 38.7737 32.4433
4262 1 46.6867 40.3563 34.0259
4263 1 45.1041 38.7737 35.6085
4264 1 46.6867 40.3563 37.1911
4265 1 45.1041 38.7737 38.7737
4266 1 46.6867 40.3563 40.3563
4267 1 45.1041 38.7737 41.9389
4268 1 46.6867 40.3563 43.5215
4269 1 45.1041 38.7737 45.1041
4270 1 46.6867 40.3563 46.6867
4271 1 45.1041 38.7737 48.2693
4272 1 46.6867 40.3563 49.8519
4273 1 45.1041 41.9389 0.7913
4274 1 46.6867 43.5215 2.3739
4275 1 45.1041 41.9389 3.9565
4276 1 46.6867 43.5215 5.5391
4277 1 45.1041 41.9389 7.1217
4278 1 46.6867 43.5215 8.7043
4279 1 45.1041 41.9389 10.2869
4280 1 46.6867 43.5215 11.8695
4281 1 45.1041 41.9389 13.4521
4282 1 46.6867 43.5215 15.0347
4283 1 45.1041 41.9389 16.6173
4284 1 46.6867 43.5215 18.1999
4285 1 45.1041 41.9389 19.7825
4286 1 46.6867 43.5215 21.3651
4287 1 45.1041 41.9389 22.9477
4288 1 46.6867 43.5215 24.5303
4289 1 45.1041 41.9389 26.1129
4290 1 46.6867 43.5215 27.6955
4291 1 45.1041 41.9389 29.2781
4292 1 46.6867 43.5215 30.8607
4293 1 45.1041 41.9389 32.4433
4294 1 46.6867 43.5215 34.0259
4295 1 45.1041 41.9389 35.6085
4296 1 46.6867 43.5215 37.1911
4297 1 45.1041 41.9389 38.7737
4298 1 46.6867 43.5215 40.3563
4299 1 45.1041 41.9389 41.9389
4300 1 46.6867 43.5215 43.5215
4301 1 45.1041 41.9389 45.1041
4302 1 46.6867 43.5215 46.6867
4303 1 45.1041 41.9389 48.2693
4304 1 46.6867 43.5215 49.8519
4305 1 45.1041 45.1041 0.7913
4306 1 46.6867 46.6867 2.3739
4307 1 45.1041 45.1041 3.9565
4308 1 46.6867 46.6867 5.5391
4309 1 45.1041 45.1041 7.1217
4310 1 46.6867 46.6867 8.7043
4311 1 45.1041 45.1041 10.2869
4312 1 46.6867 46.6867 11.8695
4313 1 45.1041 45.1041 13.4521
4314 1 46.6867 46.6867 15.0347
4315 1 45.1041 45.1041 16.6173
4316 1 46.6867 46.6867 18.1999
4317 1 45.1041 45.1041 19.7825
4318 1 46.6867 46.6867 21.3651
4319 1 45.1041 45.1041 22.9477
4320 1 46.6867 46.6867 24.5303
4321 1 45.1041 45.1041 26.1129
4322 1 46.6867 46.6867 27.6955
4323 1 45.1041 45.1041 29.2781
4324 1 46.6867 46.6867 30.8607
4325 1 45.1041 45.1041 32.4433
4326 1 46.6867 46.6867 34.0259
4327 1 45.1041 45.1041 35.6085
4328 1 46.6867 46.6867 37.1911
4329 1 45.1041 45.1041 38.7737
4330 1 46.6867 46.6867 40.3563
4331 1 45.1041 45.1041 41.9389
4332 1 46.6867 46.6867 43.5215
4333 1 45.1041 45.1041 45.1041
4334 1 46.6867 46.6867 46.6867
4335 1 45.1041 45.1041 48.2693
4336 1 46.6867 46.6867 49.8519
4337 1 45.1041 48.2693 0.7913
4338 1 46.6867 49.8519 2.3739
4339 1 45.1041 48.2693 3.9565
4340 1 46.6867 49.8519 5.5391
4341 1 45.1041 48.2693 7.1217
4342 1 46.6867 49.8519 8.7043
4343 1 45.1041 48.2693 10.2869
4344 1 46.6867 49.8519 11.8695
4345 1 45.1041 48.2693 13.4521
4346 1 46.6867 49.8519 15.0347
4347 1 45.1041 48.2693 16.6173
4348 1 46.6867 49.8519 18.1999
4349 1 45.1041 48.2693 19.7825
4350 1 46.6867 49.8519 21.3651
4351 1 45.1041 48.2693 22.9477
4352 1 46.6867 49.8519 24.5303
4353 1 45.1041 48.2693 26.1129
4354 1 46.6867 49.8519 27.6955
4355 1 45.1041 48.2693 29.2781
4356 1 46.6867 49.8519 30.8607
4357 1 45.1041 48.2693 32.4433
4358 1 46.6867 49.8519 34.0259
4359 1 45.1041 48.2693 35.6085
4360 1 46.6867 49.8519 37.1911
4361 1 45.1041 48.2693 38.7737
4362 1 46.6867 49.8519 40.3563
4363 1 45.1041 48.2693 41.9389
4364 1 46.6867 49.8519 43.5215
4365 1 45.1041 48.2693 45.1041
4366 1 46.6867 49.8519 46.6867
4367 1 45.1041 48.2693 48.2693
4368 1 46.6867 49.8519 49.8519
4369 1 48.2693 0.7913 0.7913
4370 1 49.8519 2.3739 2.3739
4371 1 48.2693 0.7913 3.9565
4372 1 49.8519 2.3739 5.5391
4373 1 48.2693 0.7913 7.1217
4374 1 49.8519 2.3739 8.7043
4375 1 48.2693 0.7913 10.2869
4376 1 49.8519 2.3739 11.8695
4377 1 48.2693 0.7913 13.4521
4378 1 49.8519 2.3739 15.0347
4379 1 48.2693 0.7913 16.6173
4380 1 49.8519 2.3739 18.1999
4381 1 48.2693 0.7913 19.7825
4382 1 49.8519 2.3739 21.3651
4383 1 48.2693 0.7913 22.9477
4384 1 49.8519 2.3739 24.5303
4385 1 48.2693 0.7913 26.1129
4386 1 49.8519 2.3739 27.6955
4387 1 48.2693 0.7913 29.2781
4388 1 49.8519 2.3739 30.8607
4389 1 48.2693 0.7913 32.4433
4390 1 49.8519 2.3739 34.0259
4391 1 48.2693 0.7913 35.6085
4392 1 49.8519 2.3739 37.1911
4393 1 48.2693 0.7913 38.7737
4394 1 49.8519 2.3739 40.3563
4395 1 48.2693 0.7913 41.9389
4396 1 49.8519 2.3739 43.5215
4397 1 48.2693 0.7913 45.1041
4398 1 49.8519 2.3739 46.6867
4399 1 48.2693 0.7913 48.2693
4400 1 49.8519 2.3739 49.8519
4401 1 48.2693 3.9565 0.7913
4402 1 49.8519 5.5391 2.3739
4403 1 48.2693 3.9565 3.9565
4404 1 49.8519 5.5391 5.5391
4405 1 48.2693 3.9565 7.1217
4406 1 49.8519 5.5391 8.7043
4407 1 48.2693 3.9565 10.2869
4408 1 49.8519 5.5391 11.8695
4409 1 48.2693 3.9565 13.4521
4410 1 49.8519 5.5391 15.0347
4411 1 48.2693 3.9565 16.6173
4412 1 49.8519 5.5391 18.1999
4413 1 48.2693 3.9565 19.7825
4414 1 49.8519 5.5391 21.3651
4415 1 48.2693 3.9565 22.9477
4416 1 49.8519 5.5391 24.5303
4417 1 48.2693 3.9565 26.1129
4418 1 49.8519 5.5391 27.6955
4419 1 48.2693 3.9565 29.2781
4420 1 49.8519 5.5391 30.8607
4421 1 48.2693 3.9565 32.4433
4422 1 49.8519 5.5391 34.0259
4423 1 48.2693 3.9565 35.6085
4424 1 49.8519 5.5391 37.1911
4425 1 48.2693 3.9565 38.7737
4426 1 49.8519 5.5391 40.3563
4427 1 48.2693 3.9565 41.9389
4428 1 49.8519 5.5391 43.5215
4429 1 48.2693 3.9565 45.1041
4430 1 49.8519 5.5391 46.6867
4431 1 48.2693 3.9565 48.2693
4432 1 49.8519 5.5391 49.8519
4433 1 48.2693 7.1217 0.7913
4434 1 49.8519 8.7043 2.3739
4435 1 48.2693 7.1217 3.9565
4436 1 49.8519 8.7043 5.5391
4437 1 48.2693 7.1217 7.1217
4438 1 49.8519 8.7043 8.7043
4439 1 48.2693 7.1217 10.2869
4440 1 49.8519 8.7043 11.8695
4441 1 48.2693 7.1217 13.4521
4442 1 49.8519 8.7043 15.0347
4443 1 48.2693 7.1217 16.6173
4444 1 49.8519 8.7043 18.1999
4445 1 48.2693 7.1217 19.7825
4446 1 49.8519 8.7043 21.3651
4447 1 48.2693 7.1217 22.9477
4448 1 49.8519 8.7043 24.5303
4449 1 48.2693 7.1217 26.1129
4450 1 49.8519 8.7043 27.6955
4451 1 48.2693 7.1217 29.2781
4452 1 49.8519 8.7043 30.8607
4453 1 48.2693 7.1217 32.4433
4454 1 49.8519 8.7043 34.0259
4455 1 48.2693 7.1217 35.6085
4456 1 49.8519 8.7043 37.1911
4457 1 48.2693 7.1217 38.7737
4458 1 49.8519 8.7043 40.3563
4459 1 48.2693 7.1217 41.9389
4460 1 49.8519 8.7043 43.5215
4461 1 48.2693 7.1217 45.1041
4462 1 49.8519 8.7043 46.6867
4463 1 48.2693 7.1217 48.2693
4464 1 49.8519 8.7043 49.8519
4465 1 48.2693 10.2869 0.7913
4466 1 49.8519 11.8695 2.3739
4467 1 48.2693 10.2869 3.9565
4468 1 49.8519 11.8695 5.5391
4469 1 48.2693 10.2869 7.1217
4470 1 49.8519 11.8695 8.7043
4471 1 48.2693 10.2869 10.2869
4472 1 49.8519 11.8695 11.8695
4473 1 48.2693 10.2869 13.4521
4474 1 49.8519 11.8695 15.0347
4475 1 48.2693 10.2869 16.6173
4476 1 49.8519 11.8695 18.1999
4477 1 48.2693 10.2869 19.7825
4478 1 49.8519 11.8695 21.3651
4479 1 48.2693 10.2869 22.9477
4480 1 49.8519 11.8695 24.5303
4481 1 48.2693 10.2869 26.1129
4482 1 49.8519 11.8695 27.6955
4483 1 48.2693 10.2869 29.2781
4484 1 49.8519 11.8695 30.8607
4485 1 48.2693 10.2869 32.4433
4486 1 49.8519 11.8695 34.0259
4487 1 48.2693 10.2869 35.6085
4488 1 49.8519 11.8695 37.1911
4489 1 48.2693 10.2869 38.7737
4490 1 49.8519 11.8695 40.3563
4491 1 48.2693 10.2869 41.9389
4492 1 49.8519 11.8695 43.5215
4493 1 48.2693 10.2869 45.1041
4494 1 49.8519 11.8695 46.6867
4495 1 48.2693 10.2869 48.2693
4496 1 49.8519 11.8695 49.8519
4497 1 48.2693 13.4521 0.7913
4498 1 49.8519 15.0347 2.3739
4499 1 48.2693 13.4521 3.9565
4500 1 49.8519 15.0347 5.5391
4501 1 48.2693 13.4521 7.1217
4502 1 49.8519 15.0347 8.7043
4503 1 48.2693 13.4521 10.2869
4504 1 49.8519 15.0347 11.8695
4505 1 48.2693 13.4521 13.4521
4506 1 49.8519 15.0347 15.0347
4507 1 48.2693 13.4521 16.6173
4508 1 49.8519 15.0347 18.1999
4509 1 48.2693 13.4521 19.7825
4510 1 49.8519 15.0347 21.3651
4511 1 48.2693 13.4521 22.9477
4512 1 49.8519 15.0347 24.5303
4513 1 48.2693 13.4521 26.1129
4514 1 49.8519 15.0347 27.6955
4515 1 48.2693 13.4521 29.2781
4516 1 49.8519 15.0347 30.8607
4517 1 48.2693 13.4521 32.4433
4518 1 49.8519 15.0347 34.0259
4519 1 48.2693 13.4521 35.6085
4520 1 49.8519 15.0347 37.1911
4521 1 48.2693 13.4521 38.7737
4522 1 49.8519 15.0347 40.3563
4523 1 48.2693 13.4521 41.9389
4524 1 49.8519 15.0347 43.5215
4525 1 48.2693 13.4521 45.1041
4526 1 49.8519 15.0347 46.6867
4527 1 48.2693 13.4521 48.2693
4528 1 49.8519 15.0347 49.8519
4529 1 48.2693 16.6173 0.7913
4530 1 49.8519 18.1999 2.3739
4531 1 48.2693 16.6173 3.9565
4532 1 49.8519 18.1999 5.5391
4533 1 48.2693 16.6173 7.1217
4534 1 49.8519 18.1999 8.7043
4535 1 48.2693 16.6173 10.2869
4536 1 49.8519 18.1999 11.8695
4537 1 48.2693 16.6173 13.4521
4538 1 49.8519 18.1999 15.0347
4539 1 48.2693 16.6173 16.6173
4540 1 49.8519 18.1999 18.1999
4541 1 48.2693 16.6173 19.7825
4542 1 49.8519 18.1999 21.3651
4543 1 48.2693 16.6173 22.9477
4544 1 49.8519 18.1999 24.5303
4545 1 48.2693 16.6173 26.1129
4546 1 49.8519 18.1999 27.6955
4547 1 48.2693 16.6173 29.2781
4548 1 49.8519 18.1999 30.8607
4549 1 48.2693 16.6173 32.4433
4550 1 49.8519 18.1999 34.0259
4551 1 48.2693 16.6173 35.6085
4552 1 49.8519 18.1999 37.1911
4553 1 48.2693 16.6173 38.7737
4554 1 49.8519 18.1999 40.3563
4555 1 48.2693 16.6173 41.9389
4556 1 49.8519 18.1999 43.5215
4557 1 48.2693 16.6173 45.1041
4558 1 49.8519 18.1999 46.6867
4559 1 48.2693 16.6173 48.2693
4560 1 49.8519 18.1999 49.8519
4561 1 48.2693 19.7825 0.7913
4562 1 49.8519 21.3651 2.3739
4563 1 48.2693 19.7825 3.9565
4564 1 49.8519 21.3651 5.5391
4565 1 48.2693 19.7825 7.1217
4566 1 49.8519 21.3651 8.7043
4567 1 48.2693 19.7825 10.2869
4568 1 49.8519 21.3651 11.8695
4569 1 48.2693 19.7825 13.4521
4570 1 49.8519 21.3651 15.0347
4571 1 48.2693 19.7825 16.6173
4572 1 49.8519 21.3651 18.1999
4573 1 48.2693 19.7825 19.7825
4574 1 49.8519 21.3651 21.3651
4575 1 48.2693 19.7825 22.9477
4576 1 49.8519 21.3651 24.5303
4577 1 48.2693 19.7825 26.1129
4578 1 49.8519 21.3651 27.6955
4579 1 48.2693 19.7825 29.2781
4580 1 49.8519 21.3651 30.8607
4581 1 48.2693 19.7825 32.4433
4582 1 49.8519 21.3651 34.0259
4583 1 48.2693 19.7825 35.6085
4584 1 49.8519 21.3651 37.1911
4585 1 48.2693 19.7825 38.7737
4586 1 49.8519 21.3651 40.3563
4587 1 48.2693 19.7825 41.9389
4588 1 49.8519 21.3651 43.5215
4589 1 48.2693 19.7825 45.1041
4590 1 49.8519 21.3651 46.6867
4591 1 48.2693 19.7825 48.2693
4592 1 49.8519 21.3651 49.8519
4593 1 48.2693 22.9477 0.7913
4594 1 49.8519 24.5303 2.3739
4595 1 48.2693 22.9477 3.9565
4596 1 49.8519 24.5303 5.5391
4597 1 48.2693 22.9477 7.1217
4598 1 49.8519 24.5303 8.7043
4599 1 48.2693 22.9477 10.2869
4600 1 49.8519 24.5303 11.8695
4601 1 48.2693 22.9477 13.4521
4602 1 49.8519 24.5303 15.0347
4603 1 48.2693 22.9477 16.6173
4604 1 49.8519 24.5303 18.1999
4605 1 48.2693 22.9477 19.7825
4606 1 49.8519 24.5303 21.3651
4607 1 48.2693 22.9477 22.9477
4608 1 49.8519 24.5303 24.5303
4609 1 48.2693 22.9477 26.1129
4610 1 49.8519 24.5303 27.6955
4611 1 48.2693 22.9477 29.2781
4612 1 49.8519 24.5303 30.8607
4613 1 48.2693 22.9477 32.4433
4614 1 49.8519 24.5303 34.0259
4615 1 48.2693 22.9477 35.6085
4616 1 49.8519 24.5303 37.1911
4617 1 48.2693 22.9477 38.7737
4618 1 49.8519 24.5303 40.3563
4619 1 48.2693 22.9477 41.9389
4620 1 49.8519 24.5303 43.5215
4621 1 48.2693 22.9477 45.1041
4622 1 49.8519 24.5303 46.6867
4623 1 48.2693 22.9477 48.2693
4624 1 49.8519 24.5303 49.8519
4625 1 48.2693 26.1129 0.7913
4626 1 49.8519 27.6955 2.3739
4627 1 48.2693 26.1129 3.9565
4628 1 49.8519 27.6955 5.5391
4629 1 48.2693 26.1129 7.1217
4630 1 49.8519 27.6955 8.7043
4631 1 48.2693 26.1129 10.2869
4632 1 49.8519 27.6955 11.8695
4633 1 48.2693 26.1129 13.4521
4634 1 49.8519 27.6955 15.0347
4635 1 48.2693 26.1129 16.6173
4636 1 49.8519 27.6955 18.1999
4637 1 48.2693 26.1129 19.7825
4638 1 49.8519 27.6955 21.3651
4639 1 48.2693 26.1129 22.9477
4640 1 49.8519 27.6955 24.5303
4641 1 48.2693 26.1129 26.1129
4642 1 49.8519 27.6955 27.6955
4643 1 48.2693 26.1129 29.2781
4644 1 49.8519 27.6955 30.8607
4645 1 48.2693 26.1129 32.4433
4646 1 49.8519 27.6955 34.0259
4647 1 48.2693 26.1129 35.6085
4648 1 49.8519 27.6955 37.1911
4649 1 48.2693 26.1129 38.7737
4650 1 49.8519 27.6955 40.3563
4651 1 48.2693 26.1129 41.9389
4652 1 49.8519 27.6955 43.5215
4653 1 48.2693 26.1129 45.1041
4654 1 49.8519 27.6955 46.6867
4655 1 48.2693 26.1129 48.2693
4656 1 49.8519 27.6955 49.8519
4657 1 48.2693 29.2781 0.7913
4658 1 49.8519 30.8607 2.3739
4659 1 48.2693 29.2781 3.9565
4660 1 49.8519 30.8607 5.5391
4661 1 48.2693 29.2781 7.1217
4662 1 49.8519 30.8607 8.7043
4663 1 48.2693 29.2781 10.2869
4664 1 49.8519 30.8607 11.8695
4665 1 48.2693 29.2781 13.4521
4666 1 49.8519 30.8607 15.0347
4667 1 48.2693 29.2781 16.6173
4668 1 49.8519 30.8607 18.1999
4669 1 48.2693 29.2781 19.7825
4670 1 49.8519 30.8607 21.3651
4671 1 48.2693 29.2781 22.9477
4672 1 49.8519 30.8607 24.5303
4673 1 48.2693 29.2781 26.1129
4674 1 49.8519 30.8607 27.6955
4675 1 48.2693 29.2781 29.2781
4676 1 49.8519 30.8607 30.8607
4677 1 48.2693 29.2781 32.4433
4678 1 49.8519 30.8607 34.0259
4679 1 48.2693 29.2781 35.6085
4680 1 49.8519 30.8607 37.1911
4681 1 48.2693 29.2781 38.7737
4682 1 49.8519 30.8607 40.3563
4683 1 48.2693 29.2781 41.9389
4684 1 49.8519 30.8607 43.5215
4685 1 48.2693 29.2781 45.1041
4686 1 49.8519 30.8607 46.6867
4687 1 48.2693 29.2781 48.2693
4688 1 49.8519 30.8607 49.8519
4689 1 48.2693 32.4433 0.7913
4690 1 49.8519 34.0259 2.3739
4691 1 48.2693 32.4433 3.9565
4692 1 49.8519 34.0259 5.5391
4693 1 48.2693 32.4433 7.1217
4694 1 49.8519 34.0259 8.7043
4695 1 48.2693 32.4433 10.2869
4696 1 49.8519 34.0259 11.8695
4697 1 48.2693 32.4433 13.4521
4698 1 49.8519 34.0259 15.0347
4699 1 48.2693 32.4433 16.6173
4700 1 49.8519 34.0259 18.1999
4701 1 48.2693 32.4433 19.7825
4702 1 49.8519 34.0259 21.3651
4703 1 48.2693 32.4433 22.9477
4704 1 49.8519 34.0259 24.5303
4705 1 48.2693 32.4433 26.1129
4706 1 49.8519 34.0259 27.6955
4707 1 48.2693 32.4433 29.2781
4708 1 49.8519 34.0259 30.8607
4709 1 48.2693 32.4433 32.4433
4710 1 49.8519 34.0259 34.0259
4711 1 48.2693 32.4433 35.6085
4712 1 49.8519 34.0259 37.1911
4713 1 48.2693 32.4433 38.7737
4714 1 49.8519 34.0259 40.3563
4715 1 48.2693 32.4433 41.9389
4716 1 49.8519 34.0259 43.5215
4717 1 48.2693 32.4433 45.1041
4718 1 49.8519 34.0259 46.6867
4719 1 48.2693 32.4433 48.2693
4720 1 49.8519 34.0259 49.8519
4721 1 48.2693 35.6085 0.7913
4722 1 49.8519 37.1911 2.3739
4723 1 48.2693 35.6085 3.9565
4724 1 49.8519 37.1911 5.5391
4725 1 48.2693 35.6085 7.1217
4726 1 49.8519 37.1911 8.7043
4727 1 48.2693 35.6085 10.2869
4728 1 49.8519 37.1911 11.8695
4729 1 48.2693 35.6085 13.4521
4730 1 49.8519 37.1911 15.0347
4731 1 48.2693 35.6085 16.6173
4732 1 49.8519 37.1911 18.1999
4733 1 48.2693 35.6085 19.7825
4734 1 49.8519 37.1911 21.3651
4735 1 48.2693 35.6085 22.9477
4736 1 49.8519 37.1911 24.5303
4737 1 48.2693 35.6085 26.1129
4738 1 49.8519 37.1911 27.6955
4739 1 48.2693 35.6085 29.2781
4740 1 49.8519 37.1911 30.8607
4741 1 48.2693 35.6085 32.4433
4742 1 49.8519 37.1911 34.0259
4743 1 48.2693 35.6085 35.6085
4744 1 49.8519 37.1911 37.1911
4745 1 48.2693 35.6085 38.7737
4746 1 49.8519 37.1911 40.3563
4747 1 48.2693 35.6085 41.9389
4748 1 49.8519 37.1911 43.5215
4749 1 48.2693 35.6085 45.1041
4750 1 49.8519 37.1911 46.6867
4751 1 48.2693 35.6085 48.2693
4752 1 49.8519 37.1911 49.8519
4753 1 48.2693 38.7737 0.7913
4754 1 49.8519 40.3563 2.3739
4755 1 48.2693 38.7737 3.9565
4756 1 49.8519 40.3563 5.5391
4757 1 48.2693 38.7737 7.1217
4758 1 49.8519 40.3563 8.7043
4759 1 48.2693 38.7737 10.2869
4760 1 49.8519 40.3563 11.8695
4761 1 48.2693 38.7737 13.4521
4762 1 49.8519 40.3563 15.0347
4763 1 48.2693 38.7737 16.6173
4764 1 49.8519 40.3563 18.1999
4765 1 48.2693 38.7737 19.7825
4766 1 49.8519 40.3563 21.3651
4767 1 48.2693 38.7737 22.9477
4768 1 49.8519 40.3563 24.5303
4769 1 48.2693 38.7737 26.1129
4770 1 49.8519 40.3563 27.6955
4771 1 48.2693 38.7737 29.2781
4772 1 49.8519 40.3563 30.8607
4773 1 48.2693 38.7737 32.4433
4774 1 49.8519 40.3563 34.0259
4775 1 48.2693 38.7737 35.6085
4776 1 49.8519 40.3563 37.1911
4777 1 48.2693 38.7737 38.7737
4778 1 49.8519 40.3563 40.3563
4779 1 48.2693 38.7737 41.9389
4780 1 49.8519 40.3563 43.5215
4781 1 48.2693 38.7737 45.1041
4782 1 49.8519 40.3563 46.6867
4783 1 48.2693 38.7737 48.2693
4784 1 49.8519 40.3563 49.8519
4785 1 48.2693 41.9389 0.7913
4786 1 49.8519 43.5215 2.3739
4787 1 48.2693 41.9389 3.9565
4788 1 49.8519 43.5215 5.5391
4789 1 48.2693 41.9389 7.1217
4790 1 49.8519 43.5215 8.7043
4791 1 48.2693 41.9389 10.2869
4792 1 49.8519 43.5215 11.8695
4793 1 48.2693 41.9389 13.4521
4794 1 49.8519 43.5215 15.0347
4795 1 48.2693 41.9389 16.6173
4796 1 49.8519 43.5215 18.1999
4797 1 48.2693 41.9389 19.7825
4798 1 49.8519 43.5215 21.3651
4799 1 48.2693 41.9389 22.9477
4800 1 49.8519 43.5215 24.5303
4801 1 48.2693 41.9389 26.1129
4802 1 49.8519 43.5215 27.6955
4803 1 48.2693 41.9389 29.2781
4804 1 49.8519 43.5215 30.8607
4805 1 48.2693 41.9389 32.4433
4806 1 49.8519 43.5215 34.0259
4807 1 48.2693 41.9389 35.6085
4808 1 49.8519 43.5215 37.1911
4809 1 48.2693 41.9389 38.7737
4810 1 49.8519 43.5215 40.3563
4811 1 48.2693 41.9389 41.9389
4812 1 49.8519 43.5215 43.5215
4813 1 48.2693 41.9389 45.1041
4814 1 49.8519 43.5215 46.6867
4815 1 48.2693 41.9389 48.2693
4816 1 49.8519 43.5215 49.8519
4817 1 48.2693 45.1041 0.7913
4818 1 49.8519 46.6867 2.3739
4819 1 48.2693 45.1041 3.9565
4820 1 49.8519 46.6867 5.5391
4821 1 48.2693 45.1041 7.1217
4822 1 49.8519 46.6867 8.7043
4823 1 48.2693 45.1041 10.2869
4824 1 49.8519 46.6867 11.8695
4825 1 48.2693 45.1041 13.4521
4826 1 49.8519 46.6867 15.0347
4827 1 48.2693 45.1041 16.6173
4828 1 49.8519 46.6867 18.1999
4829 1 48.2693 45.1041 19.7825
4830 1 49.8519 46.6867 21.3651
4831 1 48.2693 45.1041 22.9477
4832 1 49.8519 46.6867 24.5303
4833 1 48.2693 45.1041 26.1129
4834 1 49.8519 46.6867 27.6955
4835 1 48.2693 45.1041 29.2781
4836 1 49.8519 46.6867 30.8607
4837 1 48.2693 45.1041 32.4433
4838 1 49.8519 46.6867 34.0259
4839 1 48.2693 45.1041 35.6085
4840 1 49.8519 46.6867 37.1911
4841 1 48.2693 45.1041 38.7737
4842 1 49.8519 46.6867 40.3563
4843 1 48.2693 45.1041 41.9389
4844 1 49.8519 46.6867 43.5215
4845 1 48.2693 45.1041 45.1041
4846 1 49.8519 46.6867 46.6867
4847 1 48.2693 45.1041 48.2693
4848 1 49.8519 46.6867 49.8519
4849 1 48.2693 48.2693 0.7913
4850 1 49.8519 49.8519 2.3739
4851 1 48.2693 48.2693 3.9565
4852 1 49.8519 49.8519 5.5391
4853 1 48.2693 48.2693 7.1217
4854 1 49.8519 49.8519 8.7043
4855 1 48.2693 48.2693 10.2869
4856 1 49.8519 49.8519 11.8695
4857 1 48.2693 48.2693 13.4521
4858 1 49.8519 49.8519 15.0347
4859 1 48.2693 48.2693 16.6173
4860 1 49.8519 49.8519 18.1999
4861 1 48.2693 48.2693 19.7825
4862 1 49.8519 49.8519 21.3651
4863 1 48.2693 48.2693 22.9477
4864 1 49.8519 49.8519 24.5303
4865 1 48.2693 48.2693 26.1129
4866 1 49.8519 49.8519 27.6955
4867 1 48.2693 48.2693 29.2781
4868 1 49.8519 49.8519 30.8607
4869 1 48.2693 48.2693 32.4433
4870 1 49.8519 49.8519 34.0259
4871 1 48.2693 48.2693 35.6085
4872 1 49.8519 49.8519 37.1911
4873 1 48.2693 48.2693 38.7737
4874 1 49.8519 49.8519 40.3563
4875 1 48.2693 48.2693 41.9389
4876 1 49.8519 49.8519 43.5215
4877 1 48.2693 48.2693 45.1041
4878 1 49.8519 49.8519 46.6867
4879 1 48.2693 48.2693 48.2693
4880 1 49.8519 49.8519 49.8519
4881 1 10.2869 0.7913 0.7913
4882 1 11.8695 2.3739 2.3739
4883 1 10.2869 0.7913 3.9565
4884 1 11.8695 2.3739 5.5391
4885 1 10.2869 0.7913 7.1217
4886 1 11.8695 2.3739 8.7043
4887 1 10.2869 3.9565 0.7913
4888 1 11.8695 5.5391 2.3739
4889 1 10.2869 3.9565 3.9565
4890 1 11.8695 5.5391 5.5391
4891 1 10.2869 3.9565 7.1217
4892 1 11.8695 5.5391 8.7043
4893 1 10.2869 7.1217 0.7913
4894 1 11.8695 8.7043 2.3739
4895 1 10.2869 7.1217 3.9565
4896 1 11.8695 8.7043 5.5391
4897 1 10.2869 7.1217 7.1217
4898 1 11.8695 8.7043 8.7043
4899 1 10.2869 10.2869 0.7913
4900 1 11.8695 11.8695 2.3739
4901 1 10.2869 10.2869 3.9565
4902 1 11.8695 11.8695 5.5391
4903 1 10.2869 10.2869 7.1217
4904 1 11.8695 11.8695 8.7043
4905 1 10.2869 13.4521 0.7913
4906 1 11.8695 15.0347 2.3739
4907 1 10.2869 13.4521 3.9565
4908 1 11.8695 15.0347 5.5391
4909 1 10.2869 13.4521 7.1217
4910 1 11.8695 15.0347 8.7043
4911 1 10.2869 16.6173 0.7913
4912 1 11.8695 18.1999 2.3739
4913 1 10.2869 16.6173 3.9565
4914 1 11.8695 18.1999 5.5391
4915 1 10.2869 16.6173 7.1217
4916 1 11.8695 18.1999 8.7043
4917 1 10.2869 19.7825 0.7913
4918 1 11.8695 21.3651 2.3739
4919 1 10.2869 19.7825 3.9565
4920 1 11.8695 21.3651 5.5391
4921 1 10.2869 19.7825 7.1217
4922 1 11.8695 21.3651 8.7043
4923 1 10.2869 22.9477 0.7913
4924 1 11.8695 24.5303 2.3739
4925 1 10.2869 22.9477 3.9565
4926 1 11.8695 24.5303 5.5391
4927 1 10.2869 22.9477 7.1217
4928 1 11.8695 24.5303 8.7043
4929 1 10.2869 26.1129 0.7913
4930 1 11.8695 27.6955 2.3739
4931 1 10.2869 26.1129 3.9565
4932 1 11.8695 27.6955 5.5391
4933 1 10.2869 26.1129 7.1217
4934 1 11.8695 27.6955 8.7043
4935 1 10.2869 29.2781 0.7913
4936 1 11.8695 30.8607 2.3739
4937 1 10.2869 29.2781 3.9565
4938 1 11.8695 30.8607 5.5391
4939 1 10.2869 29.2781 7.1217
4940 1 11.8695 30.8607 8.7043
4941 1 10.2869 32.4433 0.7913
4942 1 11.8695 34.0259 2.3739
4943 1 10.2869 32.4433 3.9565
4944 1 11.8695 34.0259 5.5391
4945 1 10.2869 32.4433 7.1217
4946 1 11.8695 34.0259 8.7043
4947 1 10.2869 35.6085 0.7913
4948 1 11.8695 37.1911 2.3739
4949 1 10.2869 35.6085 3.9565
4950 1 11.8695 37.1911 5.5391
4951 1 10.2869 35.6085 7.1217
4952 1 11.8695 37.1911 8.7043
4953 1 10.2869 38.7737 0.7913
4954 1 11.8695 40.3563 2.3739
4955 1 10.2869 38.7737 3.9565
4956 1 11.8695 40.3563 5.5391
4957 1 10.2869 38.7737 7.1217
4958 1 11.8695 40.3563 8.7043
4959 1 10.2869 41.9389 0.7913
4960 1 11.8695 43.5215 2.3739
4961 1 10.2869 41.9389 3.9565
4962 1 11.8695 43.5215 5.5391
4963 1 10.2869 41.9389 7.1217
4964 1 11.8695 43.5215 8.7043
4965 1 10.2869 45.1041 0.7913
4966 1 11.8695 46.6867 2.3739
4967 1 10.2869 45.1041 3.9565
4968 1 11.8695 46.6867 5.5391
4969 1 10.2869 45.1041 7.1217
4970 1 11.8695 46.6867 8.7043
4971 1 10.2869 48.2693 0.7913
4972 1 11.8695 49.8519 2.3739
4973 1 10.2869 48.2693 3.9565
4974 1 11.8695 49.8519 5.5391
4975 1 10.2869 48.2693 7.1217
4976 1 11.8695 49.8519 8.7043
4977 1 13.4521 0.7913 0.7913
4978 1 15.0347 2.3739 2.3739
4979 1 13.4521 0.7913 3.9565
4980 1 15.0347 2.3739 5.5391
4981 1 13.4521 0.7913 7.1217
4982 1 15.0347 2.3739 8.7043
4983 1 13.4521 3.9565 0.7913
4984 1 15.0347 5.5391 2.3739
4985 1 13.4521 3.9565 3.9565
4986 1 15.0347 5.5391 5.5391
4987 1 13.4521 3.9565 7.1217
4988 1 15.0347 5.5391 8.7043
4989 1 13.4521 7.1217 0.7913
4990 1 15.0347 8.7043 2.3739
4991 1 13.4521 7.1217 3.9565
4992 1 15.0347 8.7043 5.5391
4993 1 13.4521 7.1217 7.1217
4994 1 15.0347 8.7043 8.7043
4995 1 13.4521 10.2869 0.7913
4996 1 15.0347 11.8695 2.3739
4997 1 13.4521 10.2869 3.9565
4998 1 15.0347 11.8695 5.5391
4999 1 13.4521 10.2869 7.1217
5000 1 15.0347 11.8695 8.7043
5001 1 13.4521 13.4521 0.7913
5002 1 15.0347 15.0347 2.3739
5003 1 13.4521 13.4521 3.9565
5004 1 15.0347 15.0347 5.5391
5005 1 13.4521 13.4521 7.1217
5006 1 15.0347 15.0347 8.7043
5007 1 13.4521 16.6173 0.7913
5008 1 15.0347 18.1999 2.3739
5009 1 13.4521 16.6173 3.9565
5010 1 15.0347 18.1999 5.5391
5011 1 13.4521 16.6173 7.1217
5012 1 15.0347 18.1999 8.7043
5013 1 13.4521 19.7825 0.7913
5014 1 15.0347 21.3651 2.3739
5015 1 13.4521 19.7825 3.9565
5016 1 15.0347 21.3651 5.5391
5017 1 13.4521 19.7825 7.1217
5018 1 15.0347 21.3651 8.7043
5019 1 13.4521 22.9477 0.7913
5020 1 15.0347 24.5303 2.3739
5021 1 13.4521 22.9477 3.9565
5022 1 15.0347 24.5303 5.5391
5023 1 13.4521 22.9477 7.1217
5024 1 15.0347 24.5303 8.7043
5025 1 13.4521 26.1129 0.7913
5026 1 15.0347 27.6955 2.3739
5027 1 13.4521 26.1129 3.9565
5028 1 15.0347 27.6955 5.5391
5029 1 13.4521 26.1129 7.1217
5030 1 15.0347 27.6955 8.7043
5031 1 13.4521 29.2781 0.7913
5032 1 15.0347 30.8607 2.3739
5033 1 13.4521 29.2781 3.9565
5034 1 15.0347 30.8607 5.5391
5035 1 13.4521 29.2781 7.1217
5036 1 15.0347 30.8607 8.7043
5037 1 13.4521 32.4433 0.7913
5038 1 15.0347 34.0259 2.3739
5039 1 13.4521 32.4433 3.9565
5040 1 15.0347 34.0259 5.5391
5041 1 13.4521 32.4433 7.1217
5042 1 15.0347 34.0259 8.7043
5043 1 13.4521 35.6085 0.7913
5044 1 15.0347 37.1911 2.3739
5045 1 13.4521 35.6085 3.9565
5046 1 15.0347 37.1911 5.5391
5047 1 13.4521 35.6085 7.1217
5048 1 15.0347 37.1911 8.7043
5049 1 13.4521 38.7737 0.7913
5050 1 15.0347 40.3563 2.3739
5051 1 13.4521 38.7737 3.9565
5052 1 15.0347 40.3563 5.5391
5053 1 13.4521 38.7737 7.1217
5054 1 15.0347 40.3563 8.7043
5055 1 13.4521 41.9389 0.7913
5056 1 15.0347 43.5215 2.3739
5057 1 13.4521 41.9389 3.9565
5058 1 15.0347 43.5215 5.5391
5059 1 13.4521 41.9389 7.1217
5060 1 15.0347 43.5215 8.7043
5061 1 13.4521 45.1041 0.7913
5062 1 15.0347 46.6867 2.3739
5063 1 13.4521 45.1041 3.9565
5064 1 15.0347 46.6867 5.5391
5065 1 13.4521 45.1041 7.1217
5066 1 15.0347 46.6867 8.7043
5067 1 13.4521 48.2693 0.7913
5068 1 15.0347 49.8519 2.3739
5069 1 13.4521 48.2693 3.9565
5070 1 15.0347 49.8519 5.5391
5071 1 13.4521 48.2693 7.1217
5072 1 15.0347 49.8519 8.7043
5073 1 16.6173 0.7913 0.7913
5074 1 18.1999 2.3739 2.3739
5075 1 16.6173 0.7913 3.9565
5076 1 18.1999 2.3739 5.5391
5077 1 16.6173 0.7913 7.1217
5078 1 18.1999 2.3739 8.7043
5079 1 16.6173 3.9565 0.7913
5080 1 18.1999 5.5391 2.3739
5081 1 16.6173 3.9565 3.9565
5082 1 18.1999 5.5391 5.5391
5083 1 16.6173 3.9565 7.1217
5084 1 18.1999 5.5391 8.7043
5085 1 16.6173 7.1217 0.7913
5086 1 18.1999 8.7043 2.3739
5087 1 16.6173 7.1217 3.9565
5088 1 18.1999 8.7043 5.5391
5089 1 16.6173 7.1217 7.1217
5090 1 18.1999 8.7043 8.7043
5091 1 16.6173 10.2869 0.7913
5092 1 18.1999 11.8695 2.3739
5093 1 16.6173 10.2869 3.9565
5094 1 18.1999 11.8695 5.5391
5095 1 16.6173 10.2869 7.1217
5096 1 18.1999 11.8695 8.7043
5097 1 16.6173 13.4521 0.7913
5098 1 18.1999 15.0347 2.3739
5099 1 16.6173 13.4521 3.9565
5100 1 18.1999 15.0347 5.5391
5101 1 16.6173 13.4521 7.1217
5102 1 18.1999 15.0347 8.7043
5103 1 16.6173 16.6173 0.7913
5104 1 18.1999 18.1999 2.3739
5105 1 16.6173 16.6173 3.9565
5106 1 18.1999 18.1999 5.5391
5107 1 16.6173 16.6173 7.1217
5108 1 18.1999 18.1999 8.7043
5109 1 16.6173 19.7825 0.7913
5110 1 18.1999 21.3651 2.3739
5111 1 16.6173 19.7825 3.9565
5112 1 18.1999 21.3651 5.5391
5113 1 16.6173 19.7825 7.1217
5114 1 18.1999 21.3651 8.7043
5115 1 16.6173 22.9477 0.7913
5116 1 18.1999 24.5303 2.3739
5117 1 16.6173 22.9477 3.9565
5118 1 18.1999 24.5303 5.5391
5119 1 16.6173 22.9477 7.1217
5120 1 18.1999 24.5303 8.7043
5121 1 16.6173 26.1129 0.7913
5122 1 18.1999 27.6955 2.3739
5123 1 16.6173 26.1129 3.9565
5124 1 18.1999 27.6955 5.5391
5125 1 16.6173 26.1129 7.1217
5126 1 18.1999 27.6955 8.7043
5127 1 16.6173 29.2781 0.7913
5128 1 18.1999 30.8607 2.3739
5129 1 16.6173 29.2781 3.9565
5130 1 18.1999 30.8607 5.5391
5131 1 16.6173 29.2781 7.1217
5132 1 18.1999 30.8607 8.7043
5133 1 16.6173 32.4433 0.7913
5134 1 18.1999 34.0259 2.3739
5135 1 16.6173 32.4433 3.9565
5136 1 18.1999 34.0259 5.5391
5137 1 16.6173 32.4433 7.1217
5138 1 18.1999 34.0259 8.7043
5139 1 16.6173 35.6085 0.7913
5140 1 18.1999 37.1911 2.3739
5141 1 16.6173 35.6085 3.9565
5142 1 18.1999 37.1911 5.5391
5143 1 16.6173 35.6085 7.1217
5144 1 18.1999 37.1911 8.7043
5145 1 16.6173 38.7737 0.7913
5146 1 18.1999 40.3563 2.3739
5147 1 16.6173 38.7737 3.9565
5148 1 18.1999 40.3563 5.5391
5149 1 16.6173 38.7737 7.1217
5150 1 18.1999 40.3563 8.7043
5151 1 16.6173 41.9389 0.7913
5152 1 18.1999 43.5215 2.3739
5153 1 16.6173 41.9389 3.9565
5154 1 18.1999 43.5215 5.5391
5155 1 16.6173 41.9389 7.1217
5156 1 18.1999 43.5215 8.7043
5157 1 16.6173 45.1041 0.7913
5158 1 18.1999 46.6867 2.3739
5159 1 16.6173 45.1041 3.9565
5160 1 18.1999 46.6867 5.5391
5161 1 16.6173 45.1041 7.1217
5162 1 18.1999 46.6867 8.7043
5163 1 16.6173 48.2693 0.7913
5164 1 18.1999 49.8519 2.3739
5165 1 16.6173 48.2693 3.9565
5166 1 18.1999 49.8519 5.5391
5167 1 16.6173 48.2693 7.1217
5168 1 18.1999 49.8519 8.7043
5169 1 19.7825 0.7913 0.7913
5170 1 21.3651 2.3739 2.3739
5171 1 19.7825 0.7913 3.9565
5172 1 21.3651 2.3739 5.5391
5173 1 19.7825 0.7913 7.1217
5174 1 21.3651 2.3739 8.7043
5175 1 19.7825 3.9565 0.7913
5176 1 21.3651 5.5391 2.3739
5177 1 19.7825 3.9565 3.9565
5178 1 21.3651 5.5391 5.5391
5179 1 19.7825 3.9565 7.1217
5180 1 21.3651 5.5391 8.7043
5181 1 19.7825 7.1217 0.7913
5182 1 21.3651 8.7043 2.3739
5183 1 19.7825 7.1217 3.9565
5184 1 21.3651 8.7043 5.5391
5185 1 19.7825 7.1217 7.1217
5186 1 21.3651 8.7043 8.7043
5187 1 19.7825 10.2869 0.7913
5188 1 21.3651 11.8695 2.3739
5189 1 19.7825 10.2869 3.9565
5190 1 21.3651 11.8695 5.5391
5191 1 19.7825 10.2869 7.1217
5192 1 21.3651 11.8695 8.7043
5193 1 19.7825 13.4521 0.7913
5194 1 21.3651 15.0347 2.3739
5195 1 19.7825 13.4521 3.9565
5196 1 21.3651 15.0347 5.5391
5197 1 19.7825 13.4521 7.1217
5198 1 21.3651 15.0347 8.7043
5199 1 19.7825 16.6173 0.7913
5200 1 21.3651 18.1999 2.3739
5201 1 19.7825 16.6173 3.9565
5202 1 21.3651 18.1999 5.5391
5203 1 19.7825 16.6173 7.1217
5204 1 21.3651 18.1999 8.7043
5205 1 19.7825 19.7825 0.7913
5206 1 21.3651 21.3651 2.3739
5207 1 19.7825 19.7825 3.9565
5208 1 21.3651 21.3651 5.5391
5209 1 19.7825 19.7825 7.1217
5210 1 21.3651 21.3651 8.7043
5211 1 19.7825 22.9477 0.7913
5212 1 21.3651 24.5303 2.3739
5213 1 19.7825 22.9477 3.9565
5214 1 21.3651 24.5303 5.5391
5215 1 19.7825 22.9477 7.1217
5216 1 21.3651 24.5303 8.7043
5217 1 19.7825 26.1129 0.7913
5218 1 21.3651 27.6955 2.3739
5219 1 19.7825 26.1129 3.9565
5220 1 21.3651 27.6955 5.5391
5221 1 19.7825 26.1129 7.1217
5222 1 21.3651 27.6955 8.7043
5223 1 19.7825 29.2781 0.7913
5224 1 21.3651 30.8607 2.3739
5225 1 19.7825 29.2781 3.9565
5226 1 21.3651 30.8607 5.5391
5227 1 19.7825 29.2781 7.1217
5228 1 21.3651 30.8607 8.7043
5229 1 19.7825 32.4433 0.7913
5230 1 21.3651 34.0259 2.3739
5231 1 19.7825 32.4433 3.9565
5232 1 21.3651 34.0259 5.5391
5233 1 19.7825 32.4433 7.1217
5234 1 21.3651 34.0259 8.7043
5235 1 19.7825 35.6085 0.7913
5236 1 21.3651 37.1911 2.3739
5237 1 19.7825 35.6085 3.9565
5238 1 21.3651 37.1911 5.5391
5239 1 19.7825 35.6085 7.1217
5240 1 21.3651 37.1911 8.7043
5241 1 19.7825 38.7737 0.7913
5242 1 21.3651 40.3563 2.3739
5243 1 19.7825 38.7737 3.9565
5244 1 21.3651 40.3563 5.5391
5245 1 19.7825 38.7737 7.1217
5246 1 21.3651 40.3563 8.7043
5247 1 19.7825 41.9389 0.7913
5248 1 21.3651 43.5215 2.3739
5249 1 19.7825 41.9389 3.9565
5250 1 21.3651 43.5215 5.5391
5251 1 19.7825 41.9389 7.1217
5252 1 21.3651 43.5215 8.7043
5253 1 19.7825 45.1041 0.7913
5254 1 21.3651 46.6867 2.3739
5255 1 19.7825 45.1041 3.9565
5256 1 21.3651 46.6867 5.5391
5257 1 19.7825 45.1041 7.1217
5258 1 21.3651 46.6867 8.7043
5259 1 19.7825 48.2693 0.7913
5260 1 21.3651 49.8519 2.3739
5261 1 19.7825 48.2693 3.9565
5262 1 21.3651 49.8519 5.5391
5263 1 19.7825 48.2693 7.1217
5264 1 21.3651 49.8519 8.7043
5265 1 22.9477 0.7913 0.7913
5266 1 24.5303 2.3739 2.3739
5267 1 22.9477 0.7913 3.9565
5268 1 24.5303 2.3739 5.5391
5269 1 22.9477 0.7913 7.1217
5270 1 24.5303 2.3739 8.7043
5271 1 22.9477 3.9565 0.7913
5272 1 24.5303 5.5391 2.3739
5273 1 22.9477 3.9565 3.9565
5274 1 24.5303 5.5391 5.5391
5275 1 22.9477 3.9565 7.1217
5276 1 24.5303 5.5391 8.7043
5277 1 22.9477 7.1217 0.7913
5278 1 24.5303 8.7043 2.3739
5279 1 22.9477 7.1217 3.9565
5280 1 24.5303 8.7043 5.5391
5281 1 22.9477 7.1217 7.1217
5282 1 24.5303 8.7043 8.7043
5283 1 22.9477 10.2869 0.7913
5284 1 24.5303 11.8695 2.3739
5285 1 22.9477 10.2869 3.9565
5286 1 24.5303 11.8695 5.5391
5287 1 22.9477 10.2869 7.1217
5288 1 24.5303 11.8695 8.7043
5289 1 22.9477 13.4521 0.7913
5290 1 24.5303 15.0347 2.3739
5291 1 22.9477 13.4521 3.9565
5292 1 24.5303 15.0347 5.5391
5293 1 22.9477 13.4521 7.1217
5294 1 24.5303 15.0347 8.7043
5295 1 22.9477 16.6173 0.7913
5296 1 24.5303 18.1999 2.3739
5297 1 22.9477 16.6173 3.9565
5298 1 24.5303 18.1999 5.5391
5299 1 22.9477 16.6173 7.1217
5300 1 24.5303 18.1999 8.7043
5301 1 22.9477 19.7825 0.7913
5302 1 24.5303 21.3651 2.3739
5303 1 22.9477 19.7825 3.9565
5304 1 24.5303 21.3651 5.5391
5305 1 22.9477 19.7825 7.1217
5306 1 24.5303 21.3651 8.7043
5307 1 22.9477 22.9477 0.7913
5308 1 24.5303 24.5303 2.3739
5309 1 22.9477 22.9477 3.9565
5310 1 24.5303 24.5303 5.5391
5311 1 22.9477 22.9477 7.1217
5312 1 24.5303 24.5303 8.7043
5313 1 22.9477 26.1129 0.7913
5314 1 24.5303 27.6955 2.3739
5315 1 22.9477 26.1129 3.9565
5316 1 24.5303 27.6955 5.5391
5317 1 22.9477 26.1129 7.1217
5318 1 24.5303 27.6955 8.7043
5319 1 22.9477 29.2781 0.7913
5320 1 24.5303 30.8607 2.3739
5321 1 22.9477 29.2781 3.9565
5322 1 24.5303 30.8607 5.5391
5323 1 22.9477 29.2781 7.1217
5324 1 24.5303 30.8607 8.7043
5325 1 22.9477 32.4433 0.7913
5326 1 24.5303 34.0259 2.3739
5327 1 22.9477 32.4433 3.9565
5328 1 24.5303 34.0259 5.5391
5329 1 22.9477 32.4433 7.1217
5330 1 24.5303 34.0259 8.7043
5331 1 22.9477 35.6085 0.7913
5332 1 24.5303 37.1911 2.3739
5333 1 22.9477 35.6085 3.9565
5334 1 24.5303 37.1911 5.5391
5335 1 22.9477 35.6085 7.1217
5336 1 24.5303 37.1911 8.7043
5337 1 22.9477 38.7737 0.7913
5338 1 24.5303 40.3563 2.3739
5339 1 22.9477 38.7737 3.9565
5340 1 24.5303 40.3563 5.5391
5341 1 22.9477 38.7737 7.1217
5342 1 24.5303 40.3563 8.7043
5343 1 22.9477 41.9389 0.7913
5344 1 24.5303 43.5215 2.3739
5345 1 22.9477 41.9389 3.9565
5346 1 24.5303 43.5215 5.5391
5347 1 22.9477 41.9389 7.1217
5348 1 24.5303 43.5215 8.7043
5349 1 22.9477 45.1041 0.7913
5350 1 24.5303 46.6867 2.3739
5351 1 22.9477 45.1041 3.9565
5352 1 24.5303 46.6867 5.5391
5353 1 22.9477 45.1041 7.1217
5354 1 24.5303 46.6867 8.7043
5355 1 22.9477 48.2693 0.7913
5356 1 24.5303 49.8519 2.3739
5357 1 22.9477 48.2693 3.9565
5358 1 24.5303 49.8519 5.5391
5359 1 22.9477 48.2693 7.1217
5360 1 24.5303 49.8519 8.7043
5361 1 26.1129 0.7913 0.7913
5362 1 27.6955 2.3739 2.3739
5363 1 26.1129 0.7913 3.9565
5364 1 27.6955 2.3739 5.5391
5365 1 26.1129 0.7913 7.1217
5366 1 27.6955 2.3739 8.7043
5367 1 26.1129 3.9565 0.7913
5368 1 27.6955 5.5391 2.3739
5369 1 26.1129 3.9565 3.9565
5370 1 27.6955 5.5391 5.5391
5371 1 26.1129 3.9565 7.1217
5372 1 27.6955 5.5391 8.7043
5373 1 26.1129 7.1217 0.7913
5374 1 27.6955 8.7043 2.3739
5375 1 26.1129 7.1217 3.9565
5376 1 27.6955 8.7043 5.5391
5377 1 26.1129 7.1217 7.1217
5378 1 27.6955 8.7043 8.7043
5379 1 26.1129 10.2869 0.7913
5380 1 27.6955 11.8695 2.3739
5381 1 26.1129 10.2869 3.9565
5382 1 27.6955 11.8695 5.5391
5383 1 26.1129 10.2869 7.1217
5384 1 27.6955 11.8695 8.7043
5385 1 26.1129 13.4521 0.7913
5386 1 27.6955 15.0347 2.3739
5387 1 26.1129 13.4521 3.9565
5388 1 27.6955 15.0347 5.5391
5389 1 26.1129 13.4521 7.1217
5390 1 27.6955 15.0347 8.7043
5391 1 26.1129 16.6173 0.7913
5392 1 27.6955 18.1999 2.3739
5393 1 26.1129 16.6173 3.9565
5394 1 27.6955 18.1999 5.5391
5395 1 26.1129 16.6173 7.1217
5396 1 27.6955 18.1999 8.7043
5397 1 26.1129 19.7825 0.7913
5398 1 27.6955 21.3651 2.3739
5399 1 26.1129 19.7825 3.9565
5400 1 27.6955 21.3651 5.5391
5401 1 26.1129 19.7825 7.1217
5402 1 27.6955 21.3651 8.7043
5403 1 26.1129 22.9477 0.7913
5404 1 27.6955 24.5303 2.3739
5405 1 26.1129 22.9477 3.9565
5406 1 27.6955 24.5303 5.5391
5407 1 26.1129 22.9477 7.1217
5408 1 27.6955 24.5303 8.7043
5409 1 26.1129 26.1129 0.7913
5410 1 27.6955 27.6955 2.3739
5411 1 26.1129 26.1129 3.9565
5412 1 27.6955 27.6955 5.5391
5413 1 26.1129 26.1129 7.1217
5414 1 27.6955 27.6955 8.7043
5415 1 26.1129 29.2781 0.7913
5416 1 27.6955 30.8607 2.3739
5417 1 26.1129 29.2781 3.9565
5418 1 27.6955 30.8607 5.5391
5419 1 26.1129 29.2781 7.1217
5420 1 27.6955 30.8607 8.7043
5421 1 26.1129 32.4433 0.7913
5422 1 27.6955 34.0259 2.3739
5423 1 26.1129 32.4433 3.9565
5424 1 27.6955 34.0259 5.5391
5425 1 26.1129 32.4433 7.1217
5426 1 27.6955 34.0259 8.7043
5427 1 26.1129 35.6085 0.7913
5428 1 27.6955 37.1911 2.3739
5429 1 26.1129 35.6085 3.9565
5430 1 27.6955 37.1911 5.5391
5431 1 26.1129 35.6085 7.1217
5432 1 27.6955 37.1911 8.7043
5433 1 26.1129 38.7737 0.7913
5434 1 27.6955 40.3563 2.3739
5435 1 26.1129 38.7737 3.9565
5436 1 27.6955 40.3563 5.5391
5437 1 26.1129 38.7737 7.1217
5438 1 27.6955 40.3563 8.7043
5439 1 26.1129 41.9389 0.7913
5440 1 27.6955 43.5215 2.3739
5441 1 26.1129 41.9389 3.9565
5442 1 27.6955 43.5215 5.5391
5443 1 26.1129 41.9389 7.1217
5444 1 27.6955 43.5215 8.7043
5445 1 26.1129 45.1041 0.7913
5446 1 27.6955 46.6867 2.3739
5447 1 26.1129 45.1041 3.9565
5448 1 27.6955 46.6867 5.5391
5449 1 26.1129 45.1041 7.1217
5450 1 27.6955 46.6867 8.7043
5451 1 26.1129 48.2693 0.7913
5452 1 27.6955 49.8519 2.3739
5453 1 26.1129 48.2693 3.9565
5454 1 27.6955 49.8519 5.5391
5455 1 26.1129 48.2693 7.1217
5456 1 27.6955 49.8519 8.7043
5457 1 29.2781 0.7913 0.7913
5458 1 30.8607 2.3739 2.3739
5459 1 29.2781 0.7913 3.9565
5460 1 30.8607 2.3739 5.5391
5461 1 29.2781 0.7913 7.1217
5462 1 30.8607 2.3739 8.7043
5463 1 29.2781 3.9565 0.7913
5464 1 30.8607 5.5391 2.3739
5465 1 29.2781 3.9565 3.9565
5466 1 30.8607 5.5391 5.5391
5467 1 29.2781 3.9565 7.1217
5468 1 30.8607 5.5391 8.7043
5469 1 29.2781 7.1217 0.7913
5470 1 30.8607 8.7043 2.3739
5471 1 29.2781 7.1217 3.9565
5472 1 30.8607 8.7043 5.5391
5473 1 29.2781 7.1217 7.1217
5474 1 30.8607 8.7043 8.7043
5475 1 29.2781 10.2869 0.7913
5476 1 30.8607 11.8695 2.3739
5477 1 29.2781 10.2869 3.9565
5478 1 30.8607 11.8695 5.5391
5479 1 29.2781 10.2869 7.1217
5480 1 30.8607 11.8695 8.7043
5481 1 29.2781 13.4521 0.7913
5482 1 30.8607 15.0347 2.3739
5483 1 29.2781 13.4521 3.9565
5484 1 30.8607 15.0347 5.5391
5485 1 29.2781 13.4521 7.1217
5486 1 30.8607 15.0347 8.7043
5487 1 29.2781 16.6173 0.7913
5488 1 30.8607 18.1999 2.3739
5489 1 29.2781 16.6173 3.9565
5490 1 30.8607 18.1999 5.5391
5491 1 29.2781 16.6173 7.1217
5492 1 30.8607 18.1999 8.7043
5493 1 29.2781 19.7825 0.7913
5494 1 30.8607 21.3651 2.3739
5495 1 29.2781 19.7825 3.9565
5496 1 30.8607 21.3651 5.5391
5497 1 29.2781 19.7825 7.1217
5498 1 30.8607 21.3651 8.7043
5499 1 29.2781 22.9477 0.7913
5500 1 30.8607 24.5303 2.3739
5501 1 29.2781 22.9477 3.9565
5502 1 30.8607 24.5303 5.5391
5503 1 29.2781 22.9477 7.1217
5504 1 30.8607 24.5303 8.7043
5505 1 29.2781 26.1129 0.7913
5506 1 30.8607 27.6955 2.3739
5507 1 29.2781 26.1129 3.9565
5508 1 30.8607 27.6955 5.5391
5509 1 29.2781 26.1129 7.1217
5510 1 30.8607 27.6955 8.7043
5511 1 29.2781 29.2781 0.7913
5512 1 30.8607 30.8607 2.3739
5513 1 29.2781 29.2781 3.9565
5514 1 30.8607 30.8607 5.5391
5515 1 29.2781 29.2781 7.1217
5516 1 30.8607 30.8607 8.7043
5517 1 29.2781 32.4433 0.7913
5518 1 30.8607 34.0259 2.3739
5519 1 29.2781 32.4433 3.9565
5520 1 30.8607 34.0259 5.5391
5521 1 29.2781 32.4433 7.1217
5522 1 30.8607 34.0259 8.7043
5523 1 29.2781 35.6085 0.7913
5524 1 30.8607 37.1911 2.3739
5525 1 29.2781 35.6085 3.9565
5526 1 30.8607 37.1911 5.5391
5527 1 29.2781 35.6085 7.1217
5528 1 30.8607 37.1911 8.7043
5529 1 29.2781 38.7737 0.7913
5530 1 30.8607 40.3563 2.3739
5531 1 29.2781 38.7737 3.9565
5532 1 30.8607 40.3563 5.5391
5533 1 29.2781 38.7737 7.1217
5534 1 30.8607 40.3563 8.7043
5535 1 29.2781 41.9389 0.7913
5536 1 30.8607 43.5215 2.3739
5537 1 29.2781 41.9389 3.9565
5538 1 30.8607 43.5215 5.5391
5539 1 29.2781 41.9389 7.1217
5540 1 30.8607 43.5215 8.7043
5541 1 29.2781 45.1041 0.7913
5542 1 30.8607 46.6867 2.3739
5543 1 29.2781 45.1041 3.9565
5544 1 30.8607 46.6867 5.5391
5545 1 29.2781 45.1041 7.1217
5546 1 30.8607 46.6867 8.7043
5547 1 29.2781 48.2693 0.7913
5548 1 30.8607 49.8519 2.3739
5549 1 29.2781 48.2693 3.9565
5550 1 30.8607 49.8519 5.5391
5551 1 29.2781 48.2693 7.1217
5552 1 30.8607 49.8519 8.7043
5553 1 32.4433 0.7913 0.7913
5554 1 34.0259 2.3739 2.3739
5555 1 32.4433 0.7913 3.9565
5556 1 34.0259 2.3739 5.5391
5557 1 32.4433 0.7913 7.1217
5558 1 34.0259 2.3739 8.7043
5559 1 32.4433 3.9565 0.7913
5560 1 34.0259 5.5391 2.3739
5561 1 32.4433 3.9565 3.9565
5562 1 34.0259 5.5391 5.5391
5563 1 32.4433 3.9565 7.1217
5564 1 34.0259 5.5391 8.7043
5565 1 32.4433 7.1217 0.7913
5566 1 34.0259 8.7043 2.3739
5567 1 32.4433 7.1217 3.9565
5568 1 34.0259 8.7043 5.5391
5569 1 32.4433 7.1217 7.1217
5570 1 34.0259 8.7043 8.7043
5571 1 32.4433 10.2869 0.7913
5572 1 34.0259 11.8695 2.3739
5573 1 32.4433 10.2869 3.9565
5574 1 34.0259 11.8695 5.5391
5575 1 32.4433 10.2869 7.1217
5576 1 34.0259 11.8695 8.7043
5577 1 32.4433 13.4521 0.7913
5578 1 34.0259 15.0347 2.3739
5579 1 32.4433 13.4521 3.9565
5580 1 34.0259 15.0347 5.5391
5581 1 32.4433 13.4521 7.1217
5582 1 34.0259 15.0347 8.7043
5583 1 32.4433 16.6173 0.7913
5584 1 34.0259 18.1999 2.3739
5585 1 32.4433 16.6173 3.9565
5586 1 34.0259 18.1999 5.5391
5587 1 32.4433 16.6173 7.1217
5588 1 34.0259 18.1999 8.7043
5589 1 32.4433 19.7825 0.7913
5590 1 34.0259 21.3651 2.3739
5591 1 32.4433 19.7825 3.9565
5592 1 34.0259 21.3651 5.5391
5593 1 32.4433 19.7825 7.1217
5594 1 34.0259 21.3651 8.7043
5595 1 32.4433 22.9477 0.7913
5596 1 34.0259 24.5303 2.3739
5597 1 32.4433 22.9477 3.9565
5598 1 34.0259 24.5303 5.5391
5599 1 32.4433 22.9477 7.1217
5600 1 34.0259 24.5303 8.7043
5601 1 32.4433 26.1129 0.7913
5602 1 34.0259 27.6955 2.3739
5603 1 32.4433 26.1129 3.9565
5604 1 34.0259 27.6955 5.5391
5605 1 32.4433 26.1129 7.1217
5606 1 34.0259 27.6955 8.7043
5607 1 32.4433 29.2781 0.7913
5608 1 34.0259 30.8607 2.3739
5609 1 32.4433 29.2781 3.9565
5610 1 34.0259 30.8607 5.5391
5611 1 32.4433 29.2781 7.1217
5612 1 34.0259 30.8607 8.7043
5613 1 32.4433 32.4433 0.7913
5614 1 34.0259 34.0259 2.3739
5615 1 32.4433 32.4433 3.9565
5616 1 34.0259 34.0259 5.5391
5617 1 32.4433 32.4433 7.1217
5618 1 34.0259 34.0259 8.7043
5619 1 32.4433 35.6085 0.7913
5620 1 34.0259 37.1911 2.3739
5621 1 32.4433 35.6085 3.9565
5622 1 34.0259 37.1911 5.5391
5623 1 32.4433 35.6085 7.1217
5624 1 34.0259 37.1911 8.7043
5625 1 32.4433 38.7737 0.7913
5626 1 34.0259 40.3563 2.3739
5627 1 32.4433 38.7737 3.9565
5628 1 34.0259 40.3563 5.5391
5629 1 32.4433 38.7737 7.1217
5630 1 34.0259 40.3563 8.7043
5631 1 32.4433 41.9389 0.7913
5632 1 34.0259 43.5215 2.3739
5633 1 32.4433 41.9389 3.9565
5634 1 34.0259 43.5215 5.5391
5635 1 32.4433 41.9389 7.1217
5636 1 34.0259 43.5215 8.7043
5637 1 32.4433 45.1041 0.7913
5638 1 34.0259 46.6867 2.3739
5639 1 32.4433 45.1041 3.9565
5640 1 34.0259 46.6867 5.5391
5641 1 32.4433 45.1041 7.1217
5642 1 34.0259 46.6867 8.7043
5643 1 32.4433 48.2693 0.7913
5644 1 34.0259 49.8519 2.3739
5645 1 32.4433 48.2693 3.9565
5646 1 34.0259 49.8519 5.5391
5647 1 32.4433 48.2693 7.1217
5648 1 34.0259 49.8519 8.7043
5649 1 35.6085 0.7913 0.7913
5650 1 37.1911 2.3739 2.3739
5651 1 35.6085 0.7913 3.9565
5652 1 37.1911 2.3739 5.5391
5653 1 35.6085 0.7913 7.1217
5654 1 37.1911 2.3739 8.7043
5655 1 35.6085 3.9565 0.7913
5656 1 37.1911 5.5391 2.3739
5657 1 35.6085 3.9565 3.9565
5658 1 37.1911 5.5391 5.5391
5659 1 35.6085 3.9565 7.1217
5660 1 37.1911 5.5391 8.7043
5661 1 35.6085 7.1217 0.7913
5662 1 37.1911 8.7043 2.3739
5663 1 35.6085 7.1217 3.9565
5664 1 37.1911 8.7043 5.5391
5665 1 35.6085 7.1217 7.1217
5666 1 37.1911 8.7043 8.7043
5667 1 35.6085 10.2869 0.7913
5668 1 37.1911 11.8695 2.3739
5669 1 35.6085 10.2869 3.9565
5670 1 37.1911 11.8695 5.5391
5671 1 35.6085 10.2869 7.1217
5672 1 37.1911 11.8695 8.7043
5673 1 35.6085 13.4521 0.7913
5674 1 37.1911 15.0347 2.3739
5675 1 35.6085 13.4521 3.9565
5676 1 37.1911 15.0347 5.5391
5677 1 35.6085 13.4521 7.1217
5678 1 37.1911 15.0347 8.7043
5679 1 35.6085 16.6173 0.7913
5680 1 37.1911 18.1999 2.3739
5681 1 35.6085 16.6173 3.9565
5682 1 37.1911 18.1999 5.5391
5683 1 35.6085 16.6173 7.1217
5684 1 37.1911 18.1999 8.7043
5685 1 35.6085 19.7825 0.7913
5686 1 37.1911 21.3651 2.3739
5687 1 35.6085 19.7825 3.9565
5688 1 37.1911 21.3651 5.5391
5689 1 35.6085 19.7825 7.1217
5690 1 37.1911 21.3651 8.7043
5691 1 35.6085 22.9477 0.7913
5692 1 37.1911 24.5303 2.3739
5693 1 35.6085 22.9477 3.9565
5694 1 37.1911 24.5303 5.5391
5695 1 35.6085 22.9477 7.1217
5696 1 37.1911 24.5303 8.7043
5697 1 35.6085 26.1129 0.7913
5698 1 37.1911 27.6955 2.3739
5699 1 35.6085 26.1129 3.9565
5700 1 37.1911 27.6955 5.5391
5701 1 35.6085 26.1129 7.1217
5702 1 37.1911 27.6955 8.7043
5703 1 35.6085 29.2781 0.7913
5704 1 37.1911 30.8607 2.3739
5705 1 35.6085 29.2781 3.9565
5706 1 37.1911 30.8607 5.5391
5707 1 35.6085 29.2781 7.1217
5708 1 37.1911 30.8607 8.7043
5709 1 35.6085 32.4433 0.7913
5710 1 37.1911 34.0259 2.3739
5711 1 35.6085 32.4433 3.9565
5712 1 37.1911 34.0259 5.5391
5713 1 35.6085 32.4433 7.1217
5714 1 37.1911 34.0259 8.7043
5715 1 35.6085 35.6085 0.7913
5716 1 37.1911 37.1911 2.3739
5717 1 35.6085 35.6085 3.9565
5718 1 37.1911 37.1911 5.5391
5719 1 35.6085 35.6085 7.1217
5720 1 37.1911 37.1911 8.7043
5721 1 35.6085 38.7737 0.7913
5722 1 37.1911 40.3563 2.3739
5723 1 35.6085 38.7737 3.9565
5724 1 37.1911 40.3563 5.5391
5725 1 35.6085 38.7737 7.1217
5726 1 37.1911 40.3563 8.7043
5727 1 35.6085 41.9389 0.7913
5728 1 37.1911 43.5215 2.3739
5729 1 35.6085 41.9389 3.9565
5730 1 37.1911 43.5215 5.5391
5731 1 35.6085 41.9389 7.1217
5732 1 37.1911 43.5215 8.7043
5733 1 35.6085 45.1041 0.7913
5734 1 37.1911 46.6867 2.3739
5735 1 35.6085 45.1041 3.9565
5736 1 37.1911 46.6867 5.5391
5737 1 35.6085 45.1041 7.1217
5738 1 37.1911 46.6867 8.7043
5739 1 35.6085 48.2693 0.7913
5740 1 37.1911 49.8519 2.3739
5741 1 35.6085 48.2693 3.9565
5742 1 37.1911 49.8519 5.5391
5743 1 35.6085 48.2693 7.1217
5744 1 37.1911 49.8519 8.7043
5745 1 38.7737 0.7913 0.7913
5746 1 40.3563 2.3739 2.3739
5747 1 38.7737 0.7913 3.9565
5748 1 40.3563 2.3739 5.5391
5749 1 38.7737 0.7913 7.1217
5750 1 40.3563 2.3739 8.7043
5751 1 38.7737 3.9565 0.7913
5752 1 40.3563 5.5391 2.3739
5753 1 38.7737 3.9565 3.9565
5754 1 40.3563 5.5391 5.5391
5755 1 38.7737 3.9565 7.1217
5756 1 40.3563 5.5391 8.7043
5757 1 38.7737 7.1217 0.7913
5758 1 40.3563 8.7043 2.3739
5759 1 38.7737 7.1217 3.9565
5760 1 40.3563 8.7043 5.5391
5761 1 38.7737 7.1217 7.1217
5762 1 40.3563 8.7043 8.7043
5763 1 38.7737 10.2869 0.7913
5764 1 40.3563 11.8695 2.3739
5765 1 38.7737 10.2869 3.9565
5766 1 40.3563 11.8695 5.5391
5767 1 38.7737 10.2869 7.1217
5768 1 40.3563 11.8695 8.7043
5769 1 38.7737 13.4521 0.7913
5770 1 40.3563 15.0347 2.3739
5771 1 38.7737 13.4521 3.9565
5772 1 40.3563 15.0347 5.5391
5773 1 38.7737 13.4521 7.1217
5774 1 40.3563 15.0347 8.7043
5775 1 38.7737 16.6173 0.7913
5776 1 40.3563 18.1999 2.3739
5777 1 38.7737 16.6173 3.9565
5778 1 40.3563 18.1999 5.5391
5779 1 38.7737 16.6173 7.1217
5780 1 40.3563 18.1999 8.7043
5781 1 38.7737 19.7825 0.7913
5782 1 40.3563 21.3651 2.3739
5783 1 38.7737 19.7825 3.9565
5784 1 40.3563 21.3651 5.5391
5785 1 38.7737 19.7825 7.1217
5786 1 40.3563 21.3651 8.7043
5787 1 38.7737 22.9477 0.7913
5788 1 40.3563 24.5303 2.3739
5789 1 38.7737 22.9477 3.9565
5790 1 40.3563 24.5303 5.5391
5791 1 38.7737 22.9477 7.1217
5792 1 40.3563 24.5303 8.7043
5793 1 38.7737 26.1129 0.7913
5794 1 40.3563 27.6955 2.3739
5795 1 38.7737 26.1129 3.9565
5796 1 40.3563 27.6955 5.5391
5797 1 38.7737 26.1129 7.1217
5798 1 40.3563 27.6955 8.7043
5799 1 38.7737 29.2781 0.7913
5800 1 40.3563 30.8607 2.3739
5801 1 38.7737 29.2781 3.9565
5802 1 40.3563 30.8607 5.5391
5803 1 38.7737 29.2781 7.1217
5804 1 40.3563 30.8607 8.7043
5805 1 38.7737 32.4433 0.7913
5806 1 40.3563 34.0259 2.3739
5807 1 38.7737 32.4433 3.9565
5808 1 40.3563 34.0259 5.5391
5809 1 38.7737 32.4433 7.1217
5810 1 40.3563 34.0259 8.7043
5811 1 38.7737 35.6085 0.7913
5812 1 40.3563 37.1911 2.3739
5813 1 38.7737 35.6085 3.9565
5814 1 40.3563 37.1911 5.5391
5815 1 38.7737 35.6085 7.1217
5816 1 40.3563 37.1911 8.7043
5817 1 38.7737 38.7737 0.7913
5818 1 40.3563 40.3563 2.3739
5819 1 38.7737 38.7737 3.9565
5820 1 40.3563 40.3563 5.5391
5821 1 38.7737 38.7737 7.1217
5822 1 40.3563 40.3563 8.7043
5823 1 38.7737 41.9389 0.7913
5824 1 40.3563 43.5215 2.3739
5825 1 38.7737 41.9389 3.9565
5826 1 40.3563 43.5215 5.5391
5827 1 38.7737 41.9389 7.1217
5828 1 40.3563 43.5215 8.7043
5829 1 38.7737 45.1041 0.7913
5830 1 40.3563 46.6867 2.3739
5831 1 38.7737 45.1041 3.9565
5832 1 40.3563 46.6867 5.5391
5833 1 38.7737 45.1041 7.1217
5834 1 40.3563 46.6867 8.7043
5835 1 38.7737 48.2693 0.7913
5836 1 40.3563 49.8519 2.3739
5837 1 38.7737 48.2693 3.9565
5838 1 40.3563 49.8519 5.5391
5839 1 38.7737 48.2693 7.1217
5840 1 40.3563 49.8519 8.7043
5841 1 10.2869 0.7913 38.7737
5842 1 11.8695 2.3739 40.3563
5843 1 10.2869 0.7913 41.9389
5844 1 11.8695 2.3739 43.5215
5845 1 10.2869 0.7913 45.1041
5846 1 11.8695 2.3739 46.6867
5847 1 10.2869 0.7913 48.2693
5848 1 11.8695 2.3739 49.8519
5849 1 10.2869 3.9565 38.7737
5850 1 11.8695 5.5391 40.3563
5851 1 10.2869 3.9565 41.9389
5852 1 11.8695 5.5391 43.5215
5853 1 10.2869 3.9565 45.1041
5854 1 11.8695 5.5391 46.6867
5855 1 10.2869 3.9565 48.2693
5856 1 11.8695 5.5391 49.8519
5857 1 10.2869 7.1217 38.7737
5858 1 11.8695 8.7043 40.3563
5859 1 10.2869 7.1217 41.9389
5860 1 11.8695 8.7043 43.5215
5861 1 10.2869 7.1217 45.1041
5862 1 11.8695 8.7043 46.6867
5863 1 10.2869 7.1217 48.2693
5864 1 11.8695 8.7043 49.8519
5865 1 10.2869 10.2869 38.7737
5866 1 11.8695 11.8695 40.3563
5867 1 10.2869 10.2869 41.9389
5868 1 11.8695 11.8695 43.5215
5869 1 10.2869 10.2869 45.1041
5870 1 11.8695 11.8695 46.6867
5871 1 10.2869 10.2869 48.2693
5872 1 11.8695 11.8695 49.8519
5873 1 10.2869 13.4521 38.7737
5874 1 11.8695 15.0347 40.3563
5875 1 10.2869 13.4521 41.9389
5876 1 11.8695 15.0347 43.5215
5877 1 10.2869 13.4521 45.1041
5878 1 11.8695 15.0347 46.6867
5879 1 10.2869 13.4521 48.2693
5880 1 11.8695 15.0347 49.8519
5881 1 10.2869 16.6173 38.7737
5882 1 11.8695 18.1999 40.3563
5883 1 10.2869 16.6173 41.9389
5884 1 11.8695 18.1999 43.5215
5885 1 10.2869 16.6173 45.1041
5886 1 11.8695 18.1999 46.6867
5887 1 10.2869 16.6173 48.2693
5888 1 11.8695 18.1999 49.8519
5889 1 10.2869 19.7825 38.7737
5890 1 11.8695 21.3651 40.3563
5891 1 10.2869 19.7825 41.9389
5892 1 11.8695 21.3651 43.5215
5893 1 10.2869 19.7825 45.1041
5894 1 11.8695 21.3651 46.6867
5895 1 10.2869 19.7825 48.2693
5896 1 11.8695 21.3651 49.8519
5897 1 10.2869 22.9477 38.7737
5898 1 11.8695 24.5303 40.3563
5899 1 10.2869 22.9477 41.9389
5900 1 11.8695 24.5303 43.5215
5901 1 10.2869 22.9477 45.1041
5902 1 11.8695 24.5303 46.6867
5903 1 10.2869 22.9477 48.2693
5904 1 11.8695 24.5303 49.8519
5905 1 10.2869 26.1129 38.7737
5906 1 11.8695 27.6955 40.3563
5907 1 10.2869 26.1129 41.9389
5908 1 11.8695 27.6955 43.5215
5909 1 10.2869 26.1129 45.1041
5910 1 11.8695 27.6955 46.6867
5911 1 10.2869 26.1129 48.2693
5912 1 11.8695 27.6955 49.8519
5913 1 10.2869 29.2781 38.7737
5914 1 11.8695 30.8607 40.3563
5915 1 10.2869 29.2781 41.9389
5916 1 11.8695 30.8607 43.5215
5917 1 10.2869 29.2781 45.1041
5918 1 11.8695 30.8607 46.6867
5919 1 10.2869 29.2781 48.2693
5920 1 11.8695 30.8607 49.8519
5921 1 10.2869 32.4433 38.7737
5922 1 11.8695 34.0259 40.3563
5923 1 10.2869 32.4433 41.9389
5924 1 11.8695 34.0259 43.5215
5925 1 10.2869 32.4433 45.1041
5926 1 11.8695 34.0259 46.6867
5927 1 10.2869 32.4433 48.2693
5928 1 11.8695 34.0259 49.8519
5929 1 10.2869 35.6085 38.7737
5930 1 11.8695 37.1911 40.3563
5931 1 10.2869 35.6085 41.9389
5932 1 11.8695 37.1911 43.5215
5933 1 10.2869 35.6085 45.1041
5934 1 11.8695 37.1911 46.6867
5935 1 10.2869 35.6085 48.2693
5936 1 11.8695 37.1911 49.8519
5937 1 10.2869 38.7737 38.7737
5938 1 11.8695 40.3563 40.3563
5939 1 10.2869 38.7737 41.9389
5940 1 11.8695 40.3563 43.5215
5941 1 10.2869 38.7737 45.1041
5942 1 11.8695 40.3563 46.6867
5943 1 10.2869 38.7737 48.2693
5944 1 11.8695 40.3563 49.8519
5945 1 10.2869 41.9389 38.7737
5946 1 11.8695 43.5215 40.3563
5947 1 10.2869 41.9389 41.9389
5948 1 11.8695 43.5215 43.5215
5949 1 10.2869 41.9389 45.1041
5950 1 11.8695 43.5215 46.6867
5951 1 10.2869 41.9389 48.2693
5952 1 11.8695 43.5215 49.8519
5953 1 10.2869 45.1041 38.7737
5954 1 11.8695 46.6867 40.3563
5955 1 10.2869 45.1041 41.9389
5956 1 11.8695 46.6867 43.5215
5957 1 10.2869 45.1041 45.1041
5958 1 11.8695 46.6867 46.6867
5959 1 10.2869 45.1041 48.2693
5960 1 11.8695 46.6867 49.8519
5961 1 10.2869 48.2693 38.7737
5962 1 11.8695 49.8519 40.3563
5963 1 10.2869 48.2693 41.9389
5964 1 11.8695 49.8519 43.5215
5965 1 10.2869 48.2693 45.1041
5966 1 11.8695 49.8519 46.6867
5967 1 10.2869 48.2693 48.2693
5968 1 11.8695 49.8519 49.8519
5969 1 13.4521 0.7913 38.7737
5970 1 15.0347 2.3739 40.3563
5971 1 13.4521 0.7913 41.9389
5972 1 15.0347 2.3739 43.5215
5973 1 13.4521 0.7913 45.1041
5974 1 15.0347 2.3739 46.6867
5975 1 13.4521 0.7913 48.2693
5976 1 15.0347 2.3739 49.8519
5977 1 13.4521 3.9565 38.7737
5978 1 15.0347 5.5391 40.3563
5979 1 13.4521 3.9565 41.9389
5980 1 15.0347 5.5391 43.5215
5981 1 13.4521 3.9565 45.1041
5982 1 15.0347 5.5391 46.6867
5983 1 13.4521 3.9565 48.2693
5984 1 15.0347 5.5391 49.8519
5985 1 13.4521 7.1217 38.7737
5986 1 15.0347 8.7043 40.3563
5987 1 13.4521 7.1217 41.9389
5988 1 15.0347 8.7043 43.5215
5989 1 13.4521 7.1217 45.1041
5990 1 15.0347 8.7043 46.6867
5991 1 13.4521 7.1217 48.2693
5992 1 15.0347 8.7043 49.8519
5993 1 13.4521 10.2869 38.7737
5994 1 15.0347 11.8695 40.3563
5995 1 13.4521 10.2869 41.9389
5996 1 15.0347 11.8695 43.5215
5997 1 13.4521 10.2869 45.1041
5998 1 15.0347 11.8695 46.6867
5999 1 13.4521 10.2869 48.2693
6000 1 15.0347 11.8695 49.8519
6001 1 13.4521 13.4521 38.7737
6002 1 15.0347 15.0347 40.3563
6003 1 13.4521 13.4521 41.9389
6004 1 15.0347 15.0347 43.5215
6005 1 13.4521 13.4521 45.1041
6006 1 15.0347 15.0347 46.6867
6007 1 13.4521 13.4521 48.2693
6008 1 15.0347 15.0347 49.8519
6009 1 13.4521 16.6173 38.7737
6010 1 15.0347 18.1999 40.3563
6011 1 13.4521 16.6173 41.9389
6012 1 15.0347 18.1999 43.5215
6013 1 13.4521 16.6173 45.1041
6014 1 15.0347 18.1999 46.6867
6015 1 13.4521 16.6173 48.2693
6016 1 15.0347 18.1999 49.8519
6017 1 13.4521 19.7825 38.7737
6018 1 15.0347 21.3651 40.3563
6019 1 13.4521 19.7825 41.9389
6020 1 15.0347 21.3651 43.5215
6021 1 13.4521 19.7825 45.1041
6022 1 15.0347 21.3651 46.6867
6023 1 13.4521 19.7825 48.2693
6024 1 15.0347 21.3651 49.8519
6025 1 13.4521 22.9477 38.7737
6026 1 15.0347 24.5303 40.3563
6027 1 13.4521 22.9477 41.9389
6028 1 15.0347 24.5303 43.5215
6029 1 13.4521 22.9477 45.1041
6030 1 15.0347 24.5303 46.6867
6031 1 13.4521 22.9477 48.2693
6032 1 15.0347 24.5303 49.8519
6033 1 13.4521 26.1129 38.7737
6034 1 15.0347 27.6955 40.3563
6035 1 13.4521 26.1129 41.9389
6036 1 15.0347 27.6955 43.5215
6037 1 13.4521 26.1129 45.1041
6038 1 15.0347 27.6955 46.6867
6039 1 13.4521 26.1129 48.2693
6040 1 15.0347 27.6955 49.8519
6041 1 13.4521 29.2781 38.7737
6042 1 15.0347 30.8607 40.3563
6043 1 13.4521 29.2781 41.9389
6044 1 15.0347 30.8607 43.5215
6045 1 13.4521 29.2781 45.1041
6046 1 15.0347 30.8607 46.6867
6047 1 13.4521 29.2781 48.2693
6048 1 15.0347 30.8607 49.8519
6049 1 13.4521 32.4433 38.7737
6050 1 15.0347 34.0259 40.3563
6051 1 13.4521 32.4433 41.9389
6052 1 15.0347 34.0259 43.5215
6053 1 13.4521 32.4433 45.1041
6054 1 15.0347 34.0259 46.6867
6055 1 13.4521 32.4433 48.2693
6056 1 15.0347 34.0259 49.8519
6057 1 13.4521 35.6085 38.7737
6058 1 15.0347 37.1911 40.3563
6059 1 13.4521 35.6085 41.9389
6060 1 15.0347 37.1911 43.5215
6061 1 13.4521 35.6085 45.1041
6062 1 15.0347 37.1911 46.6867
6063 1 13.4521 35.6085 48.2693
6064 1 15.0347 37.1911 49.8519
6065 1 13.4521 38.7737 38.7737
6066 1 15.0347 40.3563 40.3563
6067 1 13.4521 38.7737 41.9389
6068 1 15.0347 40.3563 43.5215
6069 1 13.4521 38.7737 45.1041
6070 1 15.0347 40.3563 46.6867
6071 1 13.4521 38.7737 48.2693
6072 1 15.0347 40.3563 49.8519
6073 1 13.4521 41.9389 38.7737
6074 1 15.0347 43.5215 40.3563
6075 1 13.4521 41.9389 41.9389
6076 1 15.0347 43.5215 43.5215
6077 1 13.4521 41.9389 45.1041
6078 1 15.0347 43.5215 46.6867
6079 1 13.4521 41.9389 48.2693
6080 1 15.0347 43.5215 49.8519
6081 1 13.4521 45.1041 38.7737
6082 1 15.0347 46.6867 40.3563
6083 1 13.4521 45.1041 41.9389
6084 1 15.0347 46.6867 43.5215
6085 1 13.4521 45.1041 45.1041
6086 1 15.0347 46.6867 46.6867
6087 1 13.4521 45.1041 48.2693
6088 1 15.0347 46.6867 49.8519
6089 1 13.4521 48.2693 38.7737
6090 1 15.0347 49.8519 40.3563
6091 1 13.4521 48.2693 41.9389
6092 1 15.0347 49.8519 43.5215
6093 1 13.4521 48.2693 45.1041
6094 1 15.0347 49.8519 46.6867
6095 1 13.4521 48.2693 48.2693
6096 1 15.0347 49.8519 49.8519
6097 1 16.6173 0.7913 38.7737
6098 1 18.1999 2.3739 40.3563
6099 1 16.6173 0.7913 41.9389
6100 1 18.1999 2.3739 43.5215
6101 1 16.6173 0.7913 45.1041
6102 1 18.1999 2.3739 46.6867
6103 1 16.6173 0.7913 48.2693
6104 1 18.1999 2.3739 49.8519
6105 1 16.6173 3.9565 38.7737
6106 1 18.1999 5.5391 40.3563
6107 1 16.6173 3.9565 41.9389
6108 1 18.1999 5.5391 43.5215
6109 1 16.6173 3.9565 45.1041
6110 1 18.1999 5.5391 46.6867
6111 1 16.6173 3.9565 48.2693
6112 1 18.1999 5.5391 49.8519
6113 1 16.6173 7.1217 38.7737
6114 1 18.1999 8.7043 40.3563
6115 1 16.6173 7.1217 41.9389
6116 1 18.1999 8.7043 43.5215
6117 1 16.6173 7.1217 45.1041
6118 1 18.1999 8.7043 46.6867
6119 1 16.6173 7.1217 48.2693
6120 1 18.1999 8.7043 49.8519
6121 1 16.6173 10.2869 38.7737
6122 1 18.1999 11.8695 40.3563
6123 1 16.6173 10.2869 41.9389
6124 1 18.1999 11.8695 43.5215
6125 1 16.6173 10.2869 45.1041
6126 1 18.1999 11.8695 46.6867
6127 1 16.6173 10.2869 48.2693
6128 1 18.1999 11.8695 49.8519
6129 1 16.6173 13.4521 38.7737
6130 1 18.1999 15.0347 40.3563
6131 1 16.6173 13.4521 41.9389
6132 1 18.1999 15.0347 43.5215
6133 1 16.6173 13.4521 45.1041
6134 1 18.1999 15.0347 46.6867
6135 1 16.6173 13.4521 48.2693
6136 1 18.1999 15.0347 49.8519
6137 1 16.6173 16.6173 38.7737
6138 1 18.1999 18.1999 40.3563
6139 1 16.6173 16.6173 41.9389
6140 1 18.1999 18.1999 43.5215
6141 1 16.6173 16.6173 45.1041
6142 1 18.1999 18.1999 46.6867
6143 1 16.6173 16.6173 48.2693
6144 1 18.1999 18.1999 49.8519
6145 1 16.6173 19.7825 38.7737
6146 1 18.1999 21.3651 40.3563
6147 1 16.6173 19.7825 41.9389
6148 1 18.1999 21.3651 43.5215
6149 1 16.6173 19.7825 45.1041
6150 1 18.1999 21.3651 46.6867
6151 1 16.6173 19.7825 48.2693
6152 1 18.1999 21.3651 49.8519
6153 1 16.6173 22.9477 38.7737
6154 1 18.1999 24.5303 40.3563
6155 1 16.6173 22.9477 41.9389
6156 1 18.1999 24.5303 43.5215
6157 1 16.6173 22.9477 45.1041
6158 1 18.1999 24.5303 46.6867
6159 1 16.6173 22.9477 48.2693
6160 1 18.1999 24.5303 49.8519
6161 1 16.6173 26.1129 38.7737
6162 1 18.1999 27.6955 40.3563
6163 1 16.6173 26.1129 41.9389
6164 1 18.1999 27.6955 43.5215
6165 1 16.6173 26.1129 45.1041
6166 1 18.1999 27.6955 46.6867
6167 1 16.6173 26.1129 48.2693
6168 1 18.1999 27.6955 49.8519
6169 1 16.6173 29.2781 38.7737
6170 1 18.1999 30.8607 40.3563
6171 1 16.6173 29.2781 41.9389
6172 1 18.1999 30.8607 43.5215
6173 1 16.6173 29.2781 45.1041
6174 1 18.1999 30.8607 46.6867
6175 1 16.6173 29.2781 48.2693
6176 1 18.1999 30.8607 49.8519
6177 1 16.6173 32.4433 38.7737
6178 1 18.1999 34.0259 40.3563
6179 1 16.6173 32.4433 41.9389
6180 1 18.1999 34.0259 43.5215
6181 1 16.6173 32.4433 45.1041
6182 1 18.1999 34.0259 46.6867
6183 1 16.6173 32.4433 48.2693
6184 1 18.1999 34.0259 49.8519
6185 1 16.6173 35.6085 38.7737
6186 1 18.1999 37.1911 40.3563
6187 1 16.6173 35.6085 41.9389
6188 1 18.1999 37.1911 43.5215
6189 1 16.6173 35.6085 45.1041
6190 1 18.1999 37.1911 46.6867
6191 1 16.6173 35.6085 48.2693
6192 1 18.1999 37.1911 49.8519
6193 1 16.6173 38.7737 38.7737
6194 1 18.1999 40.3563 40.3563
6195 1 16.6173 38.7737 41.9389
6196 1 18.1999 40.3563 43.5215
6197 1 16.6173 38.7737 45.1041
6198 1 18.1999 40.3563 46.6867
6199 1 16.6173 38.7737 48.2693
6200 1 18.1999 40.3563 49.8519
6201 1 16.6173 41.9389 38.7737
6202 1 18.1999 43.5215 40.3563
6203 1 16.6173 41.9389 41.9389
6204 1 18.1999 43.5215 43.5215
6205 1 16.6173 41.9389 45.1041
6206 1 18.1999 43.5215 46.6867
6207 1 16.6173 41.9389 48.2693
6208 1 18.1999 43.5215 49.8519
6209 1 16.6173 45.1041 38.7737
6210 1 18.1999 46.6867 40.3563
6211 1 16.6173 45.1041 41.9389
6212 1 18.1999 46.6867 43.5215
6213 1 16.6173 45.1041 45.1041
6214 1 18.1999 46.6867 46.6867
6215 1 16.6173 45.1041 48.2693
6216 1 18.1999 46.6867 49.8519
6217 1 16.6173 48.2693 38.7737
6218 1 18.1999 49.8519 40.3563
6219 1 16.6173 48.2693 41.9389
6220 1 18.1999 49.8519 43.5215
6221 1 16.6173 48.2693 45.1041
6222 1 18.1999 49.8519 46.6867
6223 1 16.6173 48.2693 48.2693
6224 1 18.1999 49.8519 49.8519
6225 1 19.7825 0.7913 38.7737
6226 1 21.3651 2.3739 40.3563
6227 1 19.7825 0.7913 41.9389
6228 1 21.3651 2.3739 43.5215
6229 1 19.7825 0.7913 45.1041
6230 1 21.3651 2.3739 46.6867
6231 1 19.7825 0.7913 48.2693
6232 1 21.3651 2.3739 49.8519
6233 1 19.7825 3.9565 38.7737
6234 1 21.3651 5.5391 40.3563
6235 1 19.7825 3.9565 41.9389
6236 1 21.3651 5.5391 43.5215
6237 1 19.7825 3.9565 45.1041
6238 1 21.3651 5.5391 46.6867
6239 1 19.7825 3.9565 48.2693
6240 1 21.3651 5.5391 49.8519
6241 1 19.7825 7.1217 38.7737
6242 1 21.3651 8.7043 40.3563
6243 1 19.7825 7.1217 41.9389
6244 1 21.3651 8.7043 43.5215
6245 1 19.7825 7.1217 45.1041
6246 1 21.3651 8.7043 46.6867
6247 1 19.7825 7.1217 48.2693
6248 1 21.3651 8.7043 49.8519
6249 1 19.7825 10.2869 38.7737
6250 1 21.3651 11.8695 40.3563
6251 1 19.7825 10.2869 41.9389
6252 1 21.3651 11.8695 43.5215
6253 1 19.7825 10.2869 45.1041
6254 1 21.3651 11.8695 46.6867
6255 1 19.7825 10.2869 48.2693
6256 1 21.3651 11.8695 49.8519
6257 1 19.7825 13.4521 38.7737
6258 1 21.3651 15.0347 40.3563
6259 1 19.7825 13.4521 41.9389
6260 1 21.3651 15.0347 43.5215
6261 1 19.7825 13.4521 45.1041
6262 1 21.3651 15.0347 46.6867
6263 1 19.7825 13.4521 48.2693
6264 1 21.3651 15.0347 49.8519
6265 1 19.7825 16.6173 38.7737
6266 1 21.3651 18.1999 40.3563
6267 1 19.7825 16.6173 41.9389
6268 1 21.3651 18.1999 43.5215
6269 1 19.7825 16.6173 45.1041
6270 1 21.3651 18.1999 46.6867
6271 1 19.7825 16.6173 48.2693
6272 1 21.3651 18.1999 49.8519
6273 1 19.7825 19.7825 38.7737
6274 1 21.3651 21.3651 40.3563
6275 1 19.7825 19.7825 41.9389
6276 1 21.3651 21.3651 43.5215
6277 1 19.7825 19.7825 45.1041
6278 1 21.3651 21.3651 46.6867
6279 1 19.7825 19.7825 48.2693
6280 1 21.3651 21.3651 49.8519
6281 1 19.7825 22.9477 38.7737
6282 1 21.3651 24.5303 40.3563
6283 1 19.7825 22.9477 41.9389
6284 1 21.3651 24.5303 43.5215
6285 1 19.7825 22.9477 45.1041
6286 1 21.3651 24.5303 46.6867
6287 1 19.7825 22.9477 48.2693
6288 1 21.3651 24.5303 49.8519
6289 1 19.7825 26.1129 38.7737
6290 1 21.3651 27.6955 40.3563
6291 1 19.7825 26.1129 41.9389
6292 1 21.3651 27.6955 43.5215
6293 1 19.7825 26.1129 45.1041
6294 1 21.3651 27.6955 46.6867
6295 1 19.7825 26.1129 48.2693
6296 1 21.3651 27.6955 49.8519
6297 1 19.7825 29.2781 38.7737
6298 1 21.3651 30.8607 40.3563
6299 1 19.7825 29.2781 41.9389
6300 1 21.3651 30.8607 43.5215
6301 1 19.7825 29.2781 45.1041
6302 1 21.3651 30.8607 46.6867
6303 1 19.7825 29.2781 48.2693
6304 1 21.3651 30.8607 49.8519
6305 1 19.7825 32.4433 38.7737
6306 1 21.3651 34.0259 40.3563
6307 1 19.7825 32.4433 41.9389
6308 1 21.3651 34.0259 43.5215
6309 1 19.7825 32.4433 45.1041
6310 1 21.3651 34.0259 46.6867
6311 1 19.7825 32.4433 48.2693
6312 1 21.3651 34.0259 49.8519
6313 1 19.7825 35.6085 38.7737
6314 1 21.3651 37.1911 40.3563
6315 1 19.7825 35.6085 41.9389
6316 1 21.3651 37.1911 43.5215
6317 1 19.7825 35.6085 45.1041
6318 1 21.3651 37.1911 46.6867
6319 1 19.7825 35.6085 48.2693
6320 1 21.3651 37.1911 49.8519
6321 1 19.7825 38.7737 38.7737
6322 1 21.3651 40.3563 40.3563
6323 1 19.7825 38.7737 41.9389
6324 1 21.3651 40.3563 43.5215
6325 1 19.7825 38.7737 45.1041
6326 1 21.3651 40.3563 46.6867
6327 1 19.7825 38.7737 48.2693
6328 1 21.3651 40.3563 49.8519
6329 1 19.7825 41.9389 38.7737
6330 1 21.3651 43.5215 40.3563
6331 1 19.7825 41.9389 41.9389
6332 1 21.3651 43.5215 43.5215
6333 1 19.7825 41.9389 45.1041
6334 1 21.3651 43.5215 46.6867
6335 1 19.7825 41.9389 48.2693
6336 1 21.3651 43.5215 49.8519
6337 1 19.7825 45.1041 38.7737
6338 1 21.3651 46.6867 40.3563
6339 1 19.7825 45.1041 41.9389
6340 1 21.3651 46.6867 43.5215
6341 1 19.7825 45.1041 45.1041
6342 1 21.3651 46.6867 46.6867
6343 1 19.7825 45.1041 48.2693
6344 1 21.3651 46.6867 49.8519
6345 1 19.7825 48.2693 38.7737
6346 1 21.3651 49.8519 40.3563
6347 1 19.7825 48.2693 41.9389
6348 1 21.3651 49.8519 43.5215
6349 1 19.7825 48.2693 45.1041
6350 1 21.3651 49.8519 46.6867
6351 1 19.7825 48.2693 48.2693
6352 1 21.3651 49.8519 49.8519
6353 1 22.9477 0.7913 38.7737
6354 1 24.5303 2.3739 40.3563
6355 1 22.9477 0.7913 41.9389
6356 1 24.5303 2.3739 43.5215
6357 1 22.9477 0.7913 45.1041
6358 1 24.5303 2.3739 46.6867
6359 1 22.9477 0.7913 48.2693
6360 1 24.5303 2.3739 49.8519
6361 1 22.9477 3.9565 38.7737
6362 1 24.5303 5.5391 40.3563
6363 1 22.9477 3.9565 41.9389
6364 1 24.5303 5.5391 43.5215
6365 1 22.9477 3.9565 45.1041
6366 1 24.5303 5.5391 46.6867
6367 1 22.9477 3.9565 48.2693
6368 1 24.5303 5.5391 49.8519
6369 1 22.9477 7.1217 38.7737
6370 1 24.5303 8.7043 40.3563
6371 1 22.9477 7.1217 41.9389
6372 1 24.5303 8.7043 43.5215
6373 1 22.9477 7.1217 45.1041
6374 1 24.5303 8.7043 46.6867
6375 1 22.9477 7.1217 48.2693
6376 1 24.5303 8.7043 49.8519
6377 1 22.9477 10.2869 38.7737
6378 1 24.5303 11.8695 40.3563
6379 1 22.9477 10.2869 41.9389
6380 1 24.5303 11.8695 43.5215
6381 1 22.9477 10.2869 45.1041
6382 1 24.5303 11.8695 46.6867
6383 1 22.9477 10.2869 48.2693
6384 1 24.5303 11.8695 49.8519
6385 1 22.9477 13.4521 38.7737
6386 1 24.5303 15.0347 40.3563
6387 1 22.9477 13.4521 41.9389
6388 1 24.5303 15.0347 43.5215
6389 1 22.9477 13.4521 45.1041
6390 1 24.5303 15.0347 46.6867
6391 1 22.9477 13.4521 48.2693
6392 1 24.5303 15.0347 49.8519
6393 1 22.9477 16.6173 38.7737
6394 1 24.5303 18.1999 40.3563
6395 1 22.9477 16.6173 41.9389
6396 1 24.5303 18.1999 43.5215
6397 1 22.9477 16.6173 45.1041
6398 1 24.5303 18.1999 46.6867
6399 1 22.9477 16.6173 48.2693
6400 1 24.5303 18.1999 49.8519
6401 1 22.9477 19.7825 38.7737
6402 1 24.5303 21.3651 40.3563
6403 1 22.9477 19.7825 41.9389
6404 1 24.5303 21.3651 43.5215
6405 1 22.9477 19.7825 45.1041
6406 1 24.5303 21.3651 46.6867
6407 1 22.9477 19.7825 48.2693
6408 1 24.5303 21.3651 49.8519
6409 1 22.9477 22.9477 38.7737
6410 1 24.5303 24.5303 40.3563
6411 1 22.9477 22.9477 41.9389
6412 1 24.5303 24.5303 43.5215
6413 1 22.9477 22.9477 45.1041
6414 1 24.5303 24.5303 46.6867
6415 1 22.9477 22.9477 48.2693
6416 1 24.5303 24.5303 49.8519
6417 1 22.9477 26.1129 38.7737
6418 1 24.5303 27.6955 40.3563
6419 1 22.9477 26.1129 41.9389
6420 1 24.5303 27.6955 43.5215
6421 1 22.9477 26.1129 45.1041
6422 1 24.5303 27.6955 46.6867
6423 1 22.9477 26.1129 48.2693
6424 1 24.5303 27.6955 49.8519
6425 1 22.9477 29.2781 38.7737
6426 1 24.5303 30.8607 40.3563
6427 1 22.9477 29.2781 41.9389
6428 1 24.5303 30.8607 43.5215
6429 1 22.9477 29.2781 45.1041
6430 1 24.5303 30.8607 46.6867
6431 1 22.9477 29.2781 48.2693
6432 1 24.5303 30.8607 49.8519
6433 1 22.9477 32.4433 38.7737
6434 1 24.5303 34.0259 40.3563
6435 1 22.9477 32.4433 41.9389
6436 1 24.5303 34.0259 43.5215
6437 1 22.9477 32.4433 45.1041
6438 1 24.5303 34.0259 46.6867
6439 1 22.9477 32.4433 48.2693
6440 1 24.5303 34.0259 49.8519
6441 1 22.9477 35.6085 38.7737
6442 1 24.5303 37.1911 40.3563
6443 1 22.9477 35.6085 41.9389
6444 1 24.5303 37.1911 43.5215
6445 1 22.9477 35.6085 45.1041
6446 1 24.5303 37.1911 46.6867
6447 1 22.9477 35.6085 48.2693
6448 1 24.5303 37.1911 49.8519
6449 1 22.9477 38.7737 38.7737
6450 1 24.5303 40.3563 40.3563
6451 1 22.9477 38.7737 41.9389
6452 1 24.5303 40.3563 43.5215
6453 1 22.9477 38.7737 45.1041
6454 1 24.5303 40.3563 46.6867
6455 1 22.9477 38.7737 48.2693
6456 1 24.5303 40.3563 49.8519
6457 1 22.9477 41.9389 38.7737
6458 1 24.5303 43.5215 40.3563
6459 1 22.9477 41.9389 41.9389
6460 1 24.5303 43.5215 43.5215
6461 1 22.9477 41.9389 45.1041
6462 1 24.5303 43.5215 46.6867
6463 1 22.9477 41.9389 48.2693
6464 1 24.5303 43.5215 49.8519
6465 1 22.9477 45.1041 38.7737
6466 1 24.5303 46.6867 40.3563
6467 1 22.9477 45.1041 41.9389
6468 1 24.5303 46.6867 43.5215
6469 1 22.9477 45.1041 45.1041
6470 1 24.5303 46.6867 46.6867
6471 1 22.9477 45.1041 48.2693
6472 1 24.5303 46.6867 49.8519
6473 1 22.9477 48.2693 38.7737
6474 1 24.5303 49.8519 40.3563
6475 1 22.9477 48.2693 41.9389
6476 1 24.5303 49.8519 43.5215
6477 1 22.9477 48.2693 45.1041
6478 1 24.5303 49.8519 46.6867
6479 1 22.9477 48.2693 48.2693
6480 1 24.5303 49.8519 49.8519
6481 1 26.1129 0.7913 38.7737
6482 1 27.6955 2.3739 40.3563
6483 1 26.1129 0.7913 41.9389
6484 1 27.6955 2.3739 43.5215
6485 1 26.1129 0.7913 45.1041
6486 1 27.6955 2.3739 46.6867
6487 1 26.1129 0.7913 48.2693
6488 1 27.6955 2.3739 49.8519
6489 1 26.1129 3.9565 38.7737
6490 1 27.6955 5.5391 40.3563
6491 1 26.1129 3.9565 41.9389
6492 1 27.6955 5.5391 43.5215
6493 1 26.1129 3.9565 45.1041
6494 1 27.6955 5.5391 46.6867
6495 1 26.1129 3.9565 48.2693
6496 1 27.6955 5.5391 49.8519
6497 1 26.1129 7.1217 38.7737
6498 1 27.6955 8.7043 40.3563
6499 1 26.1129 7.1217 41.9389
6500 1 27.6955 8.7043 43.5215
6501 1 26.1129 7.1217 45.1041
6502 1 27.6955 8.7043 46.6867
6503 1 26.1129 7.1217 48.2693
6504 1 27.6955 8.7043 49.8519
6505 1 26.1129 10.2869 38.7737
6506 1 27.6955 11.8695 40.3563
6507 1 26.1129 10.2869 41.9389
6508 1 27.6955 11.8695 43.5215
6509 1 26.1129 10.2869 45.1041
6510 1 27.6955 11.8695 46.6867
6511 1 26.1129 10.2869 48.2693
6512 1 27.6955 11.8695 49.8519
6513 1 26.1129 13.4521 38.7737
6514 1 27.6955 15.0347 40.3563
6515 1 26.1129 13.4521 41.9389
6516 1 27.6955 15.0347 43.5215
6517 1 26.1129 13.4521 45.1041
6518 1 27.6955 15.0347 46.6867
6519 1 26.1129 13.4521 48.2693
6520 1 27.6955 15.0347 49.8519
6521 1 26.1129 16.6173 38.7737
6522 1 27.6955 18.1999 40.3563
6523 1 26.1129 16.6173 41.9389
6524 1 27.6955 18.1999 43.5215
6525 1 26.1129 16.6173 45.1041
6526 1 27.6955 18.1999 46.6867
6527 1 26.1129 16.6173 48.2693
6528 1 27.6955 18.1999 49.8519
6529 1 26.1129 19.7825 38.7737
6530 1 27.6955 21.3651 40.3563
6531 1 26.1129 19.7825 41.9389
6532 1 27.6955 21.3651 43.5215
6533 1 26.1129 19.7825 45.1041
6534 1 27.6955 21.3651 46.6867
6535 1 26.1129 19.7825 48.2693
6536 1 27.6955 21.3651 49.8519
6537 1 26.1129 22.9477 38.7737
6538 1 27.6955 24.5303 40.3563
6539 1 26.1129 22.9477 41.9389
6540 1 27.6955 24.5303 43.5215
6541 1 26.1129 22.9477 45.1041
6542 1 27.6955 24.5303 46.6867
6543 1 26.1129 22.9477 48.2693
6544 1 27.6955 24.5303 49.8519
6545 1 26.1129 26.1129 38.7737
6546 1 27.6955 27.6955 40.3563
6547 1 26.1129 26.1129 41.9389
6548 1 27.6955 27.6955 43.5215
6549 1 26.1129 26.1129 45.1041
6550 1 27.6955 27.6955 46.6867
6551 1 26.1129 26.1129 48.2693
6552 1 27.6955 27.6955 49.8519
6553 1 26.1129 29.2781 38.7737
6554 1 27.6955 30.8607 40.3563
6555 1 26.1129 29.2781 41.9389
6556 1 27.6955 30.8607 43.5215
6557 1 26.1129 29.2781 45.1041
6558 1 27.6955 30.8607 46.6867
6559 1 26.1129 29.2781 48.2693
6560 1 27.6955 30.8607 49.8519
6561 1 26.1129 32.4433 38.7737
6562 1 27.6955 34.0259 40.3563
6563 1 26.1129 32.4433 41.9389
6564 1 27.6955 34.0259 43.5215
6565 1 26.1129 32.4433 45.1041
6566 1 27.6955 34.0259 46.6867
6567 1 26.1129 32.4433 48.2693
6568 1 27.6955 34.0259 49.8519
6569 1 26.1129 35.6085 38.7737
6570 1 27.6955 37.1911 40.3563
6571 1 26.1129 35.6085 41.9389
6572 1 27.6955 37.1911 43.5215
6573 1 26.1129 35.6085 45.1041
6574 1 27.6955 37.1911 46.6867
6575 1 26.1129 35.6085 48.2693
6576 1 27.6955 37.1911 49.8519
6577 1 26.1129 38.7737 38.7737
6578 1 27.6955 40.3563 40.3563
6579 1 26.1129 38.7737 41.9389
6580 1 27.6955 40.3563 43.5215
6581 1 26.1129 38.7737 45.1041
6582 1 27.6955 40.3563 46.6867
6583 1 26.1129 38.7737 48.2693
6584 1 27.6955 40.3563 49.8519
6585 1 26.1129 41.9389 38.7737
6586 1 27.6955 43.5215 40.3563
6587 1 26.1129 41.9389 41.9389
6588 1 27.6955 43.5215 43.5215
6589 1 26.1129 41.9389 45.1041
6590 1 27.6955 43.5215 46.6867
6591 1 26.1129 41.9389 48.2693
6592 1 27.6955 43.5215 49.8519
6593 1 26.1129 45.1041 38.7737
6594 1 27.6955 46.6867 40.3563
6595 1 26.1129 45.1041 41.9389
6596 1 27.6955 46.6867 43.5215
6597 1 26.1129 45.1041 45.1041
6598 1 27.6955 46.6867 46.6867
6599 1 26.1129 45.1041 48.2693
6600 1 27.6955 46.6867 49.8519
6601 1 26.1129 48.2693 38.7737
6602 1 27.6955 49.8519 40.3563
6603 1 26.1129 48.2693 41.9389
6604 1 27.6955 49.8519 43.5215
6605 1 26.1129 48.2693 45.1041
6606 1 27.6955 49.8519 46.6867
6607 1 26.1129 48.2693 48.2693
6608 1 27.6955 49.8519 49.8519
6609 1 29.2781 0.7913 38.7737
6610 1 30.8607 2.3739 40.3563
6611 1 29.2781 0.7913 41.9389
6612 1 30.8607 2.3739 43.5215
6613 1 29.2781 0.7913 45.1041
6614 1 30.8607 2.3739 46.6867
6615 1 29.2781 0.7913 48.2693
6616 1 30.8607 2.3739 49.8519
6617 1 29.2781 3.9565 38.7737
6618 1 30.8607 5.5391 40.3563
6619 1 29.2781 3.9565 41.9389
6620 1 30.8607 5.5391 43.5215
6621 1 29.2781 3.9565 45.1041
6622 1 30.8607 5.5391 46.6867
6623 1 29.2781 3.9565 48.2693
6624 1 30.8607 5.5391 49.8519
6625 1 29.2781 7.1217 38.7737
6626 1 30.8607 8.7043 40.3563
6627 1 29.2781 7.1217 41.9389
6628 1 30.8607 8.7043 43.5215
6629 1 29.2781 7.1217 45.1041
6630 1 30.8607 8.7043 46.6867
6631 1 29.2781 7.1217 48.2693
6632 1 30.8607 8.7043 49.8519
6633 1 29.2781 10.2869 38.7737
6634 1 30.8607 11.8695 40.3563
6635 1 29.2781 10.2869 41.9389
6636 1 30.8607 11.8695 43.5215
6637 1 29.2781 10.2869 45.1041
6638 1 30.8607 11.8695 46.6867
6639 1 29.2781 10.2869 48.2693
6640 1 30.8607 11.8695 49.8519
6641 1 29.2781 13.4521 38.7737
6642 1 30.8607 15.0347 40.3563
6643 1 29.2781 13.4521 41.9389
6644 1 30.8607 15.0347 43.5215
6645 1 29.2781 13.4521 45.1041
6646 1 30.8607 15.0347 46.6867
6647 1 29.2781 13.4521 48.2693
6648 1 30.8607 15.0347 49.8519
6649 1 29.2781 16.6173 38.7737
6650 1 30.8607 18.1999 40.3563
6651 1 29.2781 16.6173 41.9389
6652 1 30.8607 18.1999 43.5215
6653 1 29.2781 16.6173 45.1041
6654 1 30.8607 18.1999 46.6867
6655 1 29.2781 16.6173 48.2693
6656 1 30.8607 18.1999 49.8519
6657 1 29.2781 19.7825 38.7737
6658 1 30.8607 21.3651 40.3563
6659 1 29.2781 19.7825 41.9389
6660 1 30.8607 21.3651 43.5215
6661 1 29.2781 19.7825 45.1041
6662 1 30.8607 21.3651 46.6867
6663 1 29.2781 19.7825 48.2693
6664 1 30.8607 21.3651 49.8519
6665 1 29.2781 22.9477 38.7737
6666 1 30.8607 24.5303 40.3563
6667 1 29.2781 22.9477 41.9389
6668 1 30.8607 24.5303 43.5215
6669 1 29.2781 22.9477 45.1041
6670 1 30.8607 24.5303 46.6867
6671 1 29.2781 22.9477 48.2693
6672 1 30.8607 24.5303 49.8519
6673 1 29.2781 26.1129 38.7737
6674 1 30.8607 27.6955 40.3563
6675 1 29.2781 26.1129 41.9389
6676 1 30.8607 27.6955 43.5215
6677 1 29.2781 26.1129 45.1041
6678 1 30.8607 27.6955 46.6867
6679 1 29.2781 26.1129 48.2693
6680 1 30.8607 27.6955 49.8519
6681 1 29.2781 29.2781 38.7737
6682 1 30.8607 30.8607 40.3563
6683 1 29.2781 29.2781 41.9389
6684 1 30.8607 30.8607 43.5215
6685 1 29.2781 29.2781 45.1041
6686 1 30.8607 30.8607 46.6867
6687 1 29.2781 29.2781 48.2693
6688 1 30.8607 30.8607 49.8519
6689 1 29.2781 32.4433 38.7737
6690 1 30.8607 34.0259 40.3563
6691 1 29.2781 32.4433 41.9389
6692 1 30.8607 34.0259 43.5215
6693 1 29.2781 32.4433 45.1041
6694 1 30.8607 34.0259 46.6867
6695 1 29.2781 32.4433 48.2693
6696 1 30.8607 34.0259 49.8519
6697 1 29.2781 35.6085 38.7737
6698 1 30.8607 37.1911 40.3563
6699 1 29.2781 35.6085 41.9389
6700 1 30.8607 37.1911 43.5215
6701 1 29.2781 35.6085 45.1041
6702 1 30.8607 37.1911 46.6867
6703 1 29.2781 35.6085 48.2693
6704 1 30.8607 37.1911 49.8519
6705 1 29.2781 38.7737 38.7737
6706 1 30.8607 40.3563 40.3563
6707 1 29.2781 38.7737 41.9389
6708 1 30.8607 40.3563 43.5215
6709 1 29.2781 38.7737 45.1041
6710 1 30.8607 40.3563 46.6867
6711 1 29.2781 38.7737 48.2693
6712 1 30.8607 40.3563 49.8519
6713 1 29.2781 41.9389 38.7737
6714 1 30.8607 43.5215 40.3563
6715 1 29.2781 41.9389 41.9389
6716 1 30.8607 43.5215 43.5215
6717 1 29.2781 41.9389 45.1041
6718 1 30.8607 43.5215 46.6867
6719 1 29.2781 41.9389 48.2693
6720 1 30.8607 43.5215 49.8519
6721 1 29.2781 45.1041 38.7737
6722 1 30.8607 46.6867 40.3563
6723 1 29.2781 45.1041 41.9389
6724 1 30.8607 46.6867 43.5215
6725 1 29.2781 45.1041 45.1041
6726 1 30.8607 46.6867 46.6867
6727 1 29.2781 45.1041 48.2693
6728 1 30.8607 46.6867 49.8519
6729 1 29.2781 48.2693 38.7737
6730 1 30.8607 49.8519 40.3563
6731 1 29.2781 48.2693 41.9389
6732 1 30.8607 49.8519 43.5215
6733 1 29.2781 48.2693 45.1041
6734 1 30.8607 49.8519 46.6867
6735 1 29.2781 48.2693 48.2693
6736 1 30.8607 49.8519 49.8519
6737 1 32.4433 0.7913 38.7737
6738 1 34.0259 2.3739 40.3563
6739 1 32.4433 0.7913 41.9389
6740 1 34.0259 2.3739 43.5215
6741 1 32.4433 0.7913 45.1041
6742 1 34.0259 2.3739 46.6867
6743 1 32.4433 0.7913 48.2693
6744 1 34.0259 2.3739 49.8519
6745 1 32.4433 3.9565 38.7737
6746 1 34.0259 5.5391 40.3563
6747 1 32.4433 3.9565 41.9389
6748 1 34.0259 5.5391 43.5215
6749 1 32.4433 3.9565 45.1041
6750 1 34.0259 5.5391 46.6867
6751 1 32.4433 3.9565 48.2693
6752 1 34.0259 5.5391 49.8519
6753 1 32.4433 7.1217 38.7737
6754 1 34.0259 8.7043 40.3563
6755 1 32.4433 7.1217 41.9389
6756 1 34.0259 8.7043 43.5215
6757 1 32.4433 7.1217 45.1041
6758 1 34.0259 8.7043 46.6867
6759 1 32.4433 7.1217 48.2693
6760 1 34.0259 8.7043 49.8519
6761 1 32.4433 10.2869 38.7737
6762 1 34.0259 11.8695 40.3563
6763 1 32.4433 10.2869 41.9389
6764 1 34.0259 11.8695 43.5215
6765 1 32.4433 10.2869 45.1041
6766 1 34.0259 11.8695 46.6867
6767 1 32.4433 10.2869 48.2693
6768 1 34.0259 11.8695 49.8519
6769 1 32.4433 13.4521 38.7737
6770 1 34.0259 15.0347 40.3563
6771 1 32.4433 13.4521 41.9389
6772 1 34.0259 15.0347 43.5215
6773 1 32.4433 13.4521 45.1041
6774 1 34.0259 15.0347 46.6867
6775 1 32.4433 13.4521 48.2693
6776 1 34.0259 15.0347 49.8519
6777 1 32.4433 16.6173 38.7737
6778 1 34.0259 18.1999 40.3563
6779 1 32.4433 16.6173 41.9389
6780 1 34.0259 18.1999 43.5215
6781 1 32.4433 16.6173 45.1041
6782 1 34.0259 18.1999 46.6867
6783 1 32.4433 16.6173 48.2693
6784 1 34.0259 18.1999 49.8519
6785 1 32.4433 19.7825 38.7737
6786 1 34.0259 21.3651 40.3563
6787 1 32.4433 19.7825 41.9389
6788 1 34.0259 21.3651 43.5215
6789 1 32.4433 19.7825 45.1041
6790 1 34.0259 21.3651 46.6867
6791 1 32.4433 19.7825 48.2693
6792 1 34.0259 21.3651 49.8519
6793 1 32.4433 22.9477 38.7737
6794 1 34.0259 24.5303 40.3563
6795 1 32.4433 22.9477 41.9389
6796 1 34.0259 24.5303 43.5215
6797 1 32.4433 22.9477 45.1041
6798 1 34.0259 24.5303 46.6867
6799 1 32.4433 22.9477 48.2693
6800 1 34.0259 24.5303 49.8519
6801 1 32.4433 26.1129 38.7737
6802 1 34.0259 27.6955 40.3563
6803 1 32.4433 26.1129 41.9389
6804 1 34.0259 27.6955 43.5215
6805 1 32.4433 26.1129 45.1041
6806 1 34.0259 27.6955 46.6867
6807 1 32.4433 26.1129 48.2693
6808 1 34.0259 27.6955 49.8519
6809 1 32.4433 29.2781 38.7737
6810 1 34.0259 30.8607 40.3563
6811 1 32.4433 29.2781 41.9389
6812 1 34.0259 30.8607 43.5215
6813 1 32.4433 29.2781 45.1041
6814 1 34.0259 30.8607 46.6867
6815 1 32.4433 29.2781 48.2693
6816 1 34.0259 30.8607 49.8519
6817 1 32.4433 32.4433 38.7737
6818 1 34.0259 34.0259 40.3563
6819 1 32.4433 32.4433 41.9389
6820 1 34.0259 34.0259 43.5215
6821 1 32.4433 32.4433 45.1041
6822 1 34.0259 34.0259 46.6867
6823 1 32.4433 32.4433 48.2693
6824 1 34.0259 34.0259 49.8519
6825 1 32.4433 35.6085 38.7737
6826 1 34.0259 37.1911 40.3563
6827 1 32.4433 35.6085 41.9389
6828 1 34.0259 37.1911 43.5215
6829 1 32.4433 35.6085 45.1041
6830 1 34.0259 37.1911 46.6867
6831 1 32.4433 35.6085 48.2693
6832 1 34.0259 37.1911 49.8519
6833 1 32.4433 38.7737 38.7737
6834 1 34.0259 40.3563 40.3563
6835 1 32.4433 38.7737 41.9389
6836 1 34.0259 40.3563 43.5215
6837 1 32.4433 38.7737 45.1041
6838 1 34.0259 40.3563 46.6867
6839 1 32.4433 38.7737 48.2693
6840 1 34.0259 40.3563 49.8519
6841 1 32.4433 41.9389 38.7737
6842 1 34.0259 43.5215 40.3563
6843 1 32.4433 41.9389 41.9389
6844 1 34.0259 43.5215 43.5215
6845 1 32.4433 41.9389 45.1041
6846 1 34.0259 43.5215 46.6867
6847 1 32.4433 41.9389 48.2693
6848 1 34.0259 43.5215 49.8519
6849 1 32.4433 45.1041 38.7737
6850 1 34.0259 46.6867 40.3563
6851 1 32.4433 45.1041 41.9389
6852 1 34.0259 46.6867 43.5215
6853 1 32.4433 45.1041 45.1041
6854 1 34.0259 46.6867 46.6867
6855 1 32.4433 45.1041 48.2693
6856 1 34.0259 46.6867 49.8519
6857 1 32.4433 48.2693 38.7737
6858 1 34.0259 49.8519 40.3563
6859 1 32.4433 48.2693 41.9389
6860 1 34.0259 49.8519 43.5215
6861 1 32.4433 48.2693 45.1041
6862 1 34.0259 49.8519 46.6867
6863 1 32.4433 48.2693 48.2693
6864 1 34.0259 49.8519 49.8519
6865 1 35.6085 0.7913 38.7737
6866 1 37.1911 2.3739 40.3563
6867 1 35.6085 0.7913 41.9389
6868 1 37.1911 2.3739 43.5215
6869 1 35.6085 0.7913 45.1041
6870 1 37.1911 2.3739 46.6867
6871 1 35.6085 0.7913 48.2693
6872 1 37.1911 2.3739 49.8519
6873 1 35.6085 3.9565 38.7737
6874 1 37.1911 5.5391 40.3563
6875 1 35.6085 3.9565 41.9389
6876 1 37.1911 5.5391 43.5215
6877 1 35.6085 3.9565 45.1041
6878 1 37.1911 5.5391 46.6867
6879 1 35.6085 3.9565 48.2693
6880 1 37.1911 5.5391 49.8519
6881 1 35.6085 7.1217 38.7737
6882 1 37.1911 8.7043 40.3563
6883 1 35.6085 7.1217 41.9389
6884 1 37.1911 8.7043 43.5215
6885 1 35.6085 7.1217 45.1041
6886 1 37.1911 8.7043 46.6867
6887 1 35.6085 7.1217 48.2693
6888 1 37.1911 8.7043 49.8519
6889 1 35.6085 10.2869 38.7737
6890 1 37.1911 11.8695 40.3563
6891 1 35.6085 10.2869 41.9389
6892 1 37.1911 11.8695 43.5215
6893 1 35.6085 10.2869 45.1041
6894 1 37.1911 11.8695 46.6867
6895 1 35.6085 10.2869 48.2693
6896 1 37.1911 11.8695 49.8519
6897 1 35.6085 13.4521 38.7737
6898 1 37.1911 15.0347 40.3563
6899 1 35.6085 13.4521 41.9389
6900 1 37.1911 15.0347 43.5215
6901 1 35.6085 13.4521 45.1041
6902 1 37.1911 15.0347 46.6867
6903 1 35.6085 13.4521 48.2693
6904 1 37.1911 15.0347 49.8519
6905 1 35.6085 16.6173 38.7737
6906 1 37.1911 18.1999 40.3563
6907 1 35.6085 16.6173 41.9389
6908 1 37.1911 18.1999 43.5215
6909 1 35.6085 16.6173 45.1041
6910 1 37.1911 18.1999 46.6867
6911 1 35.6085 16.6173 48.2693
6912 1 37.1911 18.1999 49.8519
6913 1 35.6085 19.7825 38.7737
6914 1 37.1911 21.3651 40.3563
6915 1 35.6085 19.7825 41.9389
6916 1 37.1911 21.3651 43.5215
6917 1 35.6085 19.7825 45.1041
6918 1 37.1911 21.3651 46.6867
6919 1 35.6085 19.7825 48.2693
6920 1 37.1911 21.3651 49.8519
6921 1 35.6085 22.9477 38.7737
6922 1 37.1911 24.5303 40.3563
6923 1 35.6085 22.9477 41.9389
6924 1 37.1911 24.5303 43.5215
6925 1 35.6085 22.9477 45.1041
6926 1 37.1911 24.5303 46.6867
6927 1 35.6085 22.9477 48.2693
6928 1 37.1911 24.5303 49.8519
6929 1 35.6085 26.1129 38.7737
6930 1 37.1911 27.6955 40.3563
6931 1 35.6085 26.1129 41.9389
6932 1 37.1911 27.6955 43.5215
6933 1 35.6085 26.1129 45.1041
6934 1 37.1911 27.6955 46.6867
6935 1 35.6085 26.1129 48.2693
6936 1 37.1911 27.6955 49.8519
6937 1 35.6085 29.2781 38.7737
6938 1 37.1911 30.8607 40.3563
6939 1 35.6085 29.2781 41.9389
6940 1 37.1911 30.8607 43.5215
6941 1 35.6085 29.2781 45.1041
6942 1 37.1911 30.8607 46.6867
6943 1 35.6085 29.2781 48.2693
6944 1 37.1911 30.8607 49.8519
6945 1 35.6085 32.4433 38.7737
6946 1 37.1911 34.0259 40.3563
6947 1 35.6085 32.4433 41.9389
6948 1 37.1911 34.0259 43.5215
6949 1 35.6085 32.4433 45.1041
6950 1 37.1911 34.0259 46.6867
6951 1 35.6085 32.4433 48.2693
6952 1 37.1911 34.0259 49.8519
6953 1 35.6085 35.6085 38.7737
6954 1 37.1911 37.1911 40.3563
6955 1 35.6085 35.6085 41.9389
6956 1 37.1911 37.1911 43.5215
6957 1 35.6085 35.6085 45.1041
6958 1 37.1911 37.1911 46.6867
6959 1 35.6085 35.6085 48.2693
6960 1 37.1911 37.1911 49.8519
6961 1 35.6085 38.7737 38.7737
6962 1 37.1911 40.3563 40.3563
6963 1 35.6085 38.7737 41.9389
6964 1 37.1911 40.3563 43.5215
6965 1 35.6085 38.7737 45.1041
6966 1 37.1911 40.3563 46.6867
6967 1 35.6085 38.7737 48.2693
6968 1 37.1911 40.3563 49.8519
6969 1 35.6085 41.9389 38.7737
6970 1 37.1911 43.5215 40.3563
6971 1 35.6085 41.9389 41.9389
6972 1 37.1911 43.5215 43.5215
6973 1 35.6085 41.9389 45.1041
6974 1 37.1911 43.5215 46.6867
6975 1 35.6085 41.9389 48.2693
6976 1 37.1911 43.5215 49.8519
6977 1 35.6085 45.1041 38.7737
6978 1 37.1911 46.6867 40.3563
6979 1 35.6085 45.1041 41.9389
6980 1 37.1911 46.6867 43.5215
6981 1 35.6085 45.1041 45.1041
6982 1 37.1911 46.6867 46.6867
6983 1 35.6085 45.1041 48.2693
6984 1 37.1911 46.6867 49.8519
6985 1 35.6085 48.2693 38.7737
6986 1 37.1911 49.8519 40.3563
6987 1 35.6085 48.2693 41.9389
6988 1 37.1911 49.8519 43.5215
6989 1 35.6085 48.2693 45.1041
6990 1 37.1911 49.8519 46.6867
6991 1 35.6085 48.2693 48.2693
6992 1 37.1911 49.8519 49.8519
6993 1 38.7737 0.7913 38.7737
6994 1 40.3563 2.3739 40.3563
6995 1 38.7737 0.7913 41.9389
6996 1 40.3563 2.3739 43.5215
6997 1 38.7737 0.7913 45.1041
6998 1 40.3563 2.3739 46.6867
6999 1 38.7737 0.7913 48.2693
7000 1 40.3563 2.3739 49.8519
7001 1 38.7737 3.9565 38.7737
7002 1 40.3563 5.5391 40.3563
7003 1 38.7737 3.9565 41.9389
7004 1 40.3563 5.5391 43.5215
7005 1 38.7737 3.9565 45.1041
7006 1 40.3563 5.5391 46.6867
7007 1 38.7737 3.9565 48.2693
7008 1 40.3563 5.5391 49.8519
7009 1 38.7737 7.1217 38.7737
7010 1 40.3563 8.7043 40.3563
7011 1 38.7737 7.1217 41.9389
7012 1 40.3563 8.7043 43.5215
7013 1 38.7737 7.1217 45.1041
7014 1 40.3563 8.7043 46.6867
7015 1 38.7737 7.1217 48.2693
7016 1 40.3563 8.7043 49.8519
7017 1 38.7737 10.2869 38.7737
7018 1 40.3563 11.8695 40.3563
7019 1 38.7737 10.2869 41.9389
7020 1 40.3563 11.8695 43.5215
7021 1 38.7737 10.2869 45.1041
7022 1 40.3563 11.8695 46.6867
7023 1 38.7737 10.2869 48.2693
7024 1 40.3563 11.8695 49.8519
7025 1 38.7737 13.4521 38.7737
7026 1 40.3563 15.0347 40.3563
7027 1 38.7737 13.4521 41.9389
7028 1 40.3563 15.0347 43.5215
7029 1 38.7737 13.4521 45.1041
7030 1 40.3563 15.0347 46.6867
7031 1 38.7737 13.4521 48.2693
7032 1 40.3563 15.0347 49.8519
7033 1 38.7737 16.6173 38.7737
7034 1 40.3563 18.1999 40.3563
7035 1 38.7737 16.6173 41.9389
7036 1 40.3563 18.1999 43.5215
7037 1 38.7737 16.6173 45.1041
7038 1 40.3563 18.1999 46.6867
7039 1 38.7737 16.6173 48.2693
7040 1 40.3563 18.1999 49.8519
7041 1 38.7737 19.7825 38.7737
7042 1 40.3563 21.3651 40.3563
7043 1 38.7737 19.7825 41.9389
7044 1 40.3563 21.3651 43.5215
7045 1 38.7737 19.7825 45.1041
7046 1 40.3563 21.3651 46.6867
7047 1 38.7737 19.7825 48.2693
7048 1 40.3563 21.3651 49.8519
7049 1 38.7737 22.9477 38.7737
7050 1 40.3563 24.5303 40.3563
7051 1 38.7737 22.9477 41.9389
7052 1 40.3563 24.5303 43.5215
7053 1 38.7737 22.9477 45.1041
7054 1 40.3563 24.5303 46.6867
7055 1 38.7737 22.9477 48.2693
7056 1 40.3563 24.5303 49.8519
7057 1 38.7737 26.1129 38.7737
7058 1 40.3563 27.6955 40.3563
7059 1 38.7737 26.1129 41.9389
7060 1 40.3563 27.6955 43.5215
7061 1 38.7737 26.1129 45.1041
7062 1 40.3563 27.6955 46.6867
7063 1 38.7737 26.1129 48.2693
7064 1 40.3563 27.6955 49.8519
7065 1 38.7737 29.2781 38.7737
7066 1 40.3563 30.8607 40.3563
7067 1 38.7737 29.2781 41.9389
7068 1 40.3563 30.8607 43.5215
7069 1 38.7737 29.2781 45.1041
7070 1 40.3563 30.8607 46.6867
7071 1 38.7737 29.2781 48.2693
7072 1 40.3563 30.8607 49.8519
7073 1 38.7737 32.4433 38.7737
7074 1 40.3563 34.0259 40.3563
7075 1 38.7737 32.4433 41.9389
7076 1 40.3563 34.0259 43.5215
7077 1 38.7737 32.4433 45.1041
7078 1 40.3563 34.0259 46.6867
7079 1 38.7737 32.4433 48.2693
7080 1 40.3563 34.0259 49.8519
7081 1 38.7737 35.6085 38.7737
7082 1 40.3563 37.1911 40.3563
7083 1 38.7737 35.6085 41.9389
7084 1 40.3563 37.1911 43.5215
7085 1 38.7737 35.6085 45.1041
7086 1 40.3563 37.1911 46.6867
7087 1 38.7737 35.6085 48.2693
7088 1 40.3563 37.1911 49.8519
7089 1 38.7737 38.7737 38.7737
7090 1 40.3563 40.3563 40.3563
7091 1 38.7737 38.7737 41.9389
7092 1 40.3563 40.3563 43.5215
7093 1 38.7737 38.7737 45.1041
7094 1 40.3563 40.3563 46.6867
7095 1 38.7737 38.7737 48.2693
7096 1 40.3563 40.3563 49.8519
7097 1 38.7737 41.9389 38.7737
7098 1 40.3563 43.5215 40.3563
7099 1 38.7737 41.9389 41.9389
7100 1 40.3563 43.5215 43.5215
7101 1 38.7737 41.9389 45.1041
7102 1 40.3563 43.5215 46.6867
7103 1 38.7737 41.9389 48.2693
7104 1 40.3563 43.5215 49.8519
7105 1 38.7737 45.1041 38.7737
7106 1 40.3563 46.6867 40.3563
7107 1 38.7737 45.1041 41.9389
7108 1 40.3563 46.6867 43.5215
7109 1 38.7737 45.1041 45.1041
7110 1 40.3563 46.6867 46.6867
7111 1 38.7737 45.1041 48.2693
7112 1 40.3563 46.6867 49.8519
7113 1 38.7737 48.2693 38.7737
7114 1 40.3563 49.8519 40.3563
7115 1 38.7737 48.2693 41.9389
7116 1 40.3563 49.8519 43.5215
7117 1 38.7737 48.2693 45.1041
7118 1 40.3563 49.8519 46.6867
7119 1 38.7737 48.2693 48.2693
7120 1 40.3563 49.8519 49.8519
7121 1 10.2869 0.7913 10.2869
7122 1 11.8695 2.3739 11.8695
7123 1 10.2869 0.7913 13.4521
7124 1 11.8695 2.3739 15.0347
7125 1 10.2869 0.7913 16.6173
7126 1 11.8695 2.3739 18.1999
7127 1 10.2869 0.7913 19.7825
7128 1 11.8695 2.3739 21.3651
7129 1 10.2869 0.7913 22.9477
7130 1 11.8695 2.3739 24.5303
7131 1 10.2869 0.7913 26.1129
7132 1 11.8695 2.3739 27.6955
7133 1 10.2869 0.7913 29.2781
7134 1 11.8695 2.3739 30.8607
7135 1 10.2869 0.7913 32.4433
7136 1 11.8695 2.3739 34.0259
7137 1 10.2869 0.7913 35.6085
7138 1 11.8695 2.3739 37.1911
7139 1 10.2869 3.9565 10.2869
7140 1 11.8695 5.5391 11.8695
7141 1 10.2869 3.9565 13.4521
7142 1 11.8695 5.5391 15.0347
7143 1 10.2869 3.9565 16.6173
7144 1 11.8695 5.5391 18.1999
7145 1 10.2869 3.9565 19.7825
7146 1 11.8695 5.5391 21.3651
7147 1 10.2869 3.9565 22.9477
7148 1 11.8695 5.5391 24.5303
7149 1 10.2869 3.9565 26.1129
7150 1 11.8695 5.5391 27.6955
7151 1 10.2869 3.9565 29.2781
7152 1 11.8695 5.5391 30.8607
7153 1 10.2869 3.9565 32.4433
7154 1 11.8695 5.5391 34.0259
7155 1 10.2869 3.9565 35.6085
7156 1 11.8695 5.5391 37.1911
7157 1 10.2869 7.1217 10.2869
7158 1 11.8695 8.7043 11.8695
7159 1 10.2869 7.1217 13.4521
7160 1 11.8695 8.7043 15.0347
7161 1 10.2869 7.1217 16.6173
7162 1 11.8695 8.7043 18.1999
7163 1 10.2869 7.1217 19.7825
7164 1 11.8695 8.7043 21.3651
7165 1 10.2869 7.1217 22.9477
7166 1 11.8695 8.7043 24.5303
7167 1 10.2869 7.1217 26.1129
7168 1 11.8695 8.7043 27.6955
7169 1 10.2869 7.1217 29.2781
7170 1 11.8695 8.7043 30.8607
7171 1 10.2869 7.1217 32.4433
7172 1 11.8695 8.7043 34.0259
7173 1 10.2869 7.1217 35.6085
7174 1 11.8695 8.7043 37.1911
7175 1 13.4521 0.7913 10.2869
7176 1 15.0347 2.3739 11.8695
7177 1 13.4521 0.7913 13.4521
7178 1 15.0347 2.3739 15.0347
7179 1 13.4521 0.7913 16.6173
7180 1 15.0347 2.3739 18.1999
7181 1 13.4521 0.7913 19.7825
7182 1 15.0347 2.3739 21.3651
7183 1 13.4521 0.7913 22.9477
7184 1 15.0347 2.3739 24.5303
7185 1 13.4521 0.7913 26.1129
7186 1 15.0347 2.3739 27.6955
7187 1 13.4521 0.7913 29.2781
7188 1 15.0347 2.3739 30.8607
7189 1 13.4521 0.7913 32.4433
7190 1 15.0347 2.3739 34.0259
7191 1 13.4521 0.7913 35.6085
7192 1 15.0347 2.3739 37.1911
7193 1 13.4521 3.9565 10.2869
7194 1 15.0347 5.5391 11.8695
7195 1 13.4521 3.9565 13.4521
7196 1 15.0347 5.5391 15.0347
7197 1 13.4521 3.9565 16.6173
7198 1 15.0347 5.5391 18.1999
7199 1 13.4521 3.9565 19.7825
7200 1 15.0347 5.5391 21.3651
7201 1 13.4521 3.9565 22.9477
7202 1 15.0347 5.5391 24.5303
7203 1 13.4521 3.9565 26.1129
7204 1 15.0347 5.5391 27.6955
7205 1 13.4521 3.9565 29.2781
7206 1 15.0347 5.5391 30.8607
7207 1 13.4521 3.9565 32.4433
7208 1 15.0347 5.5391 34.0259
7209 1 13.4521 3.9565 35.6085
7210 1 15.0347 5.5391 37.1911
7211 1 13.4521 7.1217 10.2869
7212 1 15.0347 8.7043 11.8695
7213 1 13.4521 7.1217 13.4521
7214 1 15.0347 8.7043 15.0347
7215 1 13.4521 7.1217 16.6173
7216 1 15.0347 8.7043 18.1999
7217 1 13.4521 7.1217 19.7825
7218 1 15.0347 8.7043 21.3651
7219 1 13.4521 7.1217 22.9477
7220 1 15.0347 8.7043 24.5303
7221 1 13.4521 7.1217 26.1129
7222 1 15.0347 8.7043 27.6955
7223 1 13.4521 7.1217 29.2781
7224 1 15.0347 8.7043 30.8607
7225 1 13.4521 7.1217 32.4433
7226 1 15.0347 8.7043 34.0259
7227 1 13.4521 7.1217 35.6085
7228 1 15.0347 8.7043 37.1911
7229 1 16.6173 0.7913 10.2869
7230 1 18.1999 2.3739 11.8695
7231 1 16.6173 0.7913 13.4521
7232 1 18.1999 2.3739 15.0347
7233 1 16.6173 0.7913 16.6173
7234 1 18.1999 2.3739 18.1999
7235 1 16.6173 0.7913 19.7825
7236 1 18.1999 2.3739 21.3651
7237 1 16.6173 0.7913 22.9477
7238 1 18.1999 2.3739 24.5303
7239 1 16.6173 0.7913 26.1129
7240 1 18.1999 2.3739 27.6955
7241 1 16.6173 0.7913 29.2781
7242 1 18.1999 2.3739 30.8607
7243 1 16.6173 0.7913 32.4433
7244 1 18.1999 2.3739 34.0259
7245 1 16.6173 0.7913 35.6085
7246 1 18.1999 2.3739 37.1911
7247 1 16.6173 3.9565 10.2869
7248 1 18.1999 5.5391 11.8695
7249 1 16.6173 3.9565 13.4521
7250 1 18.1999 5.5391 15.0347
7251 1 16.6173 3.9565 16.6173
7252 1 18.1999 5.5391 18.1999
7253 1 16.6173 3.9565 19.7825
7254 1 18.1999 5.5391 21.3651
7255 1 16.6173 3.9565 22.9477
7256 1 18.1999 5.5391 24.5303
7257 1 16.6173 3.9565 26.1129
7258 1 18.1999 5.5391 27.6955
7259 1 16.6173 3.9565 29.2781
7260 1 18.1999 5.5391 30.8607
7261 1 16.6173 3.9565 32.4433
7262 1 18.1999 5.5391 34.0259
7263 1 16.6173 3.9565 35.6085
7264 1 18.1999 5.5391 37.1911
7265 1 16.6173 7.1217 10.2869
7266 1 18.1999 8.7043 11.8695
7267 1 16.6173 7.1217 13.4521
7268 1 18.1999 8.7043 15.0347
7269 1 16.6173 7.1217 16.6173
7270 1 18.1999 8.7043 18.1999
7271 1 16.6173 7.1217 19.7825
7272 1 18.1999 8.7043 21.3651
7273 1 16.6173 7.1217 22.9477
7274 1 18.1999 8.7043 24.5303
7275 1 16.6173 7.1217 26.1129
7276 1 18.1999 8.7043 27.6955
7277 1 16.6173 7.1217 29.2781
7278 1 18.1999 8.7043 30.8607
7279 1 16.6173 7.1217 32.4433
7280 1 18.1999 8.7043 34.0259
7281 1 16.6173 7.1217 35.6085
7282 1 18.1999 8.7043 37.1911
7283 1 19.7825 0.7913 10.2869
7284 1 21.3651 2.3739 11.8695
7285 1 19.7825 0.7913 13.4521
7286 1 21.3651 2.3739 15.0347
7287 1 19.7825 0.7913 16.6173
7288 1 21.3651 2.3739 18.1999
7289 1 19.7825 0.7913 19.7825
7290 1 21.3651 2.3739 21.3651
7291 1 19.7825 0.7913 22.9477
7292 1 21.3651 2.3739 24.5303
7293 1 19.7825 0.7913 26.1129
7294 1 21.3651 2.3739 27.6955
7295 1 19.7825 0.7913 29.2781
7296 1 21.3651 2.3739 30.8607
7297 1 19.7825 0.7913 32.4433
7298 1 21.3651 2.3739 34.0259
7299 1 19.7825 0.7913 35.6085
7300 1 21.3651 2.3739 37.1911
7301 1 19.7825 3.9565 10.2869
7302 1 21.3651 5.5391 11.8695
7303 1 19.7825 3.9565 13.4521
7304 1 21.3651 5.5391 15.0347
7305 1 19.7825 3.9565 16.6173
7306 1 21.3651 5.5391 18.1999
7307 1 19.7825 3.9565 19.7825
7308 1 21.3651 5.5391 21.3651
7309 1 19.7825 3.9565 22.9477
7310 1 21.3651 5.5391 24.5303
7311 1 19.7825 3.9565 26.1129
7312 1 21.3651 5.5391 27.6955
7313 1 19.7825 3.9565 29.2781
7314 1 21.3651 5.5391 30.8607
7315 1 19.7825 3.9565 32.4433
7316 1 21.3651 5.5391 34.0259
7317 1 19.7825 3.9565 35.6085
7318 1 21.3651 5.5391 37.1911
7319 1 19.7825 7.1217 10.2869
7320 1 21.3651 8.7043 11.8695
7321 1 19.7825 7.1217 13.4521
7322 1 21.3651 8.7043 15.0347
7323 1 19.7825 7.1217 16.6173
7324 1 21.3651 8.7043 18.1999
7325 1 19.7825 7.1217 19.7825
7326 1 21.3651 8.7043 21.3651
7327 1 19.7825 7.1217 22.9477
7328 1 21.3651 8.7043 24.5303
7329 1 19.7825 7.1217 26.1129
7330 1 21.3651 8.7043 27.6955
7331 1 19.7825 7.1217 29.2781
7332 1 21.3651 8.7043 30.8607
7333 1 19.7825 7.1217 32.4433
7334 1 21.3651 8.7043 34.0259
7335 1 19.7825 7.1217 35.6085
7336 1 21.3651 8.7043 37.1911
7337 1 22.9477 0.7913 10.2869
7338 1 24.5303 2.3739 11.8695
7339 1 22.9477 0.7913 13.4521
7340 1 24.5303 2.3739 15.0347
7341 1 22.9477 0.7913 16.6173
7342 1 24.5303 2.3739 18.1999
7343 1 22.9477 0.7913 19.7825
7344 1 24.5303 2.3739 21.3651
7345 1 22.9477 0.7913 22.9477
7346 1 24.5303 2.3739 24.5303
7347 1 22.9477 0.7913 26.1129
7348 1 24.5303 2.3739 27.6955
7349 1 22.9477 0.7913 29.2781
7350 1 24.5303 2.3739 30.8607
7351 1 22.9477 0.7913 32.4433
7352 1 24.5303 2.3739 34.0259
7353 1 22.9477 0.7913 35.6085
7354 1 24.5303 2.3739 37.1911
7355 1 22.9477 3.9565 10.2869
7356 1 24.5303 5.5391 11.8695
7357 1 22.9477 3.9565 13.4521
7358 1 24.5303 5.5391 15.0347
7359 1 22.9477 3.9565 16.6173
7360 1 24.5303 5.5391 18.1999
7361 1 22.9477 3.9565 19.7825
7362 1 24.5303 5.5391 21.3651
7363 1 22.9477 3.9565 22.9477
7364 1 24.5303 5.5391 24.5303
7365 1 22.9477 3.9565 26.1129
7366 1 24.5303 5.5391 27.6955
7367 1 22.9477 3.9565 29.2781
7368 1 24.5303 5.5391 30.8607
7369 1 22.9477 3.9565 32.4433
7370 1 24.5303 5.5391 34.0259
7371 1 22.9477 3.9565 35.6085
7372 1 24.5303 5.5391 37.1911
7373 1 22.9477 7.1217 10.2869
7374 1 24.5303 8.7043 11.8695
7375 1 22.9477 7.1217 13.4521
7376 1 24.5303 8.7043 15.0347
7377 1 22.9477 7.1217 16.6173
7378 1 24.5303 8.7043 18.1999
7379 1 22.9477 7.1217 19.7825
7380 1 24.5303 8.7043 21.3651
7381 1 22.9477 7.1217 22.9477
7382 1 24.5303 8.7043 24.5303
7383 1 22.9477 7.1217 26.1129
7384 1 24.5303 8.7043 27.6955
7385 1 22.9477 7.1217 29.2781
7386 1 24.5303 8.7043 30.8607
7387 1 22.9477 7.1217 32.4433
7388 1 24.5303 8.7043 34.0259
7389 1 22.9477 7.1217 35.6085
7390 1 24.5303 8.7043 37.1911
7391 1 26.1129 0.7913 10.2869
7392 1 27.6955 2.3739 11.8695
7393 1 26.1129 0.7913 13.4521
7394 1 27.6955 2.3739 15.0347
7395 1 26.1129 0.7913 16.6173
7396 1 27.6955 2.3739 18.1999
7397 1 26.1129 0.7913 19.7825
7398 1 27.6955 2.3739 21.3651
7399 1 26.1129 0.7913 22.9477
7400 1 27.6955 2.3739 24.5303
7401 1 26.1129 0.7913 26.1129
7402 1 27.6955 2.3739 27.6955
7403 1 26.1129 0.7913 29.2781
7404 1 27.6955 2.3739 30.8607
7405 1 26.1129 0.7913 32.4433
7406 1 27.6955 2.3739 34.0259
7407 1 26.1129 0.7913 35.6085
7408 1 27.6955 2.3739 37.1911
7409 1 26.1129 3.9565 10.2869
7410 1 27.6955 5.5391 11.8695
7411 1 26.1129 3.9565 13.4521
7412 1 27.6955 5.5391 15.0347
7413 1 26.1129 3.9565 16.6173
7414 1 27.6955 5.5391 18.1999
7415 1 26.1129 3.9565 19.7825
7416 1 27.6955 5.5391 21.3651
7417 1 26.1129 3.9565 22.9477
7418 1 27.6955 5.5391 24.5303
7419 1 26.1129 3.9565 26.1129
7420 1 27.6955 5.5391 27.6955
7421 1 26.1129 3.9565 29.2781
7422 1 27.6955 5.5391 30.8607
7423 1 26.1129 3.9565 32.4433
7424 1 27.6955 5.5391 34.0259
7425 1 26.1129 3.9565 35.6085
7426 1 27.6955 5.5391 37.1911
7427 1 26.1129 7.1217 10.2869
7428 1 27.6955 8.7043 11.8695
7429 1 26.1129 7.1217 13.4521
7430 1 27.6955 8.7043 15.0347
7431 1 26.1129 7.1217 16.6173
7432 1 27.6955 8.7043 18.1999
7433 1 26.1129 7.1217 19.7825
7434 1 27.6955 8.7043 21.3651
7435 1 26.1129 7.1217 22.9477
7436 1 27.6955 8.7043 24.5303
7437 1 26.1129 7.1217 26.1129
7438 1 27.6955 8.7043 27.6955
7439 1 26.1129 7.1217 29.2781
7440 1 27.6955 8.7043 30.8607
7441 1 26.1129 7.1217 32.4433
7442 1 27.6955 8.7043 34.0259
7443 1 26.1129 7.1217 35.6085
7444 1 27.6955 8.7043 37.1911
7445 1 29.2781 0.7913 10.2869
7446 1 30.8607 2.3739 11.8695
7447 1 29.2781 0.7913 13.4521
7448 1 30.8607 2.3739 15.0347
7449 1 29.2781 0.7913 16.6173
7450 1 30.8607 2.3739 18.1999
7451 1 29.2781 0.7913 19.7825
7452 1 30.8607 2.3739 21.3651
7453 1 29.2781 0.7913 22.9477
7454 1 30.8607 2.3739 24.5303
7455 1 29.2781 0.7913 26.1129
7456 1 30.8607 2.3739 27.6955
7457 1 29.2781 0.7913 29.2781
7458 1 30.8607 2.3739 30.8607
7459 1 29.2781 0.7913 32.4433
7460 1 30.8607 2.3739 34.0259
7461 1 29.2781 0.7913 35.6085
7462 1 30.8607 2.3739 37.1911
7463 1 29.2781 3.9565 10.2869
7464 1 30.8607 5.5391 11.8695
7465 1 29.2781 3.9565 13.4521
7466 1 30.8607 5.5391 15.0347
7467 1 29.2781 3.9565 16.6173
7468 1 30.8607 5.5391 18.1999
7469 1 29.2781 3.9565 19.7825
7470 1 30.8607 5.5391 21.3651
7471 1 29.2781 3.9565 22.9477
7472 1 30.8607 5.5391 24.5303
7473 1 29.2781 3.9565 26.1129
7474 1 30.8607 5.5391 27.6955
7475 1 29.2781 3.9565 29.2781
7476 1 30.8607 5.5391 30.8607
7477 1 29.2781 3.9565 32.4433
7478 1 30.8607 5.5391 34.0259
7479 1 29.2781 3.9565 35.6085
7480 1 30.8607 5.5391 37.1911
7481 1 29.2781 7.1217 10.2869
7482 1 30.8607 8.7043 11.8695
7483 1 29.2781 7.1217 13.4521
7484 1 30.8607 8.7043 15.0347
7485 1 29.2781 7.1217 16.6173
7486 1 30.8607 8.7043 18.1999
7487 1 29.2781 7.1217 19.7825
7488 1 30.8607 8.7043 21.3651
7489 1 29.2781 7.1217 22.9477
7490 1 30.8607 8.7043 24.5303
7491 1 29.2781 7.1217 26.1129
7492 1 30.8607 8.7043 27.6955
7493 1 29.2781 7.1217 29.2781
7494 1 30.8607 8.7043 30.8607
7495 1 29.2781 7.1217 32.4433
7496 1 30.8607 8.7043 34.0259
7497 1 29.2781 7.1217 35.6085
7498 1 30.8607 8.7043 37.1911
7499 1 32.4433 0.7913 10.2869
7500 1 34.0259 2.3739 11.8695
7501 1 32.4433 0.7913 13.4521
7502 1 34.0259 2.3739 15.0347
7503 1 32.4433 0.7913 16.6173
7504 1 34.0259 2.3739 18.1999
7505 1 32.4433 0.7913 19.7825
7506 1 34.0259 2.3739 21.3651
7507 1 32.4433 0.7913 22.9477
7508 1 34.0259 2.3739 24.5303
7509 1 32.4433 0.7913 26.1129
7510 1 34.0259 2.3739 27.6955
7511 1 32.4433 0.7913 29.2781
7512 1 34.0259 2.3739 30.8607
7513 1 32.4433 0.7913 32.4433
7514 1 34.0259 2.3739 34.0259
7515 1 32.4433 0.7913 35.6085
7516 1 34.0259 2.3739 37.1911
7517 1 32.4433 3.9565 10.2869
7518 1 34.0259 5.5391 11.8695
7519 1 32.4433 3.9565 13.4521
7520 1 34.0259 5.5391 15.0347
7521 1 32.4433 3.9565 16.6173
7522 1 34.0259 5.5391 18.1999
7523 1 32.4433 3.9565 19.7825
7524 1 34.0259 5.5391 21.3651
7525 1 32.4433 3.9565 22.9477
7526 1 34.0259 5.5391 24.5303
7527 1 32.4433 3.9565 26.1129
7528 1 34.0259 5.5391 27.6955
7529 1 32.4433 3.9565 29.2781
7530 1 34.0259 5.5391 30.8607
7531 1 32.4433 3.9565 32.4433
7532 1 34.0259 5.5391 34.0259
7533 1 32.4433 3.9565 35.6085
7534 1 34.0259 5.5391 37.1911
7535 1 32.4433 7.1217 10.2869
7536 1 34.0259 8.7043 11.8695
7537 1 32.4433 7.1217 13.4521
7538 1 34.0259 8.7043 15.0347
7539 1 32.4433 7.1217 16.6173
7540 1 34.0259 8.7043 18.1999
7541 1 32.4433 7.1217 19.7825
7542 1 34.0259 8.7043 21.3651
7543 1 32.4433 7.1217 22.9477
7544 1 34.0259 8.7043 24.5303
7545 1 32.4433 7.1217 26.1129
7546 1 34.0259 8.7043 27.6955
7547 1 32.4433 7.1217 29.2781
7548 1 34.0259 8.7043 30.8607
7549 1 32.4433 7.1217 32.4433
7550 1 34.0259 8.7043 34.0259
7551 1 32.4433 7.1217 35.6085
7552 1 34.0259 8.7043 37.1911
7553 1 35.6085 0.7913 10.2869
7554 1 37.1911 2.3739 11.8695
7555 1 35.6085 0.7913 13.4521
7556 1 37.1911 2.3739 15.0347
7557 1 35.6085 0.7913 16.6173
7558 1 37.1911 2.3739 18.1999
7559 1 35.6085 0.7913 19.7825
7560 1 37.1911 2.3739 21.3651
7561 1 35.6085 0.7913 22.9477
7562 1 37.1911 2.3739 24.5303
7563 1 35.6085 0.7913 26.1129
7564 1 37.1911 2.3739 27.6955
7565 1 35.6085 0.7913 29.2781
7566 1 37.1911 2.3739 30.8607
7567 1 35.6085 0.7913 32.4433
7568 1 37.1911 2.3739 34.0259
7569 1 35.6085 0.7913 35.6085
7570 1 37.1911 2.3739 37.1911
7571 1 35.6085 3.9565 10.2869
7572 1 37.1911 5.5391 11.8695
7573 1 35.6085 3.9565 13.4521
7574 1 37.1911 5.5391 15.0347
7575 1 35.6085 3.9565 16.6173
7576 1 37.1911 5.5391 18.1999
7577 1 35.6085 3.9565 19.7825
7578 1 37.1911 5.5391 21.3651
7579 1 35.6085 3.9565 22.9477
7580 1 37.1911 5.5391 24.5303
7581 1 35.6085 3.9565 26.1129
7582 1 37.1911 5.5391 27.6955
7583 1 35.6085 3.9565 29.2781
7584 1 37.1911 5.5391 30.8607
7585 1 35.6085 3.9565 32.4433
7586 1 37.1911 5.5391 34.0259
7587 1 35.6085 3.9565 35.6085
7588 1 37.1911 5.5391 37.1911
7589 1 35.6085 7.1217 10.2869
7590 1 37.1911 8.7043 11.8695
7591 1 35.6085 7.1217 13.4521
7592 1 37.1911 8.7043 15.0347
7593 1 35.6085 7.1217 16.6173
7594 1 37.1911 8.7043 18.1999
7595 1 35.6085 7.1217 19.7825
7596 1 37.1911 8.7043 21.3651
7597 1 35.6085 7.1217 22.9477
7598 1 37.1911 8.7043 24.5303
7599 1 35.6085 7.1217 26.1129
7600 1 37.1911 8.7043 27.6955
7601 1 35.6085 7.1217 29.2781
7602 1 37.1911 8.7043 30.8607
7603 1 35.6085 7.1217 32.4433
7604 1 37.1911 8.7043 34.0259
7605 1 35.6085 7.1217 35.6085
7606 1 37.1911 8.7043 37.1911
7607 1 38.7737 0.7913 10.2869
7608 1 40.3563 2.3739 11.8695
7609 1 38.7737 0.7913 13.4521
7610 1 40.3563 2.3739 15.0347
7611 1 38.7737 0.7913 16.6173
7612 1 40.3563 2.3739 18.1999
7613 1 38.7737 0.7913 19.7825
7614 1 40.3563 2.3739 21.3651
7615 1 38.7737 0.7913 22.9477
7616 1 40.3563 2.3739 24.5303
7617 1 38.7737 0.7913 26.1129
7618 1 40.3563 2.3739 27.6955
7619 1 38.7737 0.7913 29.2781
7620 1 40.3563 2.3739 30.8607
7621 1 38.7737 0.7913 32.4433
7622 1 40.3563 2.3739 34.0259
7623 1 38.7737 0.7913 35.6085
7624 1 40.3563 2.3739 37.1911
7625 1 38.7737 3.9565 10.2869
7626 1 40.3563 5.5391 11.8695
7627 1 38.7737 3.9565 13.4521
7628 1 40.3563 5.5391 15.0347
7629 1 38.7737 3.9565 16.6173
7630 1 40.3563 5.5391 18.1999
7631 1 38.7737 3.9565 19.7825
7632 1 40.3563 5.5391 21.3651
7633 1 38.7737 3.9565 22.9477
7634 1 40.3563 5.5391 24.5303
7635 1 38.7737 3.9565 26.1129
7636 1 40.3563 5.5391 27.6955
7637 1 38.7737 3.9565 29.2781
7638 1 40.3563 5.5391 30.8607
7639 1 38.7737 3.9565 32.4433
7640 1 40.3563 5.5391 34.0259
7641 1 38.7737 3.9565 35.6085
7642 1 40.3563 5.5391 37.1911
7643 1 38.7737 7.1217 10.2869
7644 1 40.3563 8.7043 11.8695
7645 1 38.7737 7.1217 13.4521
7646 1 40.3563 8.7043 15.0347
7647 1 38.7737 7.1217 16.6173
7648 1 40.3563 8.7043 18.1999
7649 1 38.7737 7.1217 19.7825
7650 1 40.3563 8.7043 21.3651
7651 1 38.7737 7.1217 22.9477
7652 1 40.3563 8.7043 24.5303
7653 1 38.7737 7.1217 26.1129
7654 1 40.3563 8.7043 27.6955
7655 1 38.7737 7.1217 29.2781
7656 1 40.3563 8.7043 30.8607
7657 1 38.7737 7.1217 32.4433
7658 1 40.3563 8.7043 34.0259
7659 1 38.7737 7.1217 35.6085
7660 1 40.3563 8.7043 37.1911
7661 1 10.2869 41.9389 10.2869
7662 1 11.8695 43.5215 11.8695
7663 1 10.2869 41.9389 13.4521
7664 1 11.8695 43.5215 15.0347
7665 1 10.2869 41.9389 16.6173
7666 1 11.8695 43.5215 18.1999
7667 1 10.2869 41.9389 19.7825
7668 1 11.8695 43.5215 21.3651
7669 1 10.2869 41.9389 22.9477
7670 1 11.8695 43.5215 24.5303
7671 1 10.2869 41.9389 26.1129
7672 1 11.8695 43.5215 27.6955
7673 1 10.2869 41.9389 29.2781
7674 1 11.8695 43.5215 30.8607
7675 1 10.2869 41.9389 32.4433
7676 1 11.8695 43.5215 34.0259
7677 1 10.2869 41.9389 35.6085
7678 1 11.8695 43.5215 37.1911
7679 1 10.2869 45.1041 10.2869
7680 1 11.8695 46.6867 11.8695
7681 1 10.2869 45.1041 13.4521
7682 1 11.8695 46.6867 15.0347
7683 1 10.2869 45.1041 16.6173
7684 1 11.8695 46.6867 18.1999
7685 1 10.2869 45.1041 19.7825
7686 1 11.8695 46.6867 21.3651
7687 1 10.2869 45.1041 22.9477
7688 1 11.8695 46.6867 24.5303
7689 1 10.2869 45.1041 26.1129
7690 1 11.8695 46.6867 27.6955
7691 1 10.2869 45.1041 29.2781
7692 1 11.8695 46.6867 30.8607
7693 1 10.2869 45.1041 32.4433
7694 1 11.8695 46.6867 34.0259
7695 1 10.2869 45.1041 35.6085
7696 1 11.8695 46.6867 37.1911
7697 1 10.2869 48.2693 10.2869
7698 1 11.8695 49.8519 11.8695
7699 1 10.2869 48.2693 13.4521
7700 1 11.8695 49.8519 15.0347
7701 1 10.2869 48.2693 16.6173
7702 1 11.8695 49.8519 18.1999
7703 1 10.2869 48.2693 19.7825
7704 1 11.8695 49.8519 21.3651
7705 1 10.2869 48.2693 22.9477
7706 1 11.8695 49.8519 24.5303
7707 1 10.2869 48.2693 26.1129
7708 1 11.8695 49.8519 27.6955
7709 1 10.2869 48.2693 29.2781
7710 1 11.8695 49.8519 30.8607
7711 1 10.2869 48.2693 32.4433
7712 1 11.8695 49.8519 34.0259
7713 1 10.2869 48.2693 35.6085
7714 1 11.8695 49.8519 37.1911
7715 1 13.4521 41.9389 10.2869
7716 1 15.0347 43.5215 11.8695
7717 1 13.4521 41.9389 13.4521
7718 1 15.0347 43.5215 15.0347
7719 1 13.4521 41.9389 16.6173
7720 1 15.0347 43.5215 18.1999
7721 1 13.4521 41.9389 19.7825
7722 1 15.0347 43.5215 21.3651
7723 1 13.4521 41.9389 22.9477
7724 1 15.0347 43.5215 24.5303
7725 1 13.4521 41.9389 26.1129
7726 1 15.0347 43.5215 27.6955
7727 1 13.4521 41.9389 29.2781
7728 1 15.0347 43.5215 30.8607
7729 1 13.4521 41.9389 32.4433
7730 1 15.0347 43.5215 34.0259
7731 1 13.4521 41.9389 35.6085
7732 1 15.0347 43.5215 37.1911
7733 1 13.4521 45.1041 10.2869
7734 1 15.0347 46.6867 11.8695
7735 1 13.4521 45.1041 13.4521
7736 1 15.0347 46.6867 15.0347
7737 1 13.4521 45.1041 16.6173
7738 1 15.0347 46.6867 18.1999
7739 1 13.4521 45.1041 19.7825
7740 1 15.0347 46.6867 21.3651
7741 1 13.4521 45.1041 22.9477
7742 1 15.0347 46.6867 24.5303
7743 1 13.4521 45.1041 26.1129
7744 1 15.0347 46.6867 27.6955
7745 1 13.4521 45.1041 29.2781
7746 1 15.0347 46.6867 30.8607
7747 1 13.4521 45.1041 32.4433
7748 1 15.0347 46.6867 34.0259
7749 1 13.4521 45.1041 35.6085
7750 1 15.0347 46.6867 37.1911
7751 1 13.4521 48.2693 10.2869
7752 1 15.0347 49.8519 11.8695
7753 1 13.4521 48.2693 13.4521
7754 1 15.0347 49.8519 15.0347
7755 1 13.4521 48.2693 16.6173
7756 1 15.0347 49.8519 18.1999
7757 1 13.4521 48.2693 19.7825
7758 1 15.0347 49.8519 21.3651
7759 1 13.4521 48.2693 22.9477
7760 1 15.0347 49.8519 24.5303
7761 1 13.4521 48.2693 26.1129
7762 1 15.0347 49.8519 27.6955
7763 1 13.4521 48.2693 29.2781
7764 1 15.0347 49.8519 30.8607
7765 1 13.4521 48.2693 32.4433
7766 1 15.0347 49.8519 34.0259
7767 1 13.4521 48.2693 35.6085
7768 1 15.0347 49.8519 37.1911
7769 1 16.6173 41.9389 10.2869
7770 1 18.1999 43.5215 11.8695
7771 1 16.6173 41.9389 13.4521
7772 1 18.1999 43.5215 15.0347
7773 1 16.6173 41.9389 16.6173
7774 1 18.1999 43.5215 18.1999
7775 1 16.6173 41.9389 19.7825
7776 1 18.1999 43.5215 21.3651
7777 1 16.6173 41.9389 22.9477
7778 1 18.1999 43.5215 24.5303
7779 1 16.6173 41.9389 26.1129
7780 1 18.1999 43.5215 27.6955
7781 1 16.6173 41.9389 29.2781
7782 1 18.1999 43.5215 30.8607
7783 1 16.6173 41.9389 32.4433
7784 1 18.1999 43.5215 34.0259
7785 1 16.6173 41.9389 35.6085
7786 1 18.1999 43.5215 37.1911
7787 1 16.6173 45.1041 10.2869
7788 1 18.1999 46.6867 11.8695
7789 1 16.6173 45.1041 13.4521
7790 1 18.1999 46.6867 15.0347
7791 1 16.6173 45.1041 16.6173
7792 1 18.1999 46.6867 18.1999
7793 1 16.6173 45.1041 19.7825
7794 1 18.1999 46.6867 21.3651
7795 1 16.6173 45.1041 22.9477
7796 1 18.1999 46.6867 24.5303
7797 1 16.6173 45.1041 26.1129
7798 1 18.1999 46.6867 27.6955
7799 1 16.6173 45.1041 29.2781
7800 1 18.1999 46.6867 30.8607
7801 1 16.6173 45.1041 32.4433
7802 1 18.1999 46.6867 34.0259
7803 1 16.6173 45.1041 35.6085
7804 1 18.1999 46.6867 37.1911
7805 1 16.6173 48.2693 10.2869
7806 1 18.1999 49.8519 11.8695
7807 1 16.6173 48.2693 13.4521
7808 1 18.1999 49.8519 15.0347
7809 1 16.6173 48.2693 16.6173
7810 1 18.1999 49.8519 18.1999
7811 1 16.6173 48.2693 19.7825
7812 1 18.1999 49.8519 21.3651
7813 1 16.6173 48.2693 22.9477
7814 1 18.1999 49.8519 24.5303
7815 1 16.6173 48.2693 26.1129
7816 1 18.1999 49.8519 27.6955
7817 1 16.6173 48.2693 29.2781
7818 1 18.1999 49.8519 30.8607
7819 1 16.6173 48.2693 32.4433
7820 1 18.1999 49.8519 34.0259
7821 1 16.6173 48.2693 35.6085
7822 1 18.1999 49.8519 37.1911
7823 1 19.7825 41.9389 10.2869
7824 1 21.3651 43.5215 11.8695
7825 1 19.7825 41.9389 13.4521
7826 1 21.3651 43.5215 15.0347
7827 1 19.7825 41.9389 16.6173
7828 1 21.3651 43.5215 18.1999
7829 1 19.7825 41.9389 19.7825
7830 1 21.3651 43.5215 21.3651
7831 1 19.7825 41.9389 22.9477
7832 1 21.3651 43.5215 24.5303
7833 1 19.7825 41.9389 26.1129
7834 1 21.3651 43.5215 27.6955
7835 1 19.7825 41.9389 29.2781
7836 1 21.3651 43.5215 30.8607
7837 1 19.7825 41.9389 32.4433
7838 1 21.3651 43.5215 34.0259
7839 1 19.7825 41.9389 35.6085
7840 1 21.3651 43.5215 37.1911
7841 1 19.7825 45.1041 10.2869
7842 1 21.3651 46.6867 11.8695
7843 1 19.7825 45.1041 13.4521
7844 1 21.3651 46.6867 15.0347
7845 1 19.7825 45.1041 16.6173
7846 1 21.3651 46.6867 18.1999
7847 1 19.7825 45.1041 19.7825
7848 1 21.3651 46.6867 21.3651
7849 1 19.7825 45.1041 22.9477
7850 1 21.3651 46.6867 24.5303
7851 1 19.7825 45.1041 26.1129
7852 1 21.3651 46.6867 27.6955
7853 1 19.7825 45.1041 29.2781
7854 1 21.3651 46.6867 30.8607
7855 1 19.7825 45.1041 32.4433
7856 1 21.3651 46.6867 34.0259
7857 1 19.7825 45.1041 35.6085
7858 1 21.3651 46.6867 37.1911
7859 1 19.7825 48.2693 10.2869
7860 1 21.3651 49.8519 11.8695
7861 1 19.7825 48.2693 13.4521
7862 1 21.3651 49.8519 15.0347
7863 1 19.7825 48.2693 16.6173
7864 1 21.3651 49.8519 18.1999
7865 1 19.7825 48.2693 19.7825
7866 1 21.3651 49.8519 21.3651
7867 1 19.7825 48.2693 22.9477
7868 1 21.3651 49.8519 24.5303
7869 1 19.7825 48.2693 26.1129
7870 1 21.3651 49.8519 27.6955
7871 1 19.7825 48.2693 29.2781
7872 1 21.3651 49.8519 30.8607
7873 1 19.7825 48.2693 32.4433
7874 1 21.3651 49.8519 34.0259
7875 1 19.7825 48.2693 35.6085
7876 1 21.3651 49.8519 37.1911
7877 1 22.9477 41.9389 10.2869
7878 1 24.5303 43.5215 11.8695
7879 1 22.9477 41.9389 13.4521
7880 1 24.5303 43.5215 15.0347
7881 1 22.9477 41.9389 16.6173
7882 1 24.5303 43.5215 18.1999
7883 1 22.9477 41.9389 19.7825
7884 1 24.5303 43.5215 21.3651
7885 1 22.9477 41.9389 22.9477
7886 1 24.5303 43.5215 24.5303
7887 1 22.9477 41.9389 26.1129
7888 1 24.5303 43.5215 27.6955
7889 1 22.9477 41.9389 29.2781
7890 1 24.5303 43.5215 30.8607
7891 1 22.9477 41.9389 32.4433
7892 1 24.5303 43.5215 34.0259
7893 1 22.9477 41.9389 35.6085
7894 1 24.5303 43.5215 37.1911
7895 1 22.9477 45.1041 10.2869
7896 1 24.5303 46.6867 11.8695
7897 1 22.9477 45.1041 13.4521
7898 1 24.5303 46.6867 15.0347
7899 1 22.9477 45.1041 16.6173
7900 1 24.5303 46.6867 18.1999
7901 1 22.9477 45.1041 19.7825
7902 1 24.5303 46.6867 21.3651
7903 1 22.9477 45.1041 22.9477
7904 1 24.5303 46.6867 24.5303
7905 1 22.9477 45.1041 26.1129
7906 1 24.5303 46.6867 27.6955
7907 1 22.9477 45.1041 29.2781
7908 1 24.5303 46.6867 30.8607
7909 1 22.9477 45.1041 32.4433
7910 1 24.5303 46.6867 34.0259
7911 1 22.9477 45.1041 35.6085
7912 1 24.5303 46.6867 37.1911
7913 1 22.9477 48.2693 10.2869
7914 1 24.5303 49.8519 11.8695
7915 1 22.9477 48.2693 13.4521
7916 1 24.5303 49.8519 15.0347
7917 1 22.9477 48.2693 16.6173
7918 1 24.5303 49.8519 18.1999
7919 1 22.9477 48.2693 19.7825
7920 1 24.5303 49.8519 21.3651
7921 1 22.9477 48.2693 22.9477
7922 1 24.5303 49.8519 24.5303
7923 1 22.9477 48.2693 26.1129
7924 1 24.5303 49.8519 27.6955
7925 1 22.9477 48.2693 29.2781
7926 1 24.5303 49.8519 30.8607
7927 1 22.9477 48.2693 32.4433
7928 1 24.5303 49.8519 34.0259
7929 1 22.9477 48.2693 35.6085
7930 1 24.5303 49.8519 37.1911
7931 1 26.1129 41.9389 10.2869
7932 1 27.6955 43.5215 11.8695
7933 1 26.1129 41.9389 13.4521
7934 1 27.6955 43.5215 15.0347
7935 1 26.1129 41.9389 16.6173
7936 1 27.6955 43.5215 18.1999
7937 1 26.1129 41.9389 19.7825
7938 1 27.6955 43.5215 21.3651
7939 1 26.1129 41.9389 22.9477
7940 1 27.6955 43.5215 24.5303
7941 1 26.1129 41.9389 26.1129
7942 1 27.6955 43.5215 27.6955
7943 1 26.1129 41.9389 29.2781
7944 1 27.6955 43.5215 30.8607
7945 1 26.1129 41.9389 32.4433
7946 1 27.6955 43.5215 34.0259
7947 1 26.1129 41.9389 35.6085
7948 1 27.6955 43.5215 37.1911
7949 1 26.1129 45.1041 10.2869
7950 1 27.6955 46.6867 11.8695
7951 1 26.1129 45.1041 13.4521
7952 1 27.6955 46.6867 15.0347
7953 1 26.1129 45.1041 16.6173
7954 1 27.6955 46.6867 18.1999
7955 1 26.1129 45.1041 19.7825
7956 1 27.6955 46.6867 21.3651
7957 1 26.1129 45.1041 22.9477
7958 1 27.6955 46.6867 24.5303
7959 1 26.1129 45.1041 26.1129
7960 1 27.6955 46.6867 27.6955
7961 1 26.1129 45.1041 29.2781
7962 1 27.6955 46.6867 30.8607
7963 1 26.1129 45.1041 32.4433
7964 1 27.6955 46.6867 34.0259
7965 1 26.1129 45.1041 35.6085
7966 1 27.6955 46.6867 37.1911
7967 1 26.1129 48.2693 10.2869
7968 1 27.6955 49.8519 11.8695
7969 1 26.1129 48.2693 13.4521
7970 1 27.6955 49.8519 15.0347
7971 1 26.1129 48.2693 16.6173
7972 1 27.6955 49.8519 18.1999
7973 1 26.1129 48.2693 19.7825
7974 1 27.6955 49.8519 21.3651
7975 1 26.1129 48.2693 22.9477
7976 1 27.6955 49.8519 24.5303
7977 1 26.1129 48.2693 26.1129
7978 1 27.6955 49.8519 27.6955
7979 1 26.1129 48.2693 29.2781
7980 1 27.6955 49.8519 30.8607
7981 1 26.1129 48.2693 32.4433
7982 1 27.6955 49.8519 34.0259
7983 1 26.1129 48.2693 35.6085
7984 1 27.6955 49.8519 37.1911
7985 1 29.2781 41.9389 10.2869
7986 1 30.8607 43.5215 11.8695
7987 1 29.2781 41.9389 13.4521
7988 1 30.8607 43.5215 15.0347
7989 1 29.2781 41.9389 16.6173
7990 1 30.8607 43.5215 18.1999
7991 1 29.2781 41.9389 19.7825
7992 1 30.8607 43.5215 21.3651
7993 1 29.2781 41.9389 22.9477
7994 1 30.8607 43.5215 24.5303
7995 1 29.2781 41.9389 26.1129
7996 1 30.8607 43.5215 27.6955
7997 1 29.2781 41.9389 29.2781
7998 1 30.8607 43.5215 30.8607
7999 1 29.2781 41.9389 32.4433
8000 1 30.8607 43.5215 34.0259
8001 1 29.2781 41.9389 35.6085
8002 1 30.8607 43.5215 37.1911
8003 1 29.2781 45.1041 10.2869
8004 1 30.8607 46.6867 11.8695
8005 1 29.2781 45.1041 13.4521
8006 1 30.8607 46.6867 15.0347
8007 1 29.2781 45.1041 16.6173
8008 1 30.8607 46.6867 18.1999
8009 1 29.2781 45.1041 19.7825
8010 1 30.8607 46.6867 21.3651
8011 1 29.2781 45.1041 22.9477
8012 1 30.8607 46.6867 24.5303
8013 1 29.2781 45.1041 26.1129
8014 1 30.8607 46.6867 27.6955
8015 1 29.2781 45.1041 29.2781
8016 1 30.8607 46.6867 30.8607
8017 1 29.2781 45.1041 32.4433
8018 1 30.8607 46.6867 34.0259
8019 1 29.2781 45.1041 35.6085
8020 1 30.8607 46.6867 37.1911
8021 1 29.2781 48.2693 10.2869
8022 1 30.8607 49.8519 11.8695
8023 1 29.2781 48.2693 13.4521
8024 1 30.8607 49.8519 15.0347
8025 1 29.2781 48.2693 16.6173
8026 1 30.8607 49.8519 18.1999
8027 1 29.2781 48.2693 19.7825
8028 1 30.8607 49.8519 21.3651
8029 1 29.2781 48.2693 22.9477
8030 1 30.8607 49.8519 24.5303
8031 1 29.2781 48.2693 26.1129
8032 1 30.8607 49.8519 27.6955
8033 1 29.2781 48.2693 29.2781
8034 1 30.8607 49.8519 30.8607
8035 1 29.2781 48.2693 32.4433
8036 1 30.8607 49.8519 34.0259
8037 1 29.2781 48.2693 35.6085
8038 1 30.8607 49.8519 37.1911
8039 1 32.4433 41.9389 10.2869
8040 1 34.0259 43.5215 11.8695
8041 1 32.4433 41.9389 13.4521
8042 1 34.0259 43.5215 15.0347
8043 1 32.4433 41.9389 16.6173
8044 1 34.0259 43.5215 18.1999
8045 1 32.4433 41.9389 19.7825
8046 1 34.0259 43.5215 21.3651
8047 1 32.4433 41.9389 22.9477
8048 1 34.0259 43.5215 24.5303
8049 1 32.4433 41.9389 26.1129
8050 1 34.0259 43.5215 27.6955
8051 1 32.4433 41.9389 29.2781
8052 1 34.0259 43.5215 30.8607
8053 1 32.4433 41.9389 32.4433
8054 1 34.0259 43.5215 34.0259
8055 1 32.4433 41.9389 35.6085
8056 1 34.0259 43.5215 37.1911
8057 1 32.4433 45.1041 10.2869
8058 1 34.0259 46.6867 11.8695
8059 1 32.4433 45.1041 13.4521
8060 1 34.0259 46.6867 15.0347
8061 1 32.4433 45.1041 16.6173
8062 1 34.0259 46.6867 18.1999
8063 1 32.4433 45.1041 19.7825
8064 1 34.0259 46.6867 21.3651
8065 1 32.4433 45.1041 22.9477
8066 1 34.0259 46.6867 24.5303
8067 1 32.4433 45.1041 26.1129
8068 1 34.0259 46.6867 27.6955
8069 1 32.4433 45.1041 29.2781
8070 1 34.0259 46.6867 30.8607
8071 1 32.4433 45.1041 32.4433
8072 1 34.0259 46.6867 34.0259
8073 1 32.4433 45.1041 35.6085
8074 1 34.0259 46.6867 37.1911
8075 1 32.4433 48.2693 10.2869
8076 1 34.0259 49.8519 11.8695
8077 1 32.4433 48.2693 13.4521
8078 1 34.0259 49.8519 15.0347
8079 1 32.4433 48.2693 16.6173
8080 1 34.0259 49.8519 18.1999
8081 1 32.4433 48.2693 19.7825
8082 1 34.0259 49.8519 21.3651
8083 1 32.4433 48.2693 22.9477
8084 1 34.0259 49.8519 24.5303
8085 1 32.4433 48.2693 26.1129
8086 1 34.0259 49.8519 27.6955
8087 1 32.4433 48.2693 29.2781
8088 1 34.0259 49.8519 30.8607
8089 1 32.4433 48.2693 32.4433
8090 1 34.0259 49.8519 34.0259
8091 1 32.4433 48.2693 35.6085
8092 1 34.0259 49.8519 37.1911
8093 1 35.6085 41.9389 10.2869
8094 1 37.1911 43.5215 11.8695
8095 1 35.6085 41.9389 13.4521
8096 1 37.1911 43.5215 15.0347
8097 1 35.6085 41.9389 16.6173
8098 1 37.1911 43.5215 18.1999
8099 1 35.6085 41.9389 19.7825
8100 1 37.1911 43.5215 21.3651
8101 1 35.6085 41.9389 22.9477
8102 1 37.1911 43.5215 24.5303
8103 1 35.6085 41.9389 26.1129
8104 1 37.1911 43.5215 27.6955
8105 1 35.6085 41.9389 29.2781
8106 1 37.1911 43.5215 30.8607
8107 1 35.6085 41.9389 32.4433
8108 1 37.1911 43.5215 34.0259
8109 1 35.6085 41.9389 35.6085
8110 1 37.1911 43.5215 37.1911
8111 1 35.6085 45.1041 10.2869
8112 1 37.1911 46.6867 11.8695
8113 1 35.6085 45.1041 13.4521
8114 1 37.1911 46.6867 15.0347
8115 1 35.6085 45.1041 16.6173
8116 1 37.1911 46.6867 18.1999
8117 1 35.6085 45.1041 19.7825
8118 1 37.1911 46.6867 21.3651
8119 1 35.6085 45.1041 22.9477
8120 1 37.1911 46.6867 24.5303
8121 1 35.6085 45.1041 26.1129
8122 1 37.1911 46.6867 27.6955
8123 1 35.6085 45.1041 29.2781
8124 1 37.1911 46.6867 30.8607
8125 1 35.6085 45.1041 32.4433
8126 1 37.1911 46.6867 34.0259
8127 1 35.6085 45.1041 35.6085
8128 1 37.1911 46.6867 37.1911
8129 1 35.6085 48.2693 10.2869
8130 1 37.1911 49.8519 11.8695
8131 1 35.6085 48.2693 13.4521
8132 1 37.1911 49.8519 15.0347
8133 1 35.6085 48.2693 16.6173
8134 1 37.1911 49.8519 18.1999
8135 1 35.6085 48.2693 19.7825
8136 1 37.1911 49.8519 21.3651
8137 1 35.6085 48.2693 22.9477
8138 1 37.1911 49.8519 24.5303
8139 1 35.6085 48.2693 26.1129
8140 1 37.1911 49.8519 27.6955
8141 1 35.6085 48.2693 29.2781
8142 1 37.1911 49.8519 30.8607
8143 1 35.6085 48.2693 32.4433
8144 1 37.1911 49.8519 34.0259
8145 1 35.6085 48.2693 35.6085
8146 1 37.1911 49.8519 37.1911
8147 1 38.7737 41.9389 10.2869
8148 1 40.3563 43.5215 11.8695
8149 1 38.7737 41.9389 13.4521
8150 1 40.3563 43.5215 15.0347
8151 1 38.7737 41.9389 16.6173
8152 1 40.3563 43.5215 18.1999
8153 1 38.7737 41.9389 19.7825
8154 1 40.3563 43.5215 21.3651
8155 1 38.7737 41.9389 22.9477
8156 1 40.3563 43.5215 24.5303
8157 1 38.7737 41.9389 26.1129
8158 1 40.3563 43.5215 27.6955
8159 1 38.7737 41.9389 29.2781
8160 1 40.3563 43.5215 30.8607
8161 1 38.7737 41.9389 32.4433
8162 1 40.3563 43.5215 34.0259
8163 1 38.7737 41.9389 35.6085
8164 1 40.3563 43.5215 37.1911
8165 1 38.7737 45.1041 10.2869
8166 1 40.3563 46.6867 11.8695
8167 1 38.7737 45.1041 13.4521
8168 1 40.3563 46.6867 15.0347
8169 1 38.7737 45.1041 16.6173
8170 1 40.3563 46.6867 18.1999
8171 1 38.7737 45.1041 19.7825
8172 1 40.3563 46.6867 21.3651
8173 1 38.7737 45.1041 22.9477
8174 1 40.3563 46.6867 24.5303
8175 1 38.7737 45.1041 26.1129
8176 1 40.3563 46.6867 27.6955
8177 1 38.7737 45.1041 29.2781
8178 1 40.3563 46.6867 30.8607
8179 1 38.7737 45.1041 32.4433
8180 1 40.3563 46.6867 34.0259
8181 1 38.7737 45.1041 35.6085
8182 1 40.3563 46.6867 37.1911
8183 1 38.7737 48.2693 10.2869
8184 1 40.3563 49.8519 11.8695
8185 1 38.7737 48.2693 13.4521
8186 1 40.3563 49.8519 15.0347
8187 1 38.7737 48.2693 16.6173
8188 1 40.3563 49.8519 18.1999
8189 1 38.7737 48.2693 19.7825
8190 1 40.3563 49.8519 21.3651
8191 1 38.7737 48.2693 22.9477
8192 1 40.3563 49.8519 24.5303
8193 1 38.7737 48.2693 26.1129
8194 1 40.3563 49.8519 27.6955
8195 1 38.7737 48.2693 29.2781
8196 1 40.3563 49.8519 30.8607
8197 1 38.7737 48.2693 32.4433
8198 1 40.3563 49.8519 34.0259
8199 1 38.7737 48.2693 35.6085
8200 1 40.3563 49.8519 37.1911
